<?xml version="1.0"?>
<VTKFile type="UnstructuredGrid" version="0.1" byte_order="LittleEndian">
<UnstructuredGrid>
<Piece NumberOfPoints="1416" NumberOfCells="472">
<Points>
<DataArray type="Float64" NumberOfComponents="3" format="ascii">
0 0 0 0.10457868679590381 0.1045786867961369 0 0 0.14285714285773729 0 0 0 0 0.10457868679590381 0.1045786867961369 0 0.14285714285686729 0 0 0 0.14285714285773729 0 0.1205280434882494 0.2198107335145128 0 0 0.28571428571547469 0 0.10457868679590381 0.1045786867961369 0 0 0.14285714285773729 0 0.1205280434882494 0.2198107335145128 0 0.10457868679590381 0.1045786867961369 0 0.1205280434882494 0.2198107335145128 0 0.23239159885774061 0.13190444287250189 0 0.1205280434882494 0.2198107335145128 0 0.23239159885774061 0.13190444287250189 0 0.24676305227411319 0.28687957031901817 0 0.23239159885774061 0.13190444287250189 0 0.14285714285686729 0 0 0.28571428571359381 0 0 0.10457868679590381 0.1045786867961369 0 0.23239159885774061 0.13190444287250189 0 0.14285714285686729 0 0 0 0.42857142857321201 0 0.12318626960338119 0.35806369368234708 0 0.1237179148261041 0.50000000000170131 0 0.1205280434882494 0.2198107335145128 0 0 0.28571428571547469 0 0.12318626960338119 0.35806369368234708 0 0 0.42857142857321201 0 0 0.28571428571547469 0 0.12318626960338119 0.35806369368234708 0 0.12318626960338119 0.35806369368234708 0 0.24676305227411319 0.28687957031901817 0 0.24734722211536869 0.42872490132986318 0 0.1205280434882494 0.2198107335145128 0 0.12318626960338119 0.35806369368234708 0 0.24676305227411319 0.28687957031901817 0 0.12318626960338119 0.35806369368234708 0 0.24734722211536869 0.42872490132986318 0 0.1237179148261041 0.50000000000170131 0 0.24734722211536869 0.42872490132986318 0 0.37092720430330528 0.3575352362405908 0 0.36988311095923349 0.50220080181584725 0 0.24676305227411319 0.28687957031901817 0 0.24734722211536869 0.42872490132986318 0 0.37092720430330528 0.3575352362405908 0 0.24676305227411319 0.28687957031901817 0 0.37092720430330528 0.3575352362405908 0 0.36915712373071241 0.21636596932123339 0 0.37092720430330528 0.3575352362405908 0 0.49672432738210071 0.28393829206612331 0 0.49462213035585811 0.42900362539316111 0 0.37092720430330528 0.3575352362405908 0 0.49672432738210071 0.28393829206612331 0 0.36915712373071241 0.21636596932123339 0 0.37092720430330528 0.3575352362405908 0 0.49462213035585811 0.42900362539316111 0 0.36988311095923349 0.50220080181584725 0 0.23239159885774061 0.13190444287250189 0 0.28571428571359381 0 0 0.35859653742646141 0.095659861108573122 0 0.28571428571359381 0 0 0.35859653742646141 0.095659861108573122 0 0.42857142857032021 0 0 0.23239159885774061 0.13190444287250189 0 0.35859653742646141 0.095659861108573122 0 0.36915712373071241 0.21636596932123339 0 0.23239159885774061 0.13190444287250189 0 0.24676305227411319 0.28687957031901817 0 0.36915712373071241 0.21636596932123339 0 0.35859653742646141 0.095659861108573122 0 0.36915712373071241 0.21636596932123339 0 0.49780213970257631 0.12951344063459669 0 0.49672432738210071 0.28393829206612331 0 0.36915712373071241 0.21636596932123339 0 0.49780213970257631 0.12951344063459669 0 0.49780213970257631 0.12951344063459669 0 0.42857142857032021 0 0 0.57142857142744297 0 0 0.35859653742646141 0.095659861108573122 0 0.49780213970257631 0.12951344063459669 0 0.42857142857032021 0 0 0.49780213970257631 0.12951344063459669 0 0.57142857142744297 0 0 0.63660835508033609 0.094591959883232241 0 0.71428571428496201 0 0 0.63660835508033609 0.094591959883232241 0 0.77046111744085066 0.12953438606218601 0 0.57142857142744297 0 0 0.71428571428496201 0 0 0.63660835508033609 0.094591959883232241 0 0.62906423254584809 0.2139119727193784 0 0.74962020231513216 0.28479798582519888 0 0.77046111744085066 0.12953438606218601 0 0.63660835508033609 0.094591959883232241 0 0.62906423254584809 0.2139119727193784 0 0.77046111744085066 0.12953438606218601 0 0.49780213970257631 0.12951344063459669 0 0.63660835508033609 0.094591959883232241 0 0.62906423254584809 0.2139119727193784 0 0.49672432738210071 0.28393829206612331 0 0.49780213970257631 0.12951344063459669 0 0.62906423254584809 0.2139119727193784 0 0.49672432738210071 0.28393829206612331 0 0.62906423254584809 0.2139119727193784 0 0.61877313365430409 0.35729950808777972 0 0.49672432738210071 0.28393829206612331 0 0.49462213035585811 0.42900362539316111 0 0.61877313365430409 0.35729950808777972 0 0.49462213035585811 0.42900362539316111 0 0.61877313365430409 0.35729950808777972 0 0.61994046021572546 0.50050770882833406 0 0.61877313365430409 0.35729950808777972 0 0.74395712453556107 0.42868954426104389 0 0.61994046021572546 0.50050770882833406 0 0.62906423254584809 0.2139119727193784 0 0.61877313365430409 0.35729950808777972 0 0.74962020231513216 0.28479798582519888 0 0.61877313365430409 0.35729950808777972 0 0.74395712453556107 0.42868954426104389 0 0.74962020231513216 0.28479798582519888 0 0.74962020231513216 0.28479798582519888 0 0.87039329201519555 0.35777862987572301 0 0.88067757021423154 0.21876991540137231 0 0.74395712453556107 0.42868954426104389 0 0.74962020231513216 0.28479798582519888 0 0.87039329201519555 0.35777862987572301 0 0.74395712453556107 0.42868954426104389 0 0.87039329201519555 0.35777862987572301 0 0.87402660110768737 0.50072468068975784 0 0.87039329201519555 0.35777862987572301 0 0.87402660110768737 0.50072468068975784 0 1 0.42857142857032021 0 0.87039329201519555 0.35777862987572301 0 1 0.28571428571359381 0 1 0.42857142857032021 0 0.87039329201519555 0.35777862987572301 0 0.88067757021423154 0.21876991540137231 0 1 0.28571428571359381 0 0.88067757021423154 0.21876991540137231 0 1 0.14285714285686729 0 1 0.28571428571359381 0 0.88067757021423154 0.21876991540137231 0 0.89542131320405993 0.10457868679576519 0 1 0.14285714285686729 0 0.89542131320405993 0.10457868679576519 0 0.85714285714248095 0 0 1 0 0 0.89542131320405993 0.10457868679576519 0 1 0.14285714285686729 0 1 0 0 0.71428571428496201 0 0 0.85714285714248095 0 0 0.77046111744085066 0.12953438606218601 0 0.89542131320405993 0.10457868679576519 0 0.85714285714248095 0 0 0.77046111744085066 0.12953438606218601 0 0.74962020231513216 0.28479798582519888 0 0.88067757021423154 0.21876991540137231 0 0.77046111744085066 0.12953438606218601 0 0.88067757021423154 0.21876991540137231 0 0.89542131320405993 0.10457868679576519 0 0.77046111744085066 0.12953438606218601 0 0.77107999172528308 0.87126586664953709 0 0.88289663992475431 0.7838324948760429 0 0.75462543859776565 0.71847561378613189 0 0.77107999172528308 0.87126586664953709 0 0.89597942421617771 0.89597942421617771 0 0.88289663992475431 0.7838324948760429 0 0.77107999172528308 0.87126586664953709 0 0.89597942421617771 0.89597942421617771 0 0.85714285714248095 1 0 0.77107999172528308 0.87126586664953709 0 0.71428571428496201 1 0 0.85714285714248095 1 0 0.89597942421617771 0.89597942421617771 0 1 1 0 1 0.85714285714248095 0 0.89597942421617771 0.89597942421617771 0 0.85714285714248095 1 0 1 1 0 0.88289663992475431 0.7838324948760429 0 1 0.71428571428496201 0 1 0.85714285714248095 0 0.89597942421617771 0.89597942421617771 0 0.88289663992475431 0.7838324948760429 0 1 0.85714285714248095 0 0.88289663992475431 0.7838324948760429 0 0.87569498500930032 0.64584549317696871 0 1 0.71428571428496201 0 0.87569498500930032 0.64584549317696871 0 1 0.57142857142744297 0 1 0.71428571428496201 0 0.87402660110768737 0.50072468068975784 0 1 0.42857142857032021 0 1 0.57142857142744297 0 0.87569498500930032 0.64584549317696871 0 0.87402660110768737 0.50072468068975784 0 1 0.57142857142744297 0 0.87569498500930032 0.64584549317696871 0 0.87402660110768737 0.50072468068975784 0 0.75217156042298328 0.57142857143374093 0 0.74395712453556107 0.42868954426104389 0 0.87402660110768737 0.50072468068975784 0 0.75217156042298328 0.57142857143374093 0 0.88289663992475431 0.7838324948760429 0 0.87569498500930032 0.64584549317696871 0 0.75462543859776565 0.71847561378613189 0 0.87569498500930032 0.64584549317696871 0 0.75217156042298328 0.57142857143374093 0 0.75462543859776565 0.71847561378613189 0 0.75462543859776565 0.71847561378613189 0 0.62020719605389174 0.64337743701966787 0 0.62820860079938645 0.78795395941460822 0 0.75217156042298328 0.57142857143374093 0 0.75462543859776565 0.71847561378613189 0 0.62020719605389174 0.64337743701966787 0 0.74395712453556107 0.42868954426104389 0 0.75217156042298328 0.57142857143374093 0 0.61994046021572546 0.50050770882833406 0 0.75217156042298328 0.57142857143374093 0 0.61994046021572546 0.50050770882833406 0 0.62020719605389174 0.64337743701966787 0 0.49462213035585811 0.42900362539316111 0 0.61994046021572546 0.50050770882833406 0 0.49336243329648061 0.57404262755753699 0 0.61994046021572546 0.50050770882833406 0 0.62020719605389174 0.64337743701966787 0 0.49336243329648061 0.57404262755753699 0 0.62020719605389174 0.64337743701966787 0 0.49336243329648061 0.57404262755753699 0 0.49462248589941132 0.72194975613875201 0 0.62020719605389174 0.64337743701966787 0 0.62820860079938645 0.78795395941460822 0 0.49462248589941132 0.72194975613875201 0 0.62820860079938645 0.78795395941460822 0 0.49817729930567289 0.8734572123725528 0 0.49462248589941132 0.72194975613875201 0 0.62820860079938645 0.78795395941460822 0 0.63663603550854941 0.90653540768733964 0 0.49817729930567289 0.8734572123725528 0 0.77107999172528308 0.87126586664953709 0 0.62820860079938645 0.78795395941460822 0 0.63663603550854941 0.90653540768733964 0 0.77107999172528308 0.87126586664953709 0 0.75462543859776565 0.71847561378613189 0 0.62820860079938645 0.78795395941460822 0 0.77107999172528308 0.87126586664953709 0 0.63663603550854941 0.90653540768733964 0 0.71428571428496201 1 0 0.63663603550854941 0.90653540768733964 0 0.71428571428496201 1 0 0.57142857142744297 1 0 0.63663603550854941 0.90653540768733964 0 0.49817729930567289 0.8734572123725528 0 0.57142857142744297 1 0 0.49817729930567289 0.8734572123725528 0 0.35714285714195693 0.91161422340059473 0 0.42857142857032021 1 0 0.49817729930567289 0.8734572123725528 0 0.42857142857032021 1 0 0.57142857142744297 1 0 0.49817729930567289 0.8734572123725528 0 0.36830736131566921 0.79637781586757328 0 0.49462248589941132 0.72194975613875201 0 0.49817729930567289 0.8734572123725528 0 0.36830736131566921 0.79637781586757328 0 0.35714285714195693 0.91161422340059473 0 0.36830736131566921 0.79637781586757328 0 0.35714285714195693 0.91161422340059473 0 0.23134730558288971 0.87272440266253748 0 0.36830736131566921 0.79637781586757328 0 0.2437647729866553 0.72095762992813051 0 0.23134730558288971 0.87272440266253748 0 0.35714285714195693 0.91161422340059473 0 0.42857142857032021 1 0 0.28571428571359381 1 0 0.35714285714195693 0.91161422340059473 0 0.23134730558288971 0.87272440266253748 0 0.28571428571359381 1 0 0.49462213035585811 0.42900362539316111 0 0.49336243329648061 0.57404262755753699 0 0.36988311095923349 0.50220080181584725 0 0.49336243329648061 0.57404262755753699 0 0.36733467197449221 0.65305064773421995 0 0.36988311095923349 0.50220080181584725 0 0.36830736131566921 0.79637781586757328 0 0.49462248589941132 0.72194975613875201 0 0.36733467197449221 0.65305064773421995 0 0.49336243329648061 0.57404262755753699 0 0.49462248589941132 0.72194975613875201 0 0.36733467197449221 0.65305064773421995 0 0.36733467197449221 0.65305064773421995 0 0.24743582965178351 0.57142857143075443 0 0.2437647729866553 0.72095762992813051 0 0.36830736131566921 0.79637781586757328 0 0.36733467197449221 0.65305064773421995 0 0.2437647729866553 0.72095762992813051 0 0.36733467197449221 0.65305064773421995 0 0.36988311095923349 0.50220080181584725 0 0.24743582965178351 0.57142857143075443 0 0.24734722211536869 0.42872490132986318 0 0.36988311095923349 0.50220080181584725 0 0.24743582965178351 0.57142857143075443 0 0.24743582965178351 0.57142857143075443 0 0.1244455545696076 0.6464500561593125 0 0.1237179148261041 0.50000000000170131 0 0.24734722211536869 0.42872490132986318 0 0.24743582965178351 0.57142857143075443 0 0.1237179148261041 0.50000000000170131 0 0.24743582965178351 0.57142857143075443 0 0.2437647729866553 0.72095762992813051 0 0.1244455545696076 0.6464500561593125 0 0.2437647729866553 0.72095762992813051 0 0.1244455545696076 0.6464500561593125 0 0.1237179148254899 0.78571428571438473 0 0.1244455545696076 0.6464500561593125 0 0 0.71428571428630883 0 0.1237179148254899 0.78571428571438473 0 0.1244455545696076 0.6464500561593125 0 0 0.71428571428630883 0 0 0.57142857143015668 0 0.1244455545696076 0.6464500561593125 0 0.1237179148261041 0.50000000000170131 0 0 0.57142857143015668 0 0 0.42857142857321201 0 0.1237179148261041 0.50000000000170131 0 0 0.57142857143015668 0 0.23134730558288971 0.87272440266253748 0 0.1045786867952702 0.89542131320454943 0 0.14285714285686729 1 0 0.23134730558288971 0.87272440266253748 0 0.14285714285686729 1 0 0.28571428571359381 1 0 0.2437647729866553 0.72095762992813051 0 0.23134730558288971 0.87272440266253748 0 0.1237179148254899 0.78571428571438473 0 0.23134730558288971 0.87272440266253748 0 0.1237179148254899 0.78571428571438473 0 0.1045786867952702 0.89542131320454943 0 0.1237179148254899 0.78571428571438473 0 0 0.85714285714246041 0 0.1045786867952702 0.89542131320454943 0 0 0.71428571428630883 0 0.1237179148254899 0.78571428571438473 0 0 0.85714285714246041 0 0.1045786867952702 0.89542131320454943 0 0 1 0 0.14285714285686729 1 0 0 0.85714285714246041 0 0.1045786867952702 0.89542131320454943 0 0 1 0 0 1 0 0.1045786867955264 1.1045786867956 0 0 1.142857142857143 0 0 1 0 0.1045786867955264 1.1045786867956 0 0.14285714285686729 1 0 0.14285714285686729 1 0 0.21715807700202711 1.1165487808367209 0 0.28571428571359381 1 0 0.1045786867955264 1.1045786867956 0 0.14285714285686729 1 0 0.21715807700202711 1.1165487808367209 0 0.1045786867955264 1.1045786867956 0 0.21715807700202711 1.1165487808367209 0 0.12817051038898589 1.2304843984160669 0 0.21715807700202711 1.1165487808367209 0 0.12817051038898589 1.2304843984160669 0 0.28318912013054198 1.239801768054871 0 0.1045786867955264 1.1045786867956 0 0.12817051038898589 1.2304843984160669 0 0 1.142857142857143 0 0.12817051038898589 1.2304843984160669 0 0 1.142857142857143 0 0 1.285714285714286 0 0.088385776599928662 1.3571428571428581 0 0 1.285714285714286 0 0 1.428571428571429 0 0.12817051038898589 1.2304843984160669 0 0.088385776599928662 1.3571428571428581 0 0 1.285714285714286 0 0 1.428571428571429 0 0.1265427876282578 1.4981772993068549 0 0 1.5714285714285721 0 0.088385776599928662 1.3571428571428581 0 0 1.428571428571429 0 0.1265427876282578 1.4981772993068549 0 0.1265427876282578 1.4981772993068549 0 0.20858437319686679 1.3627973047133719 0 0.27804612003647611 1.494591548660305 0 0.088385776599928662 1.3571428571428581 0 0.1265427876282578 1.4981772993068549 0 0.20858437319686679 1.3627973047133719 0 0.12817051038898589 1.2304843984160669 0 0.20858437319686679 1.3627973047133719 0 0.28318912013054198 1.239801768054871 0 0.12817051038898589 1.2304843984160669 0 0.088385776599928662 1.3571428571428581 0 0.20858437319686679 1.3627973047133719 0 0.35404229584497182 1.3659139839396599 0 0.4277245950738956 1.242992467502205 0 0.28318912013054198 1.239801768054871 0 0.20858437319686679 1.3627973047133719 0 0.35404229584497182 1.3659139839396599 0 0.28318912013054198 1.239801768054871 0 0.35404229584497182 1.3659139839396599 0 0.27804612003647611 1.494591548660305 0 0.42593700932761092 1.493210541712801 0 0.20858437319686679 1.3627973047133719 0 0.35404229584497182 1.3659139839396599 0 0.27804612003647611 1.494591548660305 0 0.35404229584497182 1.3659139839396599 0 0.42593700932761092 1.493210541712801 0 0.49769215192747779 1.3691228671960749 0 0.42593700932761092 1.493210541712801 0 0.49769215192747779 1.3691228671960749 0 0.57098124216803381 1.49447102461245 0 0.49769215192747779 1.3691228671960749 0 0.4277245950738956 1.242992467502205 0 0.57147965461975991 1.2472291216834761 0 0.35404229584497182 1.3659139839396599 0 0.49769215192747779 1.3691228671960749 0 0.4277245950738956 1.242992467502205 0 0.4277245950738956 1.242992467502205 0 0.35723491808527968 1.1204089262615491 0 0.50105200202129985 1.1231105411754949 0 0.42857142857032021 1 0 0.35723491808527968 1.1204089262615491 0 0.50105200202129985 1.1231105411754949 0 0.21715807700202711 1.1165487808367209 0 0.35723491808527968 1.1204089262615491 0 0.28571428571359381 1 0 0.42857142857032021 1 0 0.35723491808527968 1.1204089262615491 0 0.28571428571359381 1 0 0.4277245950738956 1.242992467502205 0 0.35723491808527968 1.1204089262615491 0 0.28318912013054198 1.239801768054871 0 0.21715807700202711 1.1165487808367209 0 0.35723491808527968 1.1204089262615491 0 0.28318912013054198 1.239801768054871 0 0.21616732492381829 1.8828959187492971 0 0.14285714285686729 2 0 0.28571428571359381 2 0 0.21616732492381829 1.8828959187492971 0 0.14285714285686729 2 0 0.1040205757871361 1.895979424212789 0 0.14285714285686729 2 0 0 2 0 0.1040205757871361 1.895979424212789 0 0 2 0 0.1040205757871361 1.895979424212789 0 0 1.857142857142857 0 0 1.857142857142857 0 0.12873413335171649 1.7710799917251949 0 0 1.7142857142857151 0 0.1040205757871361 1.895979424212789 0 0 1.857142857142857 0 0.12873413335171649 1.7710799917251949 0 0.21616732492381829 1.8828959187492971 0 0.12873413335171649 1.7710799917251949 0 0.2815234200304022 1.7546180202569051 0 0.21616732492381829 1.8828959187492971 0 0.1040205757871361 1.895979424212789 0 0.12873413335171649 1.7710799917251949 0 0.12873413335171649 1.7710799917251949 0 0.21204462330902621 1.628197822617433 0 0.2815234200304022 1.7546180202569051 0 0.12873413335171649 1.7710799917251949 0 0.21204462330902621 1.628197822617433 0 0.093464308857800105 1.636633879872754 0 0.12873413335171649 1.7710799917251949 0 0 1.7142857142857151 0 0.093464308857800105 1.636633879872754 0 0 1.7142857142857151 0 0.093464308857800105 1.636633879872754 0 0 1.5714285714285721 0 0.1265427876282578 1.4981772993068549 0 0.093464308857800105 1.636633879872754 0 0 1.5714285714285721 0 0.1265427876282578 1.4981772993068549 0 0.21204462330902621 1.628197822617433 0 0.093464308857800105 1.636633879872754 0 0.1265427876282578 1.4981772993068549 0 0.27804612003647611 1.494591548660305 0 0.21204462330902621 1.628197822617433 0 0.27804612003647611 1.494591548660305 0 0.42593700932761092 1.493210541712801 0 0.35661818314176041 1.620173464197844 0 0.27804612003647611 1.494591548660305 0 0.21204462330902621 1.628197822617433 0 0.35661818314176041 1.620173464197844 0 0.42593700932761092 1.493210541712801 0 0.49948637524749001 1.619889960661181 0 0.57098124216803381 1.49447102461245 0 0.42593700932761092 1.493210541712801 0 0.35661818314176041 1.620173464197844 0 0.49948637524749001 1.619889960661181 0 0.35661818314176041 1.620173464197844 0 0.49948637524749001 1.619889960661181 0 0.42857142856854918 1.752171560420507 0 0.49948637524749001 1.619889960661181 0 0.42857142856854918 1.752171560420507 0 0.57126208756431573 1.744657680515606 0 0.21204462330902621 1.628197822617433 0 0.35661818314176041 1.620173464197844 0 0.2815234200304022 1.7546180202569051 0 0.35661818314176041 1.620173464197844 0 0.2815234200304022 1.7546180202569051 0 0.42857142856854918 1.752171560420507 0 0.2815234200304022 1.7546180202569051 0 0.42857142856854918 1.752171560420507 0 0.3541543918031938 1.8756980763008939 0 0.21616732492381829 1.8828959187492971 0 0.2815234200304022 1.7546180202569051 0 0.3541543918031938 1.8756980763008939 0 0.42857142856854918 1.752171560420507 0 0.49927531931007862 1.8740599863056251 0 0.57126208756431573 1.744657680515606 0 0.42857142856854918 1.752171560420507 0 0.49927531931007862 1.8740599863056251 0 0.3541543918031938 1.8756980763008939 0 0.49927531931007862 1.8740599863056251 0 0.42857142857032021 2 0 0.3541543918031938 1.8756980763008939 0 0.49927531931007862 1.8740599863056251 0 0.42857142857032021 2 0 0.57142857142744297 2 0 0.42857142857032021 2 0 0.28571428571359381 2 0 0.3541543918031938 1.8756980763008939 0 0.21616732492381829 1.8828959187492971 0 0.28571428571359381 2 0 0.3541543918031938 1.8756980763008939 0 0.71428571428496201 2 0 0.64222861727828595 1.8697178032968009 0 0.78018926648514753 1.874409050805993 0 0.71428571428496201 2 0 0.57142857142744297 2 0 0.64222861727828595 1.8697178032968009 0 0.49927531931007862 1.8740599863056251 0 0.57142857142744297 2 0 0.64222861727828595 1.8697178032968009 0 0.49927531931007862 1.8740599863056251 0 0.64222861727828595 1.8697178032968009 0 0.57126208756431573 1.744657680515606 0 0.64222861727828595 1.8697178032968009 0 0.71331043726850574 1.7441868901497639 0 0.78018926648514753 1.874409050805993 0 0.64222861727828595 1.8697178032968009 0 0.71331043726850574 1.7441868901497639 0 0.57126208756431573 1.744657680515606 0 0.71331043726850574 1.7441868901497639 0 0.57126208756431573 1.744657680515606 0 0.64269698385324436 1.618739532771454 0 0.71331043726850574 1.7441868901497639 0 0.64269698385324436 1.618739532771454 0 0.78571428571188906 1.618589574132371 0 0.49948637524749001 1.619889960661181 0 0.57126208756431573 1.744657680515606 0 0.64269698385324436 1.618739532771454 0 0.49948637524749001 1.619889960661181 0 0.64269698385324436 1.618739532771454 0 0.57098124216803381 1.49447102461245 0 0.64269698385324436 1.618739532771454 0 0.78571428571188906 1.618589574132371 0 0.71428571428344345 1.494871659305963 0 0.64269698385324436 1.618739532771454 0 0.57098124216803381 1.49447102461245 0 0.71428571428344345 1.494871659305963 0 0.78571428571188906 1.618589574132371 0 0.71428571428344345 1.494871659305963 0 0.8719485907575063 1.497549379121567 0 0.78571428571188906 1.618589574132371 0 0.90513610409542944 1.632892404366493 0 0.8719485907575063 1.497549379121567 0 0.90513610409542944 1.632892404366493 0 0.8719485907575063 1.497549379121567 0 1 1.571428571428571 0 0.90513610409542944 1.632892404366493 0 0.86801764400775205 1.7626087828642429 0 1 1.714285714285714 0 0.90513610409542944 1.632892404366493 0 1 1.714285714285714 0 1 1.571428571428571 0 0.71331043726850574 1.7441868901497639 0 0.78571428571188906 1.618589574132371 0 0.86801764400775205 1.7626087828642429 0 0.78571428571188906 1.618589574132371 0 0.90513610409542944 1.632892404366493 0 0.86801764400775205 1.7626087828642429 0 0.71331043726850574 1.7441868901497639 0 0.86801764400775205 1.7626087828642429 0 0.78018926648514753 1.874409050805993 0 0.86801764400775205 1.7626087828642429 0 0.78018926648514753 1.874409050805993 0 0.89542131320410701 1.8954213132042079 0 0.86801764400775205 1.7626087828642429 0 1 1.857142857142857 0 1 1.714285714285714 0 0.86801764400775205 1.7626087828642429 0 0.89542131320410701 1.8954213132042079 0 1 1.857142857142857 0 0.89542131320410701 1.8954213132042079 0 0.85714285714248095 2 0 1 2 0 0.89542131320410701 1.8954213132042079 0 1 2 0 1 1.857142857142857 0 0.78018926648514753 1.874409050805993 0 0.89542131320410701 1.8954213132042079 0 0.85714285714248095 2 0 0.71428571428496201 2 0 0.78018926648514753 1.874409050805993 0 0.85714285714248095 2 0 0.71318645322083063 1.246702098928443 0 0.64211163998861909 1.1230850406615951 0 0.78018926648585252 1.1205280434881351 0 0.71318645322083063 1.246702098928443 0 0.64211163998861909 1.1230850406615951 0 0.57147965461975991 1.2472291216834761 0 0.71428571428496201 1 0 0.64211163998861909 1.1230850406615951 0 0.57142857142744297 1 0 0.71428571428496201 1 0 0.64211163998861909 1.1230850406615951 0 0.78018926648585252 1.1205280434881351 0 0.64211163998861909 1.1230850406615951 0 0.50105200202129985 1.1231105411754949 0 0.57142857142744297 1 0 0.42857142857032021 1 0 0.50105200202129985 1.1231105411754949 0 0.57142857142744297 1 0 0.64211163998861909 1.1230850406615951 0 0.50105200202129985 1.1231105411754949 0 0.57147965461975991 1.2472291216834761 0 0.4277245950738956 1.242992467502205 0 0.50105200202129985 1.1231105411754949 0 0.57147965461975991 1.2472291216834761 0 0.49769215192747779 1.3691228671960749 0 0.57147965461975991 1.2472291216834761 0 0.6424810153757925 1.370780813604048 0 0.49769215192747779 1.3691228671960749 0 0.57098124216803381 1.49447102461245 0 0.6424810153757925 1.370780813604048 0 0.57098124216803381 1.49447102461245 0 0.71428571428344345 1.494871659305963 0 0.6424810153757925 1.370780813604048 0 0.71428571428344345 1.494871659305963 0 0.6424810153757925 1.370780813604048 0 0.78389141510410076 1.3690804396262211 0 0.71318645322083063 1.246702098928443 0 0.6424810153757925 1.370780813604048 0 0.78389141510410076 1.3690804396262211 0 0.71318645322083063 1.246702098928443 0 0.57147965461975991 1.2472291216834761 0 0.6424810153757925 1.370780813604048 0 0.78389141510410076 1.3690804396262211 0 0.90448333979397377 1.359152564409229 0 0.8681417582656602 1.2323719363648691 0 0.71318645322083063 1.246702098928443 0 0.78389141510410076 1.3690804396262211 0 0.8681417582656602 1.2323719363648691 0 0.78389141510410076 1.3690804396262211 0 0.8719485907575063 1.497549379121567 0 0.90448333979397377 1.359152564409229 0 0.71428571428344345 1.494871659305963 0 0.78389141510410076 1.3690804396262211 0 0.8719485907575063 1.497549379121567 0 0.8719485907575063 1.497549379121567 0 0.90448333979397377 1.359152564409229 0 1 1.4285714285714279 0 0.8719485907575063 1.497549379121567 0 1 1.4285714285714279 0 1 1.571428571428571 0 0.90448333979397377 1.359152564409229 0 1 1.2857142857142849 0 1 1.4285714285714279 0 0.90448333979397377 1.359152564409229 0 0.8681417582656602 1.2323719363648691 0 1 1.2857142857142849 0 0.8681417582656602 1.2323719363648691 0 1 1.142857142857143 0 1 1.2857142857142849 0 0.8681417582656602 1.2323719363648691 0 0.89542131320410689 1.104578686795793 0 1 1.142857142857143 0 0.8681417582656602 1.2323719363648691 0 0.78018926648585252 1.1205280434881351 0 0.89542131320410689 1.104578686795793 0 0.71318645322083063 1.246702098928443 0 0.8681417582656602 1.2323719363648691 0 0.78018926648585252 1.1205280434881351 0 0.71428571428496201 1 0 0.78018926648585252 1.1205280434881351 0 0.85714285714248095 1 0 0.78018926648585252 1.1205280434881351 0 0.85714285714248095 1 0 0.89542131320410689 1.104578686795793 0 0.85714285714248095 1 0 0.89542131320410689 1.104578686795793 0 1 1 0 0.89542131320410689 1.104578686795793 0 1 1 0 1 1.142857142857143 0 1 1 0 1.104578686795554 1.104578686795554 0 1 1.142857142857143 0 1 1 0 1.104578686795554 1.104578686795554 0 1.142857142857143 1 0 1.142857142857143 1 0 1.219810733513544 1.120528043487883 0 1.285714285714286 1 0 1.104578686795554 1.104578686795554 0 1.142857142857143 1 0 1.219810733513544 1.120528043487883 0 1.104578686795554 1.104578686795554 0 1.219810733513544 1.120528043487883 0 1.1319230446001269 1.2323522036059911 0 1.219810733513544 1.120528043487883 0 1.1319230446001269 1.2323522036059911 0 1.2868377830098621 1.2466881061330779 0 1.104578686795554 1.104578686795554 0 1.1319230446001269 1.2323522036059911 0 1 1.142857142857143 0 1.1319230446001269 1.2323522036059911 0 1 1.142857142857143 0 1 1.2857142857142849 0 1 1.2857142857142849 0 1.095673538468863 1.3585634207364541 0 1 1.4285714285714279 0 1.1319230446001269 1.2323522036059911 0 1 1.2857142857142849 0 1.095673538468863 1.3585634207364541 0 1 1.4285714285714279 0 1.1295855542741751 1.4974062502171921 0 1 1.571428571428571 0 1.095673538468863 1.3585634207364541 0 1 1.4285714285714279 0 1.1295855542741751 1.4974062502171921 0 1.1295855542741751 1.4974062502171921 0 1.2165379687279541 1.3689563031111329 0 1.283830123940078 1.4960028536238279 0 1.095673538468863 1.3585634207364541 0 1.1295855542741751 1.4974062502171921 0 1.2165379687279541 1.3689563031111329 0 1.1319230446001269 1.2323522036059911 0 1.095673538468863 1.3585634207364541 0 1.2165379687279541 1.3689563031111329 0 1.1319230446001269 1.2323522036059911 0 1.2165379687279541 1.3689563031111329 0 1.2868377830098621 1.2466881061330779 0 1.357664402013393 1.370696856833961 0 1.4285203453789539 1.247229121683411 0 1.2868377830098621 1.2466881061330779 0 1.2165379687279541 1.3689563031111329 0 1.357664402013393 1.370696856833961 0 1.2868377830098621 1.2466881061330779 0 1.2165379687279541 1.3689563031111329 0 1.357664402013393 1.370696856833961 0 1.283830123940078 1.4960028536238279 0 1.357664402013393 1.370696856833961 0 1.283830123940078 1.4960028536238279 0 1.4291884114524669 1.494373075047676 0 1.357664402013393 1.370696856833961 0 1.4291884114524669 1.494373075047676 0 1.5023078480707981 1.369122867196213 0 1.357664402013393 1.370696856833961 0 1.4285203453789539 1.247229121683411 0 1.5023078480707981 1.369122867196213 0 1.4285203453789539 1.247229121683411 0 1.4989479979775799 1.123110541175516 0 1.5722754049247569 1.2429924675024751 0 1.4285203453789539 1.247229121683411 0 1.4989479979775799 1.123110541175516 0 1.357888360010425 1.123085040661465 0 1.4989479979775799 1.123110541175516 0 1.428571428571429 1 0 1.357888360010425 1.123085040661465 0 1.4989479979775799 1.123110541175516 0 1.428571428571429 1 0 1.5714285714285721 1 0 1.219810733513544 1.120528043487883 0 1.357888360010425 1.123085040661465 0 1.285714285714286 1 0 1.428571428571429 1 0 1.357888360010425 1.123085040661465 0 1.285714285714286 1 0 1.4285203453789539 1.247229121683411 0 1.357888360010425 1.123085040661465 0 1.2868377830098621 1.2466881061330779 0 1.219810733513544 1.120528043487883 0 1.357888360010425 1.123085040661465 0 1.2868377830098621 1.2466881061330779 0 1.216145381820789 1.88103109715887 0 1.142857142857143 2 0 1.2857142857142849 2 0 1.216145381820789 1.88103109715887 0 1.142857142857143 2 0 1.103773871582159 1.896226128417843 0 1 2 0 1.103773871582159 1.896226128417843 0 1 1.857142857142857 0 1.142857142857143 2 0 1 2 0 1.103773871582159 1.896226128417843 0 1.103773871582159 1.896226128417843 0 1 1.857142857142857 0 1.130119705833043 1.7651652404678491 0 1 1.857142857142857 0 1.130119705833043 1.7651652404678491 0 1 1.714285714285714 0 1.216145381820789 1.88103109715887 0 1.130119705833043 1.7651652404678491 0 1.2812394475956559 1.7505389596817531 0 1.216145381820789 1.88103109715887 0 1.103773871582159 1.896226128417843 0 1.130119705833043 1.7651652404678491 0 1.130119705833043 1.7651652404678491 0 1.213562818228437 1.624903527712154 0 1.2812394475956559 1.7505389596817531 0 1.130119705833043 1.7651652404678491 0 1.0966556989971969 1.6428571428571419 0 1.213562818228437 1.624903527712154 0 1.130119705833043 1.7651652404678491 0 1.0966556989971969 1.6428571428571419 0 1 1.714285714285714 0 1.0966556989971969 1.6428571428571419 0 1 1.714285714285714 0 1 1.571428571428571 0 1.1295855542741751 1.4974062502171921 0 1.0966556989971969 1.6428571428571419 0 1 1.571428571428571 0 1.1295855542741751 1.4974062502171921 0 1.0966556989971969 1.6428571428571419 0 1.213562818228437 1.624903527712154 0 1.1295855542741751 1.4974062502171921 0 1.283830123940078 1.4960028536238279 0 1.213562818228437 1.624903527712154 0 1.283830123940078 1.4960028536238279 0 1.4291884114524669 1.494373075047676 0 1.3564415889440451 1.6196811088208509 0 1.283830123940078 1.4960028536238279 0 1.213562818228437 1.624903527712154 0 1.3564415889440451 1.6196811088208509 0 1.4291884114524669 1.494373075047676 0 1.3564415889440451 1.6196811088208509 0 1.5002085607630711 1.6196906823475781 0 1.3564415889440451 1.6196811088208509 0 1.4258910619820611 1.7448328391661969 0 1.5002085607630711 1.6196906823475781 0 1.4258910619820611 1.7448328391661969 0 1.57109391646305 1.7442952446683879 0 1.5002085607630711 1.6196906823475781 0 1.213562818228437 1.624903527712154 0 1.3564415889440451 1.6196811088208509 0 1.2812394475956559 1.7505389596817531 0 1.3564415889440451 1.6196811088208509 0 1.4258910619820611 1.7448328391661969 0 1.2812394475956559 1.7505389596817531 0 1.4258910619820611 1.7448328391661969 0 1.2812394475956559 1.7505389596817531 0 1.3531678373424461 1.8742562543857739 0 1.216145381820789 1.88103109715887 0 1.2812394475956559 1.7505389596817531 0 1.3531678373424461 1.8742562543857739 0 1.4258910619820611 1.7448328391661969 0 1.498530108073209 1.8729348231800089 0 1.57109391646305 1.7442952446683879 0 1.4258910619820611 1.7448328391661969 0 1.3531678373424461 1.8742562543857739 0 1.498530108073209 1.8729348231800089 0 1.3531678373424461 1.8742562543857739 0 1.498530108073209 1.8729348231800089 0 1.4285714285714279 2 0 1.498530108073209 1.8729348231800089 0 1.4285714285714279 2 0 1.571428571428571 2 0 1.3531678373424461 1.8742562543857739 0 1.4285714285714279 2 0 1.2857142857142849 2 0 1.216145381820789 1.88103109715887 0 1.3531678373424461 1.8742562543857739 0 1.2857142857142849 2 0 1.714285714285714 2 0 1.6421576172291299 1.8693783291179169 0 1.780189266486458 1.87434361581751 0 1.714285714285714 2 0 1.571428571428571 2 0 1.6421576172291299 1.8693783291179169 0 1.498530108073209 1.8729348231800089 0 1.571428571428571 2 0 1.6421576172291299 1.8693783291179169 0 1.498530108073209 1.8729348231800089 0 1.6421576172291299 1.8693783291179169 0 1.57109391646305 1.7442952446683879 0 1.6421576172291299 1.8693783291179169 0 1.7133888590203961 1.744009140962433 0 1.780189266486458 1.87434361581751 0 1.6421576172291299 1.8693783291179169 0 1.7133888590203961 1.744009140962433 0 1.57109391646305 1.7442952446683879 0 1.7133888590203961 1.744009140962433 0 1.57109391646305 1.7442952446683879 0 1.643335685458571 1.6184935184144349 0 1.7133888590203961 1.744009140962433 0 1.643335685458571 1.6184935184144349 0 1.7857142857142889 1.61858957413174 0 1.57109391646305 1.7442952446683879 0 1.5002085607630711 1.6196906823475781 0 1.643335685458571 1.6184935184144349 0 1.4291884114524669 1.494373075047676 0 1.5002085607630711 1.6196906823475781 0 1.5740912662740569 1.4931942167857211 0 1.5002085607630711 1.6196906823475781 0 1.643335685458571 1.6184935184144349 0 1.5740912662740569 1.4931942167857211 0 1.643335685458571 1.6184935184144349 0 1.7857142857142889 1.61858957413174 0 1.7219056762667611 1.4941033353868309 0 1.643335685458571 1.6184935184144349 0 1.5740912662740569 1.4931942167857211 0 1.7219056762667611 1.4941033353868309 0 1.7857142857142889 1.61858957413174 0 1.7219056762667611 1.4941033353868309 0 1.873185845995041 1.4969442903745009 0 1.7857142857142889 1.61858957413174 0 1.905385795765048 1.632764438497625 0 1.873185845995041 1.4969442903745009 0 2 1.5714285714285721 0 1.905385795765048 1.632764438497625 0 1.873185845995041 1.4969442903745009 0 2 1.5714285714285721 0 1.905385795765048 1.632764438497625 0 2 1.7142857142857151 0 1.905385795765048 1.632764438497625 0 2 1.7142857142857151 0 1.8680288471159121 1.762574042267598 0 1.7857142857142889 1.61858957413174 0 1.905385795765048 1.632764438497625 0 1.8680288471159121 1.762574042267598 0 1.7133888590203961 1.744009140962433 0 1.7857142857142889 1.61858957413174 0 1.8680288471159121 1.762574042267598 0 1.7133888590203961 1.744009140962433 0 1.8680288471159121 1.762574042267598 0 1.780189266486458 1.87434361581751 0 1.8680288471159121 1.762574042267598 0 1.780189266486458 1.87434361581751 0 1.8954213132044451 1.8954213132044451 0 2 1.7142857142857151 0 1.8680288471159121 1.762574042267598 0 2 1.857142857142857 0 1.8680288471159121 1.762574042267598 0 2 1.857142857142857 0 1.8954213132044451 1.8954213132044451 0 2 2 0 1.8954213132044451 1.8954213132044451 0 1.857142857142857 2 0 2 1.857142857142857 0 2 2 0 1.8954213132044451 1.8954213132044451 0 1.714285714285714 2 0 1.780189266486458 1.87434361581751 0 1.857142857142857 2 0 1.780189266486458 1.87434361581751 0 1.8954213132044451 1.8954213132044451 0 1.857142857142857 2 0 1.7167999698727541 1.239731972755882 0 1.642763263581051 1.12039729371186 0 1.782841922996929 1.1165487808372889 0 1.7167999698727541 1.239731972755882 0 1.642763263581051 1.12039729371186 0 1.5722754049247569 1.2429924675024751 0 1.7142857142857151 1 0 1.642763263581051 1.12039729371186 0 1.782841922996929 1.1165487808372889 0 1.7142857142857151 1 0 1.642763263581051 1.12039729371186 0 1.5714285714285721 1 0 1.4989479979775799 1.123110541175516 0 1.642763263581051 1.12039729371186 0 1.5714285714285721 1 0 1.4989479979775799 1.123110541175516 0 1.642763263581051 1.12039729371186 0 1.5722754049247569 1.2429924675024751 0 1.4285203453789539 1.247229121683411 0 1.5722754049247569 1.2429924675024751 0 1.5023078480707981 1.369122867196213 0 1.5722754049247569 1.2429924675024751 0 1.5023078480707981 1.369122867196213 0 1.645945505858496 1.3657820825118669 0 1.4291884114524669 1.494373075047676 0 1.5023078480707981 1.369122867196213 0 1.5740912662740569 1.4931942167857211 0 1.5023078480707981 1.369122867196213 0 1.5740912662740569 1.4931942167857211 0 1.645945505858496 1.3657820825118669 0 1.7219056762667611 1.4941033353868309 0 1.645945505858496 1.3657820825118669 0 1.7913623651234289 1.3625104343460019 0 1.5740912662740569 1.4931942167857211 0 1.7219056762667611 1.4941033353868309 0 1.645945505858496 1.3657820825118669 0 1.7167999698727541 1.239731972755882 0 1.5722754049247569 1.2429924675024751 0 1.645945505858496 1.3657820825118669 0 1.7167999698727541 1.239731972755882 0 1.645945505858496 1.3657820825118669 0 1.7913623651234289 1.3625104343460019 0 1.7167999698727541 1.239731972755882 0 1.7913623651234289 1.3625104343460019 0 1.8718294896102901 1.230484398416303 0 1.7913623651234289 1.3625104343460019 0 1.9104848285497229 1.358106546840288 0 1.8718294896102901 1.230484398416303 0 1.7913623651234289 1.3625104343460019 0 1.873185845995041 1.4969442903745009 0 1.9104848285497229 1.358106546840288 0 1.7219056762667611 1.4941033353868309 0 1.7913623651234289 1.3625104343460019 0 1.873185845995041 1.4969442903745009 0 1.873185845995041 1.4969442903745009 0 2 1.428571428571429 0 1.9104848285497229 1.358106546840288 0 2 1.5714285714285721 0 1.873185845995041 1.4969442903745009 0 2 1.428571428571429 0 1.9104848285497229 1.358106546840288 0 2 1.285714285714286 0 1.8718294896102901 1.230484398416303 0 2 1.428571428571429 0 1.9104848285497229 1.358106546840288 0 2 1.285714285714286 0 2 1.142857142857143 0 1.8718294896102901 1.230484398416303 0 1.895421313204446 1.104578686795554 0 2 1.285714285714286 0 2 1.142857142857143 0 1.8718294896102901 1.230484398416303 0 1.8718294896102901 1.230484398416303 0 1.782841922996929 1.1165487808372889 0 1.895421313204446 1.104578686795554 0 1.7167999698727541 1.239731972755882 0 1.8718294896102901 1.230484398416303 0 1.782841922996929 1.1165487808372889 0 1.7142857142857151 1 0 1.782841922996929 1.1165487808372889 0 1.857142857142857 1 0 1.782841922996929 1.1165487808372889 0 1.857142857142857 1 0 1.895421313204446 1.104578686795554 0 2 1.142857142857143 0 2 1 0 1.895421313204446 1.104578686795554 0 1.857142857142857 1 0 2 1 0 1.895421313204446 1.104578686795554 0 2 1 0 1.895421313204702 0.89542131320459539 0 2 0.85714285714246041 0 1.857142857142857 1 0 2 1 0 1.895421313204702 0.89542131320459539 0 2 0.85714285714246041 0 1.8762820851745099 0.78571428571438473 0 2 0.71428571428630883 0 1.895421313204702 0.89542131320459539 0 2 0.85714285714246041 0 1.8762820851745099 0.78571428571438473 0 1.895421313204702 0.89542131320459539 0 1.8762820851745099 0.78571428571438473 0 1.768652694417534 0.87272440266303286 0 1.8762820851745099 0.78571428571438473 0 1.768652694417534 0.87272440266303286 0 1.756239446550119 0.72095711511373584 0 1.7142857142857151 1 0 1.857142857142857 1 0 1.768652694417534 0.87272440266303286 0 1.857142857142857 1 0 1.895421313204702 0.89542131320459539 0 1.768652694417534 0.87272440266303286 0 1.7142857142857151 1 0 1.768652694417534 0.87272440266303286 0 1.642857142857143 0.91161422340073883 0 1.7142857142857151 1 0 1.5714285714285721 1 0 1.642857142857143 0.91161422340073883 0 1.768652694417534 0.87272440266303286 0 1.6317122618965649 0.79637337101919514 0 1.756239446550119 0.72095711511373584 0 1.768652694417534 0.87272440266303286 0 1.642857142857143 0.91161422340073883 0 1.6317122618965649 0.79637337101919514 0 1.6317122618965649 0.79637337101919514 0 1.501956522282162 0.87342776029090685 0 1.5054085274983611 0.72194187149245215 0 1.642857142857143 0.91161422340073883 0 1.6317122618965649 0.79637337101919514 0 1.501956522282162 0.87342776029090685 0 1.5714285714285721 1 0 1.642857142857143 0.91161422340073883 0 1.501956522282162 0.87342776029090685 0 1.428571428571429 1 0 1.5714285714285721 1 0 1.501956522282162 0.87342776029090685 0 1.5066538916308021 0.57407090316079068 0 1.6301168890407629 0.50220080181550997 0 1.505475819208991 0.42917327901520119 0 1.5066538916308021 0.57407090316079068 0 1.6326710220336891 0.65305200369586036 0 1.6301168890407629 0.50220080181550997 0 1.6317122618965649 0.79637337101919514 0 1.5054085274983611 0.72194187149245215 0 1.6326710220336891 0.65305200369586036 0 1.5066538916308021 0.57407090316079068 0 1.5054085274983611 0.72194187149245215 0 1.6326710220336891 0.65305200369586036 0 1.6326710220336891 0.65305200369586036 0 1.752564170348099 0.57142857143056203 0 1.756239446550119 0.72095711511373584 0 1.6317122618965649 0.79637337101919514 0 1.6326710220336891 0.65305200369586036 0 1.756239446550119 0.72095711511373584 0 1.6326710220336891 0.65305200369586036 0 1.6301168890407629 0.50220080181550997 0 1.752564170348099 0.57142857143056203 0 1.6301168890407629 0.50220080181550997 0 1.752564170348099 0.57142857143056203 0 1.7526527778847281 0.42872490132975188 0 1.752564170348099 0.57142857143056203 0 1.8755544454303199 0.64645005615938045 0 1.8762820851739579 0.50000000000166922 0 1.752564170348099 0.57142857143056203 0 1.8762820851739579 0.50000000000166922 0 1.7526527778847281 0.42872490132975188 0 1.8762820851745099 0.78571428571438473 0 1.756239446550119 0.72095711511373584 0 1.8755544454303199 0.64645005615938045 0 1.752564170348099 0.57142857143056203 0 1.756239446550119 0.72095711511373584 0 1.8755544454303199 0.64645005615938045 0 1.8762820851745099 0.78571428571438473 0 1.8755544454303199 0.64645005615938045 0 2 0.71428571428630883 0 1.8755544454303199 0.64645005615938045 0 2 0.71428571428630883 0 2 0.57142857143015668 0 1.8755544454303199 0.64645005615938045 0 1.8762820851739579 0.50000000000166922 0 2 0.57142857143015668 0 1.8762820851739579 0.50000000000166922 0 2 0.57142857143015668 0 2 0.42857142857321201 0 1.8762820851739579 0.50000000000166922 0 2 0.42857142857321201 0 1.876813730396715 0.35806369368239999 0 2 0.28571428571547469 0 1.876813730396715 0.35806369368239999 0 1.879471956511813 0.21981073351466429 0 2 0.42857142857321201 0 2 0.28571428571547469 0 1.876813730396715 0.35806369368239999 0 1.876813730396715 0.35806369368239999 0 1.753250940521041 0.28690380655078462 0 1.879471956511813 0.21981073351466429 0 1.876813730396715 0.35806369368239999 0 1.753250940521041 0.28690380655078462 0 1.7526527778847281 0.42872490132975188 0 1.8762820851739579 0.50000000000166922 0 1.876813730396715 0.35806369368239999 0 1.7526527778847281 0.42872490132975188 0 2 0 0 1.8954213132040689 0.10457868679609091 0 2 0.14285714285773729 0 2 0 0 1.8954213132040689 0.10457868679609091 0 1.857142857142857 0 0 2 0.28571428571547469 0 2 0.14285714285773729 0 1.879471956511813 0.21981073351466429 0 1.8954213132040689 0.10457868679609091 0 2 0.14285714285773729 0 1.879471956511813 0.21981073351466429 0 1.753250940521041 0.28690380655078462 0 1.879471956511813 0.21981073351466429 0 1.767634152009756 0.1319344354676312 0 1.8954213132040689 0.10457868679609091 0 1.879471956511813 0.21981073351466429 0 1.767634152009756 0.1319344354676312 0 1.8954213132040689 0.10457868679609091 0 1.767634152009756 0.1319344354676312 0 1.857142857142857 0 0 1.767634152009756 0.1319344354676312 0 1.857142857142857 0 0 1.714285714285714 0 0 1.714285714285714 0 0 1.641434069801228 0.095674845394396482 0 1.571428571428571 0 0 1.767634152009756 0.1319344354676312 0 1.714285714285714 0 0 1.641434069801228 0.095674845394396482 0 1.767634152009756 0.1319344354676312 0 1.641434069801228 0.095674845394396482 0 1.6310091395475219 0.21655168125592689 0 1.753250940521041 0.28690380655078462 0 1.767634152009756 0.1319344354676312 0 1.6310091395475219 0.21655168125592689 0 1.6310091395475219 0.21655168125592689 0 1.502593749782573 0.1295855542762408 0 1.503934447226754 0.28383162542713097 0 1.641434069801228 0.095674845394396482 0 1.6310091395475219 0.21655168125592689 0 1.502593749782573 0.1295855542762408 0 1.641434069801228 0.095674845394396482 0 1.502593749782573 0.1295855542762408 0 1.571428571428571 0 0 1.502593749782573 0.1295855542762408 0 1.571428571428571 0 0 1.4285714285714279 0 0 1.6301168890407629 0.50220080181550997 0 1.7526527778847281 0.42872490132975188 0 1.6291567524667829 0.3576806536311482 0 1.753250940521041 0.28690380655078462 0 1.6310091395475219 0.21655168125592689 0 1.6291567524667829 0.3576806536311482 0 1.753250940521041 0.28690380655078462 0 1.7526527778847281 0.42872490132975188 0 1.6291567524667829 0.3576806536311482 0 1.6310091395475219 0.21655168125592689 0 1.6291567524667829 0.3576806536311482 0 1.503934447226754 0.28383162542713097 0 1.6291567524667829 0.3576806536311482 0 1.503934447226754 0.28383162542713097 0 1.505475819208991 0.42917327901520119 0 1.6301168890407629 0.50220080181550997 0 1.6291567524667829 0.3576806536311482 0 1.505475819208991 0.42917327901520119 0 1.505475819208991 0.42917327901520119 0 1.3802852902972891 0.35643808088643081 0 1.3802588180989579 0.50020264484033383 0 1.503934447226754 0.28383162542713097 0 1.505475819208991 0.42917327901520119 0 1.3802852902972891 0.35643808088643081 0 1.503934447226754 0.28383162542713097 0 1.3802852902972891 0.35643808088643081 0 1.3750859320573681 0.21356050349783851 0 1.3802852902972891 0.35643808088643081 0 1.3750859320573681 0.21356050349783851 0 1.2494061032605699 0.28122351189747269 0 1.3802852902972891 0.35643808088643081 0 1.2548711393591701 0.42579895584072741 0 1.2494061032605699 0.28122351189747269 0 1.2548711393591701 0.42579895584072741 0 1.3802588180989579 0.50020264484033383 0 1.2543832690154351 0.57113866035583183 0 1.3802852902972891 0.35643808088643081 0 1.2548711393591701 0.42579895584072741 0 1.3802588180989579 0.50020264484033383 0 1.502593749782573 0.1295855542762408 0 1.4285714285714279 0 0 1.357142857142857 0.09665569899944787 0 1.502593749782573 0.1295855542762408 0 1.3750859320573681 0.21356050349783851 0 1.357142857142857 0.09665569899944787 0 1.502593749782573 0.1295855542762408 0 1.503934447226754 0.28383162542713097 0 1.3750859320573681 0.21356050349783851 0 1.3750859320573681 0.21356050349783851 0 1.357142857142857 0.09665569899944787 0 1.2348347595333411 0.13011970583437851 0 1.3750859320573681 0.21356050349783851 0 1.2348347595333411 0.13011970583437851 0 1.2494061032605699 0.28122351189747269 0 1.4285714285714279 0 0 1.2857142857142849 0 0 1.357142857142857 0.09665569899944787 0 1.2857142857142849 0 0 1.357142857142857 0.09665569899944787 0 1.2348347595333411 0.13011970583437851 0 1.142857142857143 0 0 1.2348347595333411 0.13011970583437851 0 1.1037738715822589 0.1037738715821834 0 1.2857142857142849 0 0 1.142857142857143 0 0 1.2348347595333411 0.13011970583437851 0 1.2348347595333411 0.13011970583437851 0 1.1189454311765621 0.21612891637515011 0 1.2494061032605699 0.28122351189747269 0 1.2348347595333411 0.13011970583437851 0 1.1189454311765621 0.21612891637515011 0 1.1037738715822589 0.1037738715821834 0 1.1189454311765621 0.21612891637515011 0 1 0.14285714285686729 0 1 0.28571428571359381 0 1.1189454311765621 0.21612891637515011 0 1 0.14285714285686729 0 1.1037738715822589 0.1037738715821834 0 1.142857142857143 0 0 1 0 0 1.1037738715822589 0.1037738715821834 0 1 0.14285714285686729 0 1 0 0 1.1037738715822589 0.1037738715821834 0 1.2548711393591701 0.42579895584072741 0 1.126694634720383 0.4979421513039991 0 1.1256578526831991 0.35308498036640512 0 1.2548711393591701 0.42579895584072741 0 1.126694634720383 0.4979421513039991 0 1.2543832690154351 0.57113866035583183 0 1.1189454311765621 0.21612891637515011 0 1.2494061032605699 0.28122351189747269 0 1.1256578526831991 0.35308498036640512 0 1.2548711393591701 0.42579895584072741 0 1.2494061032605699 0.28122351189747269 0 1.1256578526831991 0.35308498036640512 0 1.1189454311765621 0.21612891637515011 0 1.1256578526831991 0.35308498036640512 0 1 0.28571428571359381 0 1.1256578526831991 0.35308498036640512 0 1 0.28571428571359381 0 1 0.42857142857032021 0 1.126694634720383 0.4979421513039991 0 1.1256578526831991 0.35308498036640512 0 1 0.42857142857032021 0 1.126694634720383 0.4979421513039991 0 1 0.42857142857032021 0 1 0.57142857142744297 0 1.126694634720383 0.4979421513039991 0 1 0.57142857142744297 0 1.1249180082932411 0.64154736580034655 0 1.126694634720383 0.4979421513039991 0 1.1249180082932411 0.64154736580034655 0 1.2543832690154351 0.57113866035583183 0 1.1249180082932411 0.64154736580034655 0 1.1206017064478631 0.78020338314488047 0 1.2504066190377161 0.71350574666905386 0 1.1249180082932411 0.64154736580034655 0 1.2543832690154351 0.57113866035583183 0 1.2504066190377161 0.71350574666905386 0 1 0.57142857142744297 0 1.1249180082932411 0.64154736580034655 0 1 0.71428571428496201 0 1.1249180082932411 0.64154736580034655 0 1 0.71428571428496201 0 1.1206017064478631 0.78020338314488047 0 1 0.71428571428496201 0 1 0.85714285714248095 0 1.1206017064478631 0.78020338314488047 0 1 0.85714285714248095 0 1.1206017064478631 0.78020338314488047 0 1.104578686795793 0.89542131320410678 0 1 1 0 1 0.85714285714248095 0 1.104578686795793 0.89542131320410678 0 1 1 0 1.142857142857143 1 0 1.104578686795793 0.89542131320410678 0 1.142857142857143 1 0 1.104578686795793 0.89542131320410678 0 1.2348069249981111 0.86828947631167996 0 1.142857142857143 1 0 1.285714285714286 1 0 1.2348069249981111 0.86828947631167996 0 1.1206017064478631 0.78020338314488047 0 1.104578686795793 0.89542131320410678 0 1.2348069249981111 0.86828947631167996 0 1.1206017064478631 0.78020338314488047 0 1.2348069249981111 0.86828947631167996 0 1.2504066190377161 0.71350574666905386 0 1.2348069249981111 0.86828947631167996 0 1.3580796082637261 0.90318160544595827 0 1.381410425870252 0.78571428571776047 0 1.2348069249981111 0.86828947631167996 0 1.381410425870252 0.78571428571776047 0 1.2504066190377161 0.71350574666905386 0 1.285714285714286 1 0 1.2348069249981111 0.86828947631167996 0 1.3580796082637261 0.90318160544595827 0 1.428571428571429 1 0 1.285714285714286 1 0 1.3580796082637261 0.90318160544595827 0 1.428571428571429 1 0 1.501956522282162 0.87342776029090685 0 1.3580796082637261 0.90318160544595827 0 1.501956522282162 0.87342776029090685 0 1.3580796082637261 0.90318160544595827 0 1.381410425870252 0.78571428571776047 0 1.501956522282162 0.87342776029090685 0 1.5054085274983611 0.72194187149245215 0 1.381410425870252 0.78571428571776047 0 1.5066538916308021 0.57407090316079068 0 1.5054085274983611 0.72194187149245215 0 1.3798287378191809 0.64333130562085483 0 1.5054085274983611 0.72194187149245215 0 1.381410425870252 0.78571428571776047 0 1.3798287378191809 0.64333130562085483 0 1.5066538916308021 0.57407090316079068 0 1.505475819208991 0.42917327901520119 0 1.3802588180989579 0.50020264484033383 0 1.5066538916308021 0.57407090316079068 0 1.3798287378191809 0.64333130562085483 0 1.3802588180989579 0.50020264484033383 0 1.3798287378191809 0.64333130562085483 0 1.3802588180989579 0.50020264484033383 0 1.2543832690154351 0.57113866035583183 0 1.3798287378191809 0.64333130562085483 0 1.2543832690154351 0.57113866035583183 0 1.2504066190377161 0.71350574666905386 0 1.381410425870252 0.78571428571776047 0 1.3798287378191809 0.64333130562085483 0 1.2504066190377161 0.71350574666905386 0 
</DataArray>
</Points>
<Cells>
<DataArray type="UInt32" Name="connectivity" format="ascii">
0 1 2 3 4 5 6 7 8 9 10 11 12 13 14 15 16 17 18 19 20 21 22 23 24 25 26 27 28 29 30 31 32 33 34 35 36 37 38 39 40 41 42 43 44 45 46 47 48 49 50 51 52 53 54 55 56 57 58 59 60 61 62 63 64 65 66 67 68 69 70 71 72 73 74 75 76 77 78 79 80 81 82 83 84 85 86 87 88 89 90 91 92 93 94 95 96 97 98 99 100 101 102 103 104 105 106 107 108 109 110 111 112 113 114 115 116 117 118 119 120 121 122 123 124 125 126 127 128 129 130 131 132 133 134 135 136 137 138 139 140 141 142 143 144 145 146 147 148 149 150 151 152 153 154 155 156 157 158 159 160 161 162 163 164 165 166 167 168 169 170 171 172 173 174 175 176 177 178 179 180 181 182 183 184 185 186 187 188 189 190 191 192 193 194 195 196 197 198 199 200 201 202 203 204 205 206 207 208 209 210 211 212 213 214 215 216 217 218 219 220 221 222 223 224 225 226 227 228 229 230 231 232 233 234 235 236 237 238 239 240 241 242 243 244 245 246 247 248 249 250 251 252 253 254 255 256 257 258 259 260 261 262 263 264 265 266 267 268 269 270 271 272 273 274 275 276 277 278 279 280 281 282 283 284 285 286 287 288 289 290 291 292 293 294 295 296 297 298 299 300 301 302 303 304 305 306 307 308 309 310 311 312 313 314 315 316 317 318 319 320 321 322 323 324 325 326 327 328 329 330 331 332 333 334 335 336 337 338 339 340 341 342 343 344 345 346 347 348 349 350 351 352 353 354 355 356 357 358 359 360 361 362 363 364 365 366 367 368 369 370 371 372 373 374 375 376 377 378 379 380 381 382 383 384 385 386 387 388 389 390 391 392 393 394 395 396 397 398 399 400 401 402 403 404 405 406 407 408 409 410 411 412 413 414 415 416 417 418 419 420 421 422 423 424 425 426 427 428 429 430 431 432 433 434 435 436 437 438 439 440 441 442 443 444 445 446 447 448 449 450 451 452 453 454 455 456 457 458 459 460 461 462 463 464 465 466 467 468 469 470 471 472 473 474 475 476 477 478 479 480 481 482 483 484 485 486 487 488 489 490 491 492 493 494 495 496 497 498 499 500 501 502 503 504 505 506 507 508 509 510 511 512 513 514 515 516 517 518 519 520 521 522 523 524 525 526 527 528 529 530 531 532 533 534 535 536 537 538 539 540 541 542 543 544 545 546 547 548 549 550 551 552 553 554 555 556 557 558 559 560 561 562 563 564 565 566 567 568 569 570 571 572 573 574 575 576 577 578 579 580 581 582 583 584 585 586 587 588 589 590 591 592 593 594 595 596 597 598 599 600 601 602 603 604 605 606 607 608 609 610 611 612 613 614 615 616 617 618 619 620 621 622 623 624 625 626 627 628 629 630 631 632 633 634 635 636 637 638 639 640 641 642 643 644 645 646 647 648 649 650 651 652 653 654 655 656 657 658 659 660 661 662 663 664 665 666 667 668 669 670 671 672 673 674 675 676 677 678 679 680 681 682 683 684 685 686 687 688 689 690 691 692 693 694 695 696 697 698 699 700 701 702 703 704 705 706 707 708 709 710 711 712 713 714 715 716 717 718 719 720 721 722 723 724 725 726 727 728 729 730 731 732 733 734 735 736 737 738 739 740 741 742 743 744 745 746 747 748 749 750 751 752 753 754 755 756 757 758 759 760 761 762 763 764 765 766 767 768 769 770 771 772 773 774 775 776 777 778 779 780 781 782 783 784 785 786 787 788 789 790 791 792 793 794 795 796 797 798 799 800 801 802 803 804 805 806 807 808 809 810 811 812 813 814 815 816 817 818 819 820 821 822 823 824 825 826 827 828 829 830 831 832 833 834 835 836 837 838 839 840 841 842 843 844 845 846 847 848 849 850 851 852 853 854 855 856 857 858 859 860 861 862 863 864 865 866 867 868 869 870 871 872 873 874 875 876 877 878 879 880 881 882 883 884 885 886 887 888 889 890 891 892 893 894 895 896 897 898 899 900 901 902 903 904 905 906 907 908 909 910 911 912 913 914 915 916 917 918 919 920 921 922 923 924 925 926 927 928 929 930 931 932 933 934 935 936 937 938 939 940 941 942 943 944 945 946 947 948 949 950 951 952 953 954 955 956 957 958 959 960 961 962 963 964 965 966 967 968 969 970 971 972 973 974 975 976 977 978 979 980 981 982 983 984 985 986 987 988 989 990 991 992 993 994 995 996 997 998 999 1000 1001 1002 1003 1004 1005 1006 1007 1008 1009 1010 1011 1012 1013 1014 1015 1016 1017 1018 1019 1020 1021 1022 1023 1024 1025 1026 1027 1028 1029 1030 1031 1032 1033 1034 1035 1036 1037 1038 1039 1040 1041 1042 1043 1044 1045 1046 1047 1048 1049 1050 1051 1052 1053 1054 1055 1056 1057 1058 1059 1060 1061 1062 1063 1064 1065 1066 1067 1068 1069 1070 1071 1072 1073 1074 1075 1076 1077 1078 1079 1080 1081 1082 1083 1084 1085 1086 1087 1088 1089 1090 1091 1092 1093 1094 1095 1096 1097 1098 1099 1100 1101 1102 1103 1104 1105 1106 1107 1108 1109 1110 1111 1112 1113 1114 1115 1116 1117 1118 1119 1120 1121 1122 1123 1124 1125 1126 1127 1128 1129 1130 1131 1132 1133 1134 1135 1136 1137 1138 1139 1140 1141 1142 1143 1144 1145 1146 1147 1148 1149 1150 1151 1152 1153 1154 1155 1156 1157 1158 1159 1160 1161 1162 1163 1164 1165 1166 1167 1168 1169 1170 1171 1172 1173 1174 1175 1176 1177 1178 1179 1180 1181 1182 1183 1184 1185 1186 1187 1188 1189 1190 1191 1192 1193 1194 1195 1196 1197 1198 1199 1200 1201 1202 1203 1204 1205 1206 1207 1208 1209 1210 1211 1212 1213 1214 1215 1216 1217 1218 1219 1220 1221 1222 1223 1224 1225 1226 1227 1228 1229 1230 1231 1232 1233 1234 1235 1236 1237 1238 1239 1240 1241 1242 1243 1244 1245 1246 1247 1248 1249 1250 1251 1252 1253 1254 1255 1256 1257 1258 1259 1260 1261 1262 1263 1264 1265 1266 1267 1268 1269 1270 1271 1272 1273 1274 1275 1276 1277 1278 1279 1280 1281 1282 1283 1284 1285 1286 1287 1288 1289 1290 1291 1292 1293 1294 1295 1296 1297 1298 1299 1300 1301 1302 1303 1304 1305 1306 1307 1308 1309 1310 1311 1312 1313 1314 1315 1316 1317 1318 1319 1320 1321 1322 1323 1324 1325 1326 1327 1328 1329 1330 1331 1332 1333 1334 1335 1336 1337 1338 1339 1340 1341 1342 1343 1344 1345 1346 1347 1348 1349 1350 1351 1352 1353 1354 1355 1356 1357 1358 1359 1360 1361 1362 1363 1364 1365 1366 1367 1368 1369 1370 1371 1372 1373 1374 1375 1376 1377 1378 1379 1380 1381 1382 1383 1384 1385 1386 1387 1388 1389 1390 1391 1392 1393 1394 1395 1396 1397 1398 1399 1400 1401 1402 1403 1404 1405 1406 1407 1408 1409 1410 1411 1412 1413 1414 1415 
</DataArray>
<DataArray type="UInt32" Name="offsets" format="ascii">
3 6 9 12 15 18 21 24 27 30 33 36 39 42 45 48 51 54 57 60 63 66 69 72 75 78 81 84 87 90 93 96 99 102 105 108 111 114 117 120 123 126 129 132 135 138 141 144 147 150 153 156 159 162 165 168 171 174 177 180 183 186 189 192 195 198 201 204 207 210 213 216 219 222 225 228 231 234 237 240 243 246 249 252 255 258 261 264 267 270 273 276 279 282 285 288 291 294 297 300 303 306 309 312 315 318 321 324 327 330 333 336 339 342 345 348 351 354 357 360 363 366 369 372 375 378 381 384 387 390 393 396 399 402 405 408 411 414 417 420 423 426 429 432 435 438 441 444 447 450 453 456 459 462 465 468 471 474 477 480 483 486 489 492 495 498 501 504 507 510 513 516 519 522 525 528 531 534 537 540 543 546 549 552 555 558 561 564 567 570 573 576 579 582 585 588 591 594 597 600 603 606 609 612 615 618 621 624 627 630 633 636 639 642 645 648 651 654 657 660 663 666 669 672 675 678 681 684 687 690 693 696 699 702 705 708 711 714 717 720 723 726 729 732 735 738 741 744 747 750 753 756 759 762 765 768 771 774 777 780 783 786 789 792 795 798 801 804 807 810 813 816 819 822 825 828 831 834 837 840 843 846 849 852 855 858 861 864 867 870 873 876 879 882 885 888 891 894 897 900 903 906 909 912 915 918 921 924 927 930 933 936 939 942 945 948 951 954 957 960 963 966 969 972 975 978 981 984 987 990 993 996 999 1002 1005 1008 1011 1014 1017 1020 1023 1026 1029 1032 1035 1038 1041 1044 1047 1050 1053 1056 1059 1062 1065 1068 1071 1074 1077 1080 1083 1086 1089 1092 1095 1098 1101 1104 1107 1110 1113 1116 1119 1122 1125 1128 1131 1134 1137 1140 1143 1146 1149 1152 1155 1158 1161 1164 1167 1170 1173 1176 1179 1182 1185 1188 1191 1194 1197 1200 1203 1206 1209 1212 1215 1218 1221 1224 1227 1230 1233 1236 1239 1242 1245 1248 1251 1254 1257 1260 1263 1266 1269 1272 1275 1278 1281 1284 1287 1290 1293 1296 1299 1302 1305 1308 1311 1314 1317 1320 1323 1326 1329 1332 1335 1338 1341 1344 1347 1350 1353 1356 1359 1362 1365 1368 1371 1374 1377 1380 1383 1386 1389 1392 1395 1398 1401 1404 1407 1410 1413 1416 
</DataArray>
<DataArray type="UInt32" Name="types" format="ascii">
5 5 5 5 5 5 5 5 5 5 5 5 5 5 5 5 5 5 5 5 5 5 5 5 5 5 5 5 5 5 5 5 5 5 5 5 5 5 5 5 5 5 5 5 5 5 5 5 5 5 5 5 5 5 5 5 5 5 5 5 5 5 5 5 5 5 5 5 5 5 5 5 5 5 5 5 5 5 5 5 5 5 5 5 5 5 5 5 5 5 5 5 5 5 5 5 5 5 5 5 5 5 5 5 5 5 5 5 5 5 5 5 5 5 5 5 5 5 5 5 5 5 5 5 5 5 5 5 5 5 5 5 5 5 5 5 5 5 5 5 5 5 5 5 5 5 5 5 5 5 5 5 5 5 5 5 5 5 5 5 5 5 5 5 5 5 5 5 5 5 5 5 5 5 5 5 5 5 5 5 5 5 5 5 5 5 5 5 5 5 5 5 5 5 5 5 5 5 5 5 5 5 5 5 5 5 5 5 5 5 5 5 5 5 5 5 5 5 5 5 5 5 5 5 5 5 5 5 5 5 5 5 5 5 5 5 5 5 5 5 5 5 5 5 5 5 5 5 5 5 5 5 5 5 5 5 5 5 5 5 5 5 5 5 5 5 5 5 5 5 5 5 5 5 5 5 5 5 5 5 5 5 5 5 5 5 5 5 5 5 5 5 5 5 5 5 5 5 5 5 5 5 5 5 5 5 5 5 5 5 5 5 5 5 5 5 5 5 5 5 5 5 5 5 5 5 5 5 5 5 5 5 5 5 5 5 5 5 5 5 5 5 5 5 5 5 5 5 5 5 5 5 5 5 5 5 5 5 5 5 5 5 5 5 5 5 5 5 5 5 5 5 5 5 5 5 5 5 5 5 5 5 5 5 5 5 5 5 5 5 5 5 5 5 5 5 5 5 5 5 5 5 5 5 5 5 5 5 5 5 5 5 5 5 5 5 5 5 5 5 5 5 5 5 5 5 5 5 5 5 5 5 5 5 5 5 5 5 5 5 5 5 5 5 5 5 5 5 5 5 5 5 5 5 5 5 5 5 5 5 5 5 5 5 5 5 5 5 5 5 5 5 
</DataArray>
</Cells>
<PointData Scalars="" Vectors="displacement," Tensors="">
<DataArray type="Float64" Name="displacement" NumberOfComponents="3" format="ascii">
4.2008378081287008e-07 7.0798121829231486e-05 0 0.00092769043752982748 0.10784254612691971 0 2.6868545023054011e-06 0.14284120827014071 0 4.2008378081287008e-07 7.0798121829231486e-05 0 0.00092769043752982748 0.10784254612691971 0 2.0876222272047067e-06 0.00016783578414606256 0 2.6868545023054011e-06 0.14284120827014071 0 0.0015628936524155154 0.22767105905851578 0 3.5040237477037773e-06 0.28572546894404988 0 0.00092769043752982748 0.10784254612691971 0 2.6868545023054011e-06 0.14284120827014071 0 0.0015628936524155154 0.22767105905851578 0 0.00092769043752982748 0.10784254612691971 0 0.0015628936524155154 0.22767105905851578 0 0.00086823003350543898 0.13963873922315687 0 0.0015628936524155154 0.22767105905851578 0 0.00086823003350543898 0.13963873922315687 0 0.00066320697016311245 0.30620844897950678 0 0.00086823003350543898 0.13963873922315687 0 2.0876222272047067e-06 0.00016783578414606256 0 4.6332273254350877e-08 0.00014699784257476376 0 0.00092769043752982748 0.10784254612691971 0 0.00086823003350543898 0.13963873922315687 0 2.0876222272047067e-06 0.00016783578414606256 0 4.7152202634176649e-06 0.42858099495068486 0 0.0019422792061349844 0.37229712508528146 0 0.0028918364359915576 0.52255347816207887 0 0.0015628936524155154 0.22767105905851578 0 3.5040237477037773e-06 0.28572546894404988 0 0.0019422792061349844 0.37229712508528146 0 4.7152202634176649e-06 0.42858099495068486 0 3.5040237477037773e-06 0.28572546894404988 0 0.0019422792061349844 0.37229712508528146 0 0.0019422792061349844 0.37229712508528146 0 0.00066320697016311245 0.30620844897950678 0 0.001246157895813488 0.46097705502229341 0 0.0015628936524155154 0.22767105905851578 0 0.0019422792061349844 0.37229712508528146 0 0.00066320697016311245 0.30620844897950678 0 0.0019422792061349844 0.37229712508528146 0 0.001246157895813488 0.46097705502229341 0 0.0028918364359915576 0.52255347816207887 0 0.001246157895813488 0.46097705502229341 0 -0.0026131197171815547 0.38964345708253123 0 -0.0020017936439621254 0.55326070285785522 0 0.00066320697016311245 0.30620844897950678 0 0.001246157895813488 0.46097705502229341 0 -0.0026131197171815547 0.38964345708253123 0 0.00066320697016311245 0.30620844897950678 0 -0.0026131197171815547 0.38964345708253123 0 -0.0018510081293083643 0.23385492180595072 0 -0.0026131197171815547 0.38964345708253123 0 -0.0067908897673216277 0.30906228042929207 0 -0.0080020165207050405 0.47211060402605964 0 -0.0026131197171815547 0.38964345708253123 0 -0.0067908897673216277 0.30906228042929207 0 -0.0018510081293083643 0.23385492180595072 0 -0.0026131197171815547 0.38964345708253123 0 -0.0080020165207050405 0.47211060402605964 0 -0.0020017936439621254 0.55326070285785522 0 0.00086823003350543898 0.13963873922315687 0 4.6332273254350877e-08 0.00014699784257476376 0 -0.00071938666235240017 0.10291718403591585 0 4.6332273254350877e-08 0.00014699784257476376 0 -0.00071938666235240017 0.10291718403591585 0 -4.5392319739985242e-07 0.0001548619291760797 0 0.00086823003350543898 0.13963873922315687 0 -0.00071938666235240017 0.10291718403591585 0 -0.0018510081293083643 0.23385492180595072 0 0.00086823003350543898 0.13963873922315687 0 0.00066320697016311245 0.30620844897950678 0 -0.0018510081293083643 0.23385492180595072 0 -0.00071938666235240017 0.10291718403591585 0 -0.0018510081293083643 0.23385492180595072 0 -0.0037523914835537269 0.13973890382699966 0 -0.0067908897673216277 0.30906228042929207 0 -0.0018510081293083643 0.23385492180595072 0 -0.0037523914835537269 0.13973890382699966 0 -0.0037523914835537269 0.13973890382699966 0 -4.5392319739985242e-07 0.0001548619291760797 0 -4.1130165013072594e-06 0.00015228326546885934 0 -0.00071938666235240017 0.10291718403591585 0 -0.0037523914835537269 0.13973890382699966 0 -4.5392319739985242e-07 0.0001548619291760797 0 -0.0037523914835537269 0.13973890382699966 0 -4.1130165013072594e-06 0.00015228326546885934 0 -0.0049880961040982942 0.10076642243366093 0 -4.8114328169602167e-06 0.00014935407647626424 0 -0.0049880961040982942 0.10076642243366093 0 -0.0092054740727939999 0.13400007954235429 0 -4.1130165013072594e-06 0.00015228326546885934 0 -4.8114328169602167e-06 0.00014935407647626424 0 -0.0049880961040982942 0.10076642243366093 0 -0.0097624840291644227 0.22908402277320736 0 -0.015853743976053613 0.29864753528250576 0 -0.0092054740727939999 0.13400007954235429 0 -0.0049880961040982942 0.10076642243366093 0 -0.0097624840291644227 0.22908402277320736 0 -0.0092054740727939999 0.13400007954235429 0 -0.0037523914835537269 0.13973890382699966 0 -0.0049880961040982942 0.10076642243366093 0 -0.0097624840291644227 0.22908402277320736 0 -0.0067908897673216277 0.30906228042929207 0 -0.0037523914835537269 0.13973890382699966 0 -0.0097624840291644227 0.22908402277320736 0 -0.0067908897673216277 0.30906228042929207 0 -0.0097624840291644227 0.22908402277320736 0 -0.013101223180479345 0.38691531498206927 0 -0.0067908897673216277 0.30906228042929207 0 -0.0080020165207050405 0.47211060402605964 0 -0.013101223180479345 0.38691531498206927 0 -0.0080020165207050405 0.47211060402605964 0 -0.013101223180479345 0.38691531498206927 0 -0.014783177952020313 0.54885051685262976 0 -0.013101223180479345 0.38691531498206927 0 -0.019955997978547659 0.45485061056417603 0 -0.014783177952020313 0.54885051685262976 0 -0.0097624840291644227 0.22908402277320736 0 -0.013101223180479345 0.38691531498206927 0 -0.015853743976053613 0.29864753528250576 0 -0.013101223180479345 0.38691531498206927 0 -0.019955997978547659 0.45485061056417603 0 -0.015853743976053613 0.29864753528250576 0 -0.015853743976053613 0.29864753528250576 0 -0.021395623230772841 0.36204203013874914 0 -0.015178246746663612 0.21911339001335348 0 -0.019955997978547659 0.45485061056417603 0 -0.015853743976053613 0.29864753528250576 0 -0.021395623230772841 0.36204203013874914 0 -0.019955997978547659 0.45485061056417603 0 -0.021395623230772841 0.36204203013874914 0 -0.026129546952062741 0.51076815055531444 0 -0.021395623230772841 0.36204203013874914 0 -0.026129546952062741 0.51076815055531444 0 -0.024743195665556876 0.41038025712597631 0 -0.021395623230772841 0.36204203013874914 0 -0.018266374042646399 0.27223243862639085 0 -0.024743195665556876 0.41038025712597631 0 -0.021395623230772841 0.36204203013874914 0 -0.015178246746663612 0.21911339001335348 0 -0.018266374042646399 0.27223243862639085 0 -0.015178246746663612 0.21911339001335348 0 -0.010099445191076129 0.13526788068623721 0 -0.018266374042646399 0.27223243862639085 0 -0.015178246746663612 0.21911339001335348 0 -0.0081762783103181292 0.1038757534760044 0 -0.010099445191076129 0.13526788068623721 0 -0.0081762783103181292 0.1038757534760044 0 -7.3538884163823485e-06 0.00014449147513025581 0 -6.2097394159448063e-06 0.00013257626239108087 0 -0.0081762783103181292 0.1038757534760044 0 -0.010099445191076129 0.13526788068623721 0 -6.2097394159448063e-06 0.00013257626239108087 0 -4.8114328169602167e-06 0.00014935407647626424 0 -7.3538884163823485e-06 0.00014449147513025581 0 -0.0092054740727939999 0.13400007954235429 0 -0.0081762783103181292 0.1038757534760044 0 -7.3538884163823485e-06 0.00014449147513025581 0 -0.0092054740727939999 0.13400007954235429 0 -0.015853743976053613 0.29864753528250576 0 -0.015178246746663612 0.21911339001335348 0 -0.0092054740727939999 0.13400007954235429 0 -0.015178246746663612 0.21911339001335348 0 -0.0081762783103181292 0.1038757534760044 0 -0.0092054740727939999 0.13400007954235429 0 -0.014257643919431849 0.97187276534403833 0 -0.026191857225663886 0.82193946118576289 0 -0.020645788354651265 0.78521234321486599 0 -0.014257643919431849 0.97187276534403833 0 -0.019175394810697979 0.95204856138819827 0 -0.026191857225663886 0.82193946118576289 0 -0.014257643919431849 0.97187276534403833 0 -0.019175394810697979 0.95204856138819827 0 -0.0069491631306720777 1.113048236484649 0 -0.014257643919431849 0.97187276534403833 0 -0.0025174991568026502 1.1600327246935946 0 -0.0069491631306720777 1.113048236484649 0 -0.019175394810697979 0.95204856138819827 0 -0.00018140856798991707 0.99989726967404002 0 -0.025284532285228048 0.83967949336709236 0 -0.019175394810697979 0.95204856138819827 0 -0.0069491631306720777 1.113048236484649 0 -0.00018140856798991707 0.99989726967404002 0 -0.026191857225663886 0.82193946118576289 0 -0.031026700307832545 0.69222773365291002 0 -0.025284532285228048 0.83967949336709236 0 -0.019175394810697979 0.95204856138819827 0 -0.026191857225663886 0.82193946118576289 0 -0.025284532285228048 0.83967949336709236 0 -0.026191857225663886 0.82193946118576289 0 -0.028231010820478325 0.66719654973024034 0 -0.031026700307832545 0.69222773365291002 0 -0.028231010820478325 0.66719654973024034 0 -0.029426727859913349 0.54994931870521135 0 -0.031026700307832545 0.69222773365291002 0 -0.026129546952062741 0.51076815055531444 0 -0.024743195665556876 0.41038025712597631 0 -0.029426727859913349 0.54994931870521135 0 -0.028231010820478325 0.66719654973024034 0 -0.026129546952062741 0.51076815055531444 0 -0.029426727859913349 0.54994931870521135 0 -0.028231010820478325 0.66719654973024034 0 -0.026129546952062741 0.51076815055531444 0 -0.022190468639181601 0.61324711017450084 0 -0.019955997978547659 0.45485061056417603 0 -0.026129546952062741 0.51076815055531444 0 -0.022190468639181601 0.61324711017450084 0 -0.026191857225663886 0.82193946118576289 0 -0.028231010820478325 0.66719654973024034 0 -0.020645788354651265 0.78521234321486599 0 -0.028231010820478325 0.66719654973024034 0 -0.022190468639181601 0.61324711017450084 0 -0.020645788354651265 0.78521234321486599 0 -0.020645788354651265 0.78521234321486599 0 -0.013749663198272675 0.71694190573179528 0 -0.009947255230032483 0.89470817599097552 0 -0.022190468639181601 0.61324711017450084 0 -0.020645788354651265 0.78521234321486599 0 -0.013749663198272675 0.71694190573179528 0 -0.019955997978547659 0.45485061056417603 0 -0.022190468639181601 0.61324711017450084 0 -0.014783177952020313 0.54885051685262976 0 -0.022190468639181601 0.61324711017450084 0 -0.014783177952020313 0.54885051685262976 0 -0.013749663198272675 0.71694190573179528 0 -0.0080020165207050405 0.47211060402605964 0 -0.014783177952020313 0.54885051685262976 0 -0.0072226591204748456 0.64056904795333225 0 -0.014783177952020313 0.54885051685262976 0 -0.013749663198272675 0.71694190573179528 0 -0.0072226591204748456 0.64056904795333225 0 -0.013749663198272675 0.71694190573179528 0 -0.0072226591204748456 0.64056904795333225 0 -0.0042937428679707219 0.81963519698902676 0 -0.013749663198272675 0.71694190573179528 0 -0.009947255230032483 0.89470817599097552 0 -0.0042937428679707219 0.81963519698902676 0 -0.009947255230032483 0.89470817599097552 0 0.00091246962559702672 1.0123047885324352 0 -0.0042937428679707219 0.81963519698902676 0 -0.009947255230032483 0.89470817599097552 0 -0.0043601759996945441 1.0470535652854527 0 0.00091246962559702672 1.0123047885324352 0 -0.014257643919431849 0.97187276534403833 0 -0.009947255230032483 0.89470817599097552 0 -0.0043601759996945441 1.0470535652854527 0 -0.014257643919431849 0.97187276534403833 0 -0.020645788354651265 0.78521234321486599 0 -0.009947255230032483 0.89470817599097552 0 -0.014257643919431849 0.97187276534403833 0 -0.0043601759996945441 1.0470535652854527 0 -0.0025174991568026502 1.1600327246935946 0 -0.0043601759996945441 1.0470535652854527 0 -0.0025174991568026502 1.1600327246935946 0 0.0033516352731903947 1.1794842327522934 0 -0.0043601759996945441 1.0470535652854527 0 0.00091246962559702672 1.0123047885324352 0 0.0033516352731903947 1.1794842327522934 0 0.00091246962559702672 1.0123047885324352 0 0.008008276961697279 1.0511726561037875 0 0.0089270098063805262 1.1776929669964955 0 0.00091246962559702672 1.0123047885324352 0 0.0089270098063805262 1.1776929669964955 0 0.0033516352731903947 1.1794842327522934 0 0.00091246962559702672 1.0123047885324352 0 0.0041836319055663365 0.90547009547405355 0 -0.0042937428679707219 0.81963519698902676 0 0.00091246962559702672 1.0123047885324352 0 0.0041836319055663365 0.90547009547405355 0 0.008008276961697279 1.0511726561037875 0 0.0041836319055663365 0.90547009547405355 0 0.008008276961697279 1.0511726561037875 0 0.010254179969133524 0.974378922528503 0 0.0041836319055663365 0.90547009547405355 0 0.0058472761511652064 0.79270733246189551 0 0.010254179969133524 0.974378922528503 0 0.008008276961697279 1.0511726561037875 0 0.0089270098063805262 1.1776929669964955 0 0.013953235711235227 1.1551701963651315 0 0.008008276961697279 1.0511726561037875 0 0.010254179969133524 0.974378922528503 0 0.013953235711235227 1.1551701963651315 0 -0.0080020165207050405 0.47211060402605964 0 -0.0072226591204748456 0.64056904795333225 0 -0.0020017936439621254 0.55326070285785522 0 -0.0072226591204748456 0.64056904795333225 0 0.00046911311669205376 0.72985190652462917 0 -0.0020017936439621254 0.55326070285785522 0 0.0041836319055663365 0.90547009547405355 0 -0.0042937428679707219 0.81963519698902676 0 0.00046911311669205376 0.72985190652462917 0 -0.0072226591204748456 0.64056904795333225 0 -0.0042937428679707219 0.81963519698902676 0 0.00046911311669205376 0.72985190652462917 0 0.00046911311669205376 0.72985190652462917 0 0.0029100745114490163 0.6204721814440497 0 0.0058472761511652064 0.79270733246189551 0 0.0041836319055663365 0.90547009547405355 0 0.00046911311669205376 0.72985190652462917 0 0.0058472761511652064 0.79270733246189551 0 0.00046911311669205376 0.72985190652462917 0 -0.0020017936439621254 0.55326070285785522 0 0.0029100745114490163 0.6204721814440497 0 0.001246157895813488 0.46097705502229341 0 -0.0020017936439621254 0.55326070285785522 0 0.0029100745114490163 0.6204721814440497 0 0.0029100745114490163 0.6204721814440497 0 0.004766572237649965 0.68077985822090425 0 0.0028918364359915576 0.52255347816207887 0 0.001246157895813488 0.46097705502229341 0 0.0029100745114490163 0.6204721814440497 0 0.0028918364359915576 0.52255347816207887 0 0.0029100745114490163 0.6204721814440497 0 0.0058472761511652064 0.79270733246189551 0 0.004766572237649965 0.68077985822090425 0 0.0058472761511652064 0.79270733246189551 0 0.004766572237649965 0.68077985822090425 0 0.0079073997359411299 0.83559601450552989 0 0.004766572237649965 0.68077985822090425 0 1.2057074252588319e-05 0.71431402469166816 0 0.0079073997359411299 0.83559601450552989 0 0.004766572237649965 0.68077985822090425 0 1.2057074252588319e-05 0.71431402469166816 0 6.7129685053252923e-06 0.57144417089998489 0 0.004766572237649965 0.68077985822090425 0 0.0028918364359915576 0.52255347816207887 0 6.7129685053252923e-06 0.57144417089998489 0 4.7152202634176649e-06 0.42858099495068486 0 0.0028918364359915576 0.52255347816207887 0 6.7129685053252923e-06 0.57144417089998489 0 0.010254179969133524 0.974378922528503 0 0.010320864554107901 0.95462694360232669 0 0.015314330073002659 1.1062575511334767 0 0.010254179969133524 0.974378922528503 0 0.015314330073002659 1.1062575511334767 0 0.013953235711235227 1.1551701963651315 0 0.0058472761511652064 0.79270733246189551 0 0.010254179969133524 0.974378922528503 0 0.0079073997359411299 0.83559601450552989 0 0.010254179969133524 0.974378922528503 0 0.0079073997359411299 0.83559601450552989 0 0.010320864554107901 0.95462694360232669 0 0.0079073997359411299 0.83559601450552989 0 1.2206450053895242e-05 0.85716367855944797 0 0.010320864554107901 0.95462694360232669 0 1.2057074252588319e-05 0.71431402469166816 0 0.0079073997359411299 0.83559601450552989 0 1.2206450053895242e-05 0.85716367855944797 0 0.010320864554107901 0.95462694360232669 0 4.117284939133383e-05 1.0001192941677275 0 0.015314330073002659 1.1062575511334767 0 1.2206450053895242e-05 0.85716367855944797 0 0.010320864554107901 0.95462694360232669 0 4.117284939133383e-05 1.0001192941677275 0 4.117284939133383e-05 1.0001192941677275 0 -0.0003206906205790146 1.1611560134517547 0 -1.8908839394069418e-05 1.1428747052322819 0 4.117284939133383e-05 1.0001192941677275 0 -0.0003206906205790146 1.1611560134517547 0 0.015314330073002659 1.1062575511334767 0 0.015314330073002659 1.1062575511334767 0 0.0027666494146699645 1.21695851696072 0 0.013953235711235227 1.1551701963651315 0 -0.0003206906205790146 1.1611560134517547 0 0.015314330073002659 1.1062575511334767 0 0.0027666494146699645 1.21695851696072 0 -0.0003206906205790146 1.1611560134517547 0 0.0027666494146699645 1.21695851696072 0 -0.0035568496870451651 1.2791040046299067 0 0.0027666494146699645 1.21695851696072 0 -0.0035568496870451651 1.2791040046299067 0 0.00068161613741411352 1.3290749831866209 0 -0.0003206906205790146 1.1611560134517547 0 -0.0035568496870451651 1.2791040046299067 0 -1.8908839394069418e-05 1.1428747052322819 0 -0.0035568496870451651 1.2791040046299067 0 -1.8908839394069418e-05 1.1428747052322819 0 -3.549218321538863e-06 1.285739086337953 0 -0.00262808230740764 1.381563104302703 0 -3.549218321538863e-06 1.285739086337953 0 -7.2543154047124916e-06 1.4285890385117863 0 -0.0035568496870451651 1.2791040046299067 0 -0.00262808230740764 1.381563104302703 0 -3.549218321538863e-06 1.285739086337953 0 -7.2543154047124916e-06 1.4285890385117863 0 -0.0027837927454085836 1.5213499808099404 0 -4.0303394897596757e-06 1.5714387458995087 0 -0.00262808230740764 1.381563104302703 0 -7.2543154047124916e-06 1.4285890385117863 0 -0.0027837927454085836 1.5213499808099404 0 -0.0027837927454085836 1.5213499808099404 0 -0.0024816470693299359 1.4145081099111925 0 -0.00049208263298387476 1.5400283863694162 0 -0.00262808230740764 1.381563104302703 0 -0.0027837927454085836 1.5213499808099404 0 -0.0024816470693299359 1.4145081099111925 0 -0.0035568496870451651 1.2791040046299067 0 -0.0024816470693299359 1.4145081099111925 0 0.00068161613741411352 1.3290749831866209 0 -0.0035568496870451651 1.2791040046299067 0 -0.00262808230740764 1.381563104302703 0 -0.0024816470693299359 1.4145081099111925 0 0.0025533457963829425 1.4406889116118924 0 0.00640346345144317 1.3516376226839302 0 0.00068161613741411352 1.3290749831866209 0 -0.0024816470693299359 1.4145081099111925 0 0.0025533457963829425 1.4406889116118924 0 0.00068161613741411352 1.3290749831866209 0 0.0025533457963829425 1.4406889116118924 0 -0.00049208263298387476 1.5400283863694162 0 0.0053616817458626894 1.5513799800504606 0 -0.0024816470693299359 1.4145081099111925 0 0.0025533457963829425 1.4406889116118924 0 -0.00049208263298387476 1.5400283863694162 0 0.0025533457963829425 1.4406889116118924 0 0.0053616817458626894 1.5513799800504606 0 0.0096969872984307686 1.4525372445968889 0 0.0053616817458626894 1.5513799800504606 0 0.0096969872984307686 1.4525372445968889 0 0.012688983651513825 1.554332097560271 0 0.0096969872984307686 1.4525372445968889 0 0.00640346345144317 1.3516376226839302 0 0.012876631888331715 1.3570462704171566 0 0.0025533457963829425 1.4406889116118924 0 0.0096969872984307686 1.4525372445968889 0 0.00640346345144317 1.3516376226839302 0 0.00640346345144317 1.3516376226839302 0 0.0060311723442313166 1.2532107428760324 0 0.0082263652291461355 1.2669983230742419 0 0.0089270098063805262 1.1776929669964955 0 0.0060311723442313166 1.2532107428760324 0 0.0082263652291461355 1.2669983230742419 0 0.0027666494146699645 1.21695851696072 0 0.0060311723442313166 1.2532107428760324 0 0.013953235711235227 1.1551701963651315 0 0.0089270098063805262 1.1776929669964955 0 0.0060311723442313166 1.2532107428760324 0 0.013953235711235227 1.1551701963651315 0 0.00640346345144317 1.3516376226839302 0 0.0060311723442313166 1.2532107428760324 0 0.00068161613741411352 1.3290749831866209 0 0.0027666494146699645 1.21695851696072 0 0.0060311723442313166 1.2532107428760324 0 0.00068161613741411352 1.3290749831866209 0 -0.0014748720205966757 1.8896323163228264 0 -1.8844912974369072e-06 1.999844818839545 0 -1.3994028112743786e-06 1.999872000963139 0 -0.0014748720205966757 1.8896323163228264 0 -1.8844912974369072e-06 1.999844818839545 0 -0.0011917274026794309 1.8992446103871701 0 -1.8844912974369072e-06 1.999844818839545 0 -4.0698447919172713e-07 1.9999281604251145 0 -0.0011917274026794309 1.8992446103871701 0 -4.0698447919172713e-07 1.9999281604251145 0 -0.0011917274026794309 1.8992446103871701 0 -3.3621479999060077e-06 1.8571643610520148 0 -3.3621479999060077e-06 1.8571643610520148 0 -0.0020556928318475514 1.779935820580268 0 -3.8632927459061205e-06 1.714288548501242 0 -0.0011917274026794309 1.8992446103871701 0 -3.3621479999060077e-06 1.8571643610520148 0 -0.0020556928318475514 1.779935820580268 0 -0.0014748720205966757 1.8896323163228264 0 -0.0020556928318475514 1.779935820580268 0 -0.00084043766643867137 1.7730841367134793 0 -0.0014748720205966757 1.8896323163228264 0 -0.0011917274026794309 1.8992446103871701 0 -0.0020556928318475514 1.779935820580268 0 -0.0020556928318475514 1.779935820580268 0 -0.0018677821945717436 1.6524714993146941 0 -0.00084043766643867137 1.7730841367134793 0 -0.0020556928318475514 1.779935820580268 0 -0.0018677821945717436 1.6524714993146941 0 -0.0017152503305349496 1.6479481415068562 0 -0.0020556928318475514 1.779935820580268 0 -3.8632927459061205e-06 1.714288548501242 0 -0.0017152503305349496 1.6479481415068562 0 -3.8632927459061205e-06 1.714288548501242 0 -0.0017152503305349496 1.6479481415068562 0 -4.0303394897596757e-06 1.5714387458995087 0 -0.0027837927454085836 1.5213499808099404 0 -0.0017152503305349496 1.6479481415068562 0 -4.0303394897596757e-06 1.5714387458995087 0 -0.0027837927454085836 1.5213499808099404 0 -0.0018677821945717436 1.6524714993146941 0 -0.0017152503305349496 1.6479481415068562 0 -0.0027837927454085836 1.5213499808099404 0 -0.00049208263298387476 1.5400283863694162 0 -0.0018677821945717436 1.6524714993146941 0 -0.00049208263298387476 1.5400283863694162 0 0.0053616817458626894 1.5513799800504606 0 0.0016399195500487419 1.656467520276488 0 -0.00049208263298387476 1.5400283863694162 0 -0.0018677821945717436 1.6524714993146941 0 0.0016399195500487419 1.656467520276488 0 0.0053616817458626894 1.5513799800504606 0 0.0072490822153411924 1.661045488480432 0 0.012688983651513825 1.554332097560271 0 0.0053616817458626894 1.5513799800504606 0 0.0016399195500487419 1.656467520276488 0 0.0072490822153411924 1.661045488480432 0 0.0016399195500487419 1.656467520276488 0 0.0072490822153411924 1.661045488480432 0 0.002716532441312472 1.7758225914708314 0 0.0072490822153411924 1.661045488480432 0 0.002716532441312472 1.7758225914708314 0 0.0073511527079810884 1.7700914156791361 0 -0.0018677821945717436 1.6524714993146941 0 0.0016399195500487419 1.656467520276488 0 -0.00084043766643867137 1.7730841367134793 0 0.0016399195500487419 1.656467520276488 0 -0.00084043766643867137 1.7730841367134793 0 0.002716532441312472 1.7758225914708314 0 -0.00084043766643867137 1.7730841367134793 0 0.002716532441312472 1.7758225914708314 0 -4.3359818023826339e-05 1.8857552320262569 0 -0.0014748720205966757 1.8896323163228264 0 -0.00084043766643867137 1.7730841367134793 0 -4.3359818023826339e-05 1.8857552320262569 0 0.002716532441312472 1.7758225914708314 0 0.0024146729254679936 1.8856663134096483 0 0.0073511527079810884 1.7700914156791361 0 0.002716532441312472 1.7758225914708314 0 0.0024146729254679936 1.8856663134096483 0 -4.3359818023826339e-05 1.8857552320262569 0 0.0024146729254679936 1.8856663134096483 0 3.0788593613495222e-07 1.9998680511092222 0 -4.3359818023826339e-05 1.8857552320262569 0 0.0024146729254679936 1.8856663134096483 0 3.0788593613495222e-07 1.9998680511092222 0 2.1339837230639651e-06 1.9998701867747497 0 3.0788593613495222e-07 1.9998680511092222 0 -1.3994028112743786e-06 1.999872000963139 0 -4.3359818023826339e-05 1.8857552320262569 0 -0.0014748720205966757 1.8896323163228264 0 -1.3994028112743786e-06 1.999872000963139 0 -4.3359818023826339e-05 1.8857552320262569 0 4.1940355028376642e-06 1.9998687276355709 0 0.0051992047879077258 1.8813578655430994 0 0.0071722033069820884 1.8839567677038562 0 4.1940355028376642e-06 1.9998687276355709 0 2.1339837230639651e-06 1.9998701867747497 0 0.0051992047879077258 1.8813578655430994 0 0.0024146729254679936 1.8856663134096483 0 2.1339837230639651e-06 1.9998701867747497 0 0.0051992047879077258 1.8813578655430994 0 0.0024146729254679936 1.8856663134096483 0 0.0051992047879077258 1.8813578655430994 0 0.0073511527079810884 1.7700914156791361 0 0.0051992047879077258 1.8813578655430994 0 0.011742529142213244 1.7670301328378473 0 0.0071722033069820884 1.8839567677038562 0 0.0051992047879077258 1.8813578655430994 0 0.011742529142213244 1.7670301328378473 0 0.0073511527079810884 1.7700914156791361 0 0.011742529142213244 1.7670301328378473 0 0.0073511527079810884 1.7700914156791361 0 0.013526406876943097 1.6582449232863954 0 0.011742529142213244 1.7670301328378473 0 0.013526406876943097 1.6582449232863954 0 0.018979036045489523 1.6507395587091942 0 0.0072490822153411924 1.661045488480432 0 0.0073511527079810884 1.7700914156791361 0 0.013526406876943097 1.6582449232863954 0 0.0072490822153411924 1.661045488480432 0 0.013526406876943097 1.6582449232863954 0 0.012688983651513825 1.554332097560271 0 0.013526406876943097 1.6582449232863954 0 0.018979036045489523 1.6507395587091942 0 0.019912802429044543 1.5470480370975082 0 0.013526406876943097 1.6582449232863954 0 0.012688983651513825 1.554332097560271 0 0.019912802429044543 1.5470480370975082 0 0.018979036045489523 1.6507395587091942 0 0.019912802429044543 1.5470480370975082 0 0.025820415948836436 1.5331407801568877 0 0.018979036045489523 1.6507395587091942 0 0.020991658702590624 1.6558701847228301 0 0.025820415948836436 1.5331407801568877 0 0.020991658702590624 1.6558701847228301 0 0.025820415948836436 1.5331407801568877 0 0.024734760022738538 1.5896946595403267 0 0.020991658702590624 1.6558701847228301 0 0.014434229011412327 1.7785624967031799 0 0.018285993140676565 1.7278529284707831 0 0.020991658702590624 1.6558701847228301 0 0.018285993140676565 1.7278529284707831 0 0.024734760022738538 1.5896946595403267 0 0.011742529142213244 1.7670301328378473 0 0.018979036045489523 1.6507395587091942 0 0.014434229011412327 1.7785624967031799 0 0.018979036045489523 1.6507395587091942 0 0.020991658702590624 1.6558701847228301 0 0.014434229011412327 1.7785624967031799 0 0.011742529142213244 1.7670301328378473 0 0.014434229011412327 1.7785624967031799 0 0.0071722033069820884 1.8839567677038562 0 0.014434229011412327 1.7785624967031799 0 0.0071722033069820884 1.8839567677038562 0 0.0069428197883130687 1.9019705278699097 0 0.014434229011412327 1.7785624967031799 0 0.010309556954637389 1.8647594445364222 0 0.018285993140676565 1.7278529284707831 0 0.014434229011412327 1.7785624967031799 0 0.0069428197883130687 1.9019705278699097 0 0.010309556954637389 1.8647594445364222 0 0.0069428197883130687 1.9019705278699097 0 4.7659817598950226e-06 1.999865928921313 0 6.5862268909599692e-06 1.999867442579319 0 0.0069428197883130687 1.9019705278699097 0 6.5862268909599692e-06 1.999867442579319 0 0.010309556954637389 1.8647594445364222 0 0.0071722033069820884 1.8839567677038562 0 0.0069428197883130687 1.9019705278699097 0 4.7659817598950226e-06 1.999865928921313 0 4.1940355028376642e-06 1.9998687276355709 0 0.0071722033069820884 1.8839567677038562 0 4.7659817598950226e-06 1.999865928921313 0 0.020105230394210607 1.3418600835734606 0 0.010852202758979667 1.2593244327429036 0 0.015273955103151578 1.2290426644061949 0 0.020105230394210607 1.3418600835734606 0 0.010852202758979667 1.2593244327429036 0 0.012876631888331715 1.3570462704171566 0 -0.0025174991568026502 1.1600327246935946 0 0.010852202758979667 1.2593244327429036 0 0.0033516352731903947 1.1794842327522934 0 -0.0025174991568026502 1.1600327246935946 0 0.010852202758979667 1.2593244327429036 0 0.015273955103151578 1.2290426644061949 0 0.010852202758979667 1.2593244327429036 0 0.0082263652291461355 1.2669983230742419 0 0.0033516352731903947 1.1794842327522934 0 0.0089270098063805262 1.1776929669964955 0 0.0082263652291461355 1.2669983230742419 0 0.0033516352731903947 1.1794842327522934 0 0.010852202758979667 1.2593244327429036 0 0.0082263652291461355 1.2669983230742419 0 0.012876631888331715 1.3570462704171566 0 0.00640346345144317 1.3516376226839302 0 0.0082263652291461355 1.2669983230742419 0 0.012876631888331715 1.3570462704171566 0 0.0096969872984307686 1.4525372445968889 0 0.012876631888331715 1.3570462704171566 0 0.017771783497163886 1.4492284772749648 0 0.0096969872984307686 1.4525372445968889 0 0.012688983651513825 1.554332097560271 0 0.017771783497163886 1.4492284772749648 0 0.012688983651513825 1.554332097560271 0 0.019912802429044543 1.5470480370975082 0 0.017771783497163886 1.4492284772749648 0 0.019912802429044543 1.5470480370975082 0 0.017771783497163886 1.4492284772749648 0 0.025332232133868343 1.4305938256416966 0 0.020105230394210607 1.3418600835734606 0 0.017771783497163886 1.4492284772749648 0 0.025332232133868343 1.4305938256416966 0 0.020105230394210607 1.3418600835734606 0 0.012876631888331715 1.3570462704171566 0 0.017771783497163886 1.4492284772749648 0 0.025332232133868343 1.4305938256416966 0 0.029207250216255174 1.400468494294884 0 0.027704633766402531 1.2944979692028995 0 0.020105230394210607 1.3418600835734606 0 0.025332232133868343 1.4305938256416966 0 0.027704633766402531 1.2944979692028995 0 0.025332232133868343 1.4305938256416966 0 0.025820415948836436 1.5331407801568877 0 0.029207250216255174 1.400468494294884 0 0.019912802429044543 1.5470480370975082 0 0.025332232133868343 1.4305938256416966 0 0.025820415948836436 1.5331407801568877 0 0.025820415948836436 1.5331407801568877 0 0.029207250216255174 1.400468494294884 0 0.029450216560281513 1.4501253211189704 0 0.025820415948836436 1.5331407801568877 0 0.029450216560281513 1.4501253211189704 0 0.024734760022738538 1.5896946595403267 0 0.029207250216255174 1.400468494294884 0 0.030250937261248546 1.3074586843087814 0 0.029450216560281513 1.4501253211189704 0 0.029207250216255174 1.400468494294884 0 0.027704633766402531 1.2944979692028995 0 0.030250937261248546 1.3074586843087814 0 0.027704633766402531 1.2944979692028995 0 0.025037536115167531 1.1602708273901572 0 0.030250937261248546 1.3074586843087814 0 0.027704633766402531 1.2944979692028995 0 0.018905741415249405 1.1722572257930379 0 0.025037536115167531 1.1602708273901572 0 0.027704633766402531 1.2944979692028995 0 0.015273955103151578 1.2290426644061949 0 0.018905741415249405 1.1722572257930379 0 0.020105230394210607 1.3418600835734606 0 0.027704633766402531 1.2944979692028995 0 0.015273955103151578 1.2290426644061949 0 -0.0025174991568026502 1.1600327246935946 0 0.015273955103151578 1.2290426644061949 0 -0.0069491631306720777 1.113048236484649 0 0.015273955103151578 1.2290426644061949 0 -0.0069491631306720777 1.113048236484649 0 0.018905741415249405 1.1722572257930379 0 -0.0069491631306720777 1.113048236484649 0 0.018905741415249405 1.1722572257930379 0 -0.00018140856798991707 0.99989726967404002 0 0.018905741415249405 1.1722572257930379 0 -0.00018140856798991707 0.99989726967404002 0 0.025037536115167531 1.1602708273901572 0 -0.00018140856798991707 0.99989726967404002 0 0.018511418842526339 1.0489016369744435 0 0.025037536115167531 1.1602708273901572 0 -0.00018140856798991707 0.99989726967404002 0 0.018511418842526339 1.0489016369744435 0 0.0062106459924380171 0.88687457313647389 0 0.0062106459924380171 0.88687457313647389 0 0.013835627557094965 1.020491306951145 0 0.0024292764632906773 0.840021619033684 0 0.018511418842526339 1.0489016369744435 0 0.0062106459924380171 0.88687457313647389 0 0.013835627557094965 1.020491306951145 0 0.018511418842526339 1.0489016369744435 0 0.013835627557094965 1.020491306951145 0 0.026063687967369582 1.1901300328188589 0 0.013835627557094965 1.020491306951145 0 0.026063687967369582 1.1901300328188589 0 0.016688173993086228 1.1624778120798687 0 0.018511418842526339 1.0489016369744435 0 0.026063687967369582 1.1901300328188589 0 0.025037536115167531 1.1602708273901572 0 0.026063687967369582 1.1901300328188589 0 0.025037536115167531 1.1602708273901572 0 0.030250937261248546 1.3074586843087814 0 0.030250937261248546 1.3074586843087814 0 0.028929081463419364 1.3464341643235607 0 0.029450216560281513 1.4501253211189704 0 0.026063687967369582 1.1901300328188589 0 0.030250937261248546 1.3074586843087814 0 0.028929081463419364 1.3464341643235607 0 0.029450216560281513 1.4501253211189704 0 0.026413870813633986 1.4863846008594261 0 0.024734760022738538 1.5896946595403267 0 0.028929081463419364 1.3464341643235607 0 0.029450216560281513 1.4501253211189704 0 0.026413870813633986 1.4863846008594261 0 0.026413870813633986 1.4863846008594261 0 0.023912756136986801 1.3250071473426497 0 0.019908798186284979 1.4575980678900144 0 0.028929081463419364 1.3464341643235607 0 0.026413870813633986 1.4863846008594261 0 0.023912756136986801 1.3250071473426497 0 0.026063687967369582 1.1901300328188589 0 0.028929081463419364 1.3464341643235607 0 0.023912756136986801 1.3250071473426497 0 0.026063687967369582 1.1901300328188589 0 0.023912756136986801 1.3250071473426497 0 0.016688173993086228 1.1624778120798687 0 0.015315518186233935 1.3022775905955613 0 0.0077227849399377751 1.144307985964055 0 0.016688173993086228 1.1624778120798687 0 0.023912756136986801 1.3250071473426497 0 0.015315518186233935 1.3022775905955613 0 0.016688173993086228 1.1624778120798687 0 0.023912756136986801 1.3250071473426497 0 0.015315518186233935 1.3022775905955613 0 0.019908798186284979 1.4575980678900144 0 0.015315518186233935 1.3022775905955613 0 0.019908798186284979 1.4575980678900144 0 0.011943484413532305 1.4419984949799745 0 0.015315518186233935 1.3022775905955613 0 0.011943484413532305 1.4419984949799745 0 0.0065117293863582899 1.2914902205465855 0 0.015315518186233935 1.3022775905955613 0 0.0077227849399377751 1.144307985964055 0 0.0065117293863582899 1.2914902205465855 0 0.0077227849399377751 1.144307985964055 0 -0.00095331437703281049 0.98312189817087769 0 -0.00029698336539150607 1.1384873992817881 0 0.0077227849399377751 1.144307985964055 0 -0.00095331437703281049 0.98312189817087769 0 0.0062791761579283935 0.99253709543133417 0 -0.00095331437703281049 0.98312189817087769 0 -0.003558744227890139 0.82067379028678222 0 0.0062791761579283935 0.99253709543133417 0 -0.00095331437703281049 0.98312189817087769 0 -0.003558744227890139 0.82067379028678222 0 -0.0091841103240852574 0.82232360617421563 0 0.013835627557094965 1.020491306951145 0 0.0062791761579283935 0.99253709543133417 0 0.0024292764632906773 0.840021619033684 0 -0.003558744227890139 0.82067379028678222 0 0.0062791761579283935 0.99253709543133417 0 0.0024292764632906773 0.840021619033684 0 0.0077227849399377751 1.144307985964055 0 0.0062791761579283935 0.99253709543133417 0 0.016688173993086228 1.1624778120798687 0 0.013835627557094965 1.020491306951145 0 0.0062791761579283935 0.99253709543133417 0 0.016688173993086228 1.1624778120798687 0 0.0087606625120330503 1.8774527228681028 0 6.8447214722948706e-06 1.9998551977328309 0 5.8020498778903469e-06 1.9998511796600822 0 0.0087606625120330503 1.8774527228681028 0 6.8447214722948706e-06 1.9998551977328309 0 0.008284694304711647 1.8969513275618506 0 6.5862268909599692e-06 1.999867442579319 0 0.008284694304711647 1.8969513275618506 0 0.010309556954637389 1.8647594445364222 0 6.8447214722948706e-06 1.9998551977328309 0 6.5862268909599692e-06 1.999867442579319 0 0.008284694304711647 1.8969513275618506 0 0.008284694304711647 1.8969513275618506 0 0.010309556954637389 1.8647594445364222 0 0.016202312002102141 1.7638499050058769 0 0.010309556954637389 1.8647594445364222 0 0.016202312002102141 1.7638499050058769 0 0.018285993140676565 1.7278529284707831 0 0.0087606625120330503 1.8774527228681028 0 0.016202312002102141 1.7638499050058769 0 0.013689139238037103 1.7370274426007437 0 0.0087606625120330503 1.8774527228681028 0 0.008284694304711647 1.8969513275618506 0 0.016202312002102141 1.7638499050058769 0 0.016202312002102141 1.7638499050058769 0 0.020238352695673607 1.6088945937772801 0 0.013689139238037103 1.7370274426007437 0 0.016202312002102141 1.7638499050058769 0 0.021646709851413218 1.6434568531918561 0 0.020238352695673607 1.6088945937772801 0 0.016202312002102141 1.7638499050058769 0 0.021646709851413218 1.6434568531918561 0 0.018285993140676565 1.7278529284707831 0 0.021646709851413218 1.6434568531918561 0 0.018285993140676565 1.7278529284707831 0 0.024734760022738538 1.5896946595403267 0 0.026413870813633986 1.4863846008594261 0 0.021646709851413218 1.6434568531918561 0 0.024734760022738538 1.5896946595403267 0 0.026413870813633986 1.4863846008594261 0 0.021646709851413218 1.6434568531918561 0 0.020238352695673607 1.6088945937772801 0 0.026413870813633986 1.4863846008594261 0 0.019908798186284979 1.4575980678900144 0 0.020238352695673607 1.6088945937772801 0 0.019908798186284979 1.4575980678900144 0 0.011943484413532305 1.4419984949799745 0 0.014636687207102301 1.5891492043356383 0 0.019908798186284979 1.4575980678900144 0 0.020238352695673607 1.6088945937772801 0 0.014636687207102301 1.5891492043356383 0 0.011943484413532305 1.4419984949799745 0 0.014636687207102301 1.5891492043356383 0 0.0078790658762180991 1.5832705734804433 0 0.014636687207102301 1.5891492043356383 0 0.0090288655963296962 1.7242686137935876 0 0.0078790658762180991 1.5832705734804433 0 0.0090288655963296962 1.7242686137935876 0 0.003905472090899159 1.722263745949949 0 0.0078790658762180991 1.5832705734804433 0 0.020238352695673607 1.6088945937772801 0 0.014636687207102301 1.5891492043356383 0 0.013689139238037103 1.7370274426007437 0 0.014636687207102301 1.5891492043356383 0 0.0090288655963296962 1.7242686137935876 0 0.013689139238037103 1.7370274426007437 0 0.0090288655963296962 1.7242686137935876 0 0.013689139238037103 1.7370274426007437 0 0.0067554943396267615 1.8664096395579604 0 0.0087606625120330503 1.8774527228681028 0 0.013689139238037103 1.7370274426007437 0 0.0067554943396267615 1.8664096395579604 0 0.0090288655963296962 1.7242686137935876 0 0.0036609505969621074 1.8629915421280132 0 0.003905472090899159 1.722263745949949 0 0.0090288655963296962 1.7242686137935876 0 0.0067554943396267615 1.8664096395579604 0 0.0036609505969621074 1.8629915421280132 0 0.0067554943396267615 1.8664096395579604 0 0.0036609505969621074 1.8629915421280132 0 3.4001019247448927e-06 1.9998479011655048 0 0.0036609505969621074 1.8629915421280132 0 3.4001019247448927e-06 1.9998479011655048 0 1.1523998295332033e-06 1.999845292863921 0 0.0067554943396267615 1.8664096395579604 0 3.4001019247448927e-06 1.9998479011655048 0 5.8020498778903469e-06 1.9998511796600822 0 0.0087606625120330503 1.8774527228681028 0 0.0067554943396267615 1.8664096395579604 0 5.8020498778903469e-06 1.9998511796600822 0 -9.3450280383415425e-07 1.9998533613024048 0 0.00083409449927950507 1.8595447514711636 0 -0.0010353994469228338 1.8672528717812811 0 -9.3450280383415425e-07 1.9998533613024048 0 1.1523998295332033e-06 1.999845292863921 0 0.00083409449927950507 1.8595447514711636 0 0.0036609505969621074 1.8629915421280132 0 1.1523998295332033e-06 1.999845292863921 0 0.00083409449927950507 1.8595447514711636 0 0.0036609505969621074 1.8629915421280132 0 0.00083409449927950507 1.8595447514711636 0 0.003905472090899159 1.722263745949949 0 0.00083409449927950507 1.8595447514711636 0 -5.3828676893051146e-05 1.725424598630743 0 -0.0010353994469228338 1.8672528717812811 0 0.00083409449927950507 1.8595447514711636 0 -5.3828676893051146e-05 1.725424598630743 0 0.003905472090899159 1.722263745949949 0 -5.3828676893051146e-05 1.725424598630743 0 0.003905472090899159 1.722263745949949 0 0.0018868475465323173 1.5842415642470518 0 -5.3828676893051146e-05 1.725424598630743 0 0.0018868475465323173 1.5842415642470518 0 -0.0018139980982804409 1.5940149876636767 0 0.003905472090899159 1.722263745949949 0 0.0078790658762180991 1.5832705734804433 0 0.0018868475465323173 1.5842415642470518 0 0.011943484413532305 1.4419984949799745 0 0.0078790658762180991 1.5832705734804433 0 0.004299671896358331 1.4389412056148383 0 0.0078790658762180991 1.5832705734804433 0 0.0018868475465323173 1.5842415642470518 0 0.004299671896358331 1.4389412056148383 0 0.0018868475465323173 1.5842415642470518 0 -0.0018139980982804409 1.5940149876636767 0 -0.0014487111497404068 1.449989866839964 0 0.0018868475465323173 1.5842415642470518 0 0.004299671896358331 1.4389412056148383 0 -0.0014487111497404068 1.449989866839964 0 -0.0018139980982804409 1.5940149876636767 0 -0.0014487111497404068 1.449989866839964 0 -0.0033582989875196321 1.4736134340795985 0 -0.0018139980982804409 1.5940149876636767 0 -0.0017383334085142024 1.6212542152646554 0 -0.0033582989875196321 1.4736134340795985 0 -4.4943621621510788e-06 1.5714212050657561 0 -0.0017383334085142024 1.6212542152646554 0 -0.0033582989875196321 1.4736134340795985 0 -4.4943621621510788e-06 1.5714212050657561 0 -0.0017383334085142024 1.6212542152646554 0 -3.4627668149815039e-06 1.7142725922744697 0 -0.0017383334085142024 1.6212542152646554 0 -3.4627668149815039e-06 1.7142725922744697 0 -0.0017673695167496454 1.7533395499833979 0 -0.0018139980982804409 1.5940149876636767 0 -0.0017383334085142024 1.6212542152646554 0 -0.0017673695167496454 1.7533395499833979 0 -5.3828676893051146e-05 1.725424598630743 0 -0.0018139980982804409 1.5940149876636767 0 -0.0017673695167496454 1.7533395499833979 0 -5.3828676893051146e-05 1.725424598630743 0 -0.0017673695167496454 1.7533395499833979 0 -0.0010353994469228338 1.8672528717812811 0 -0.0017673695167496454 1.7533395499833979 0 -0.0010353994469228338 1.8672528717812811 0 -0.00097895552540923966 1.8920841993138877 0 -3.4627668149815039e-06 1.7142725922744697 0 -0.0017673695167496454 1.7533395499833979 0 -3.010443033423423e-06 1.8571595927721778 0 -0.0017673695167496454 1.7533395499833979 0 -3.010443033423423e-06 1.8571595927721778 0 -0.00097895552540923966 1.8920841993138877 0 -4.7524421064800295e-07 1.9999290297235135 0 -0.00097895552540923966 1.8920841993138877 0 -1.7378400366769149e-06 1.999831855756276 0 -3.010443033423423e-06 1.8571595927721778 0 -4.7524421064800295e-07 1.9999290297235135 0 -0.00097895552540923966 1.8920841993138877 0 -9.3450280383415425e-07 1.9998533613024048 0 -0.0010353994469228338 1.8672528717812811 0 -1.7378400366769149e-06 1.999831855756276 0 -0.0010353994469228338 1.8672528717812811 0 -0.00097895552540923966 1.8920841993138877 0 -1.7378400366769149e-06 1.999831855756276 0 -0.0061232201965915342 1.1519915739394768 0 -0.0071573266472266684 0.99002738280720448 0 -0.010839194250063407 1.0165604054397375 0 -0.0061232201965915342 1.1519915739394768 0 -0.0071573266472266684 0.99002738280720448 0 -0.00029698336539150607 1.1384873992817881 0 -0.014094794293950115 0.84480079600529456 0 -0.0071573266472266684 0.99002738280720448 0 -0.010839194250063407 1.0165604054397375 0 -0.014094794293950115 0.84480079600529456 0 -0.0071573266472266684 0.99002738280720448 0 -0.0091841103240852574 0.82232360617421563 0 -0.00095331437703281049 0.98312189817087769 0 -0.0071573266472266684 0.99002738280720448 0 -0.0091841103240852574 0.82232360617421563 0 -0.00095331437703281049 0.98312189817087769 0 -0.0071573266472266684 0.99002738280720448 0 -0.00029698336539150607 1.1384873992817881 0 0.0077227849399377751 1.144307985964055 0 -0.00029698336539150607 1.1384873992817881 0 0.0065117293863582899 1.2914902205465855 0 -0.00029698336539150607 1.1384873992817881 0 0.0065117293863582899 1.2914902205465855 0 -0.0007491810711890267 1.2937752686377009 0 0.011943484413532305 1.4419984949799745 0 0.0065117293863582899 1.2914902205465855 0 0.004299671896358331 1.4389412056148383 0 0.0065117293863582899 1.2914902205465855 0 0.004299671896358331 1.4389412056148383 0 -0.0007491810711890267 1.2937752686377009 0 -0.0014487111497404068 1.449989866839964 0 -0.0007491810711890267 1.2937752686377009 0 -0.0049718260878086557 1.3110770978450443 0 0.004299671896358331 1.4389412056148383 0 -0.0014487111497404068 1.449989866839964 0 -0.0007491810711890267 1.2937752686377009 0 -0.0061232201965915342 1.1519915739394768 0 -0.00029698336539150607 1.1384873992817881 0 -0.0007491810711890267 1.2937752686377009 0 -0.0061232201965915342 1.1519915739394768 0 -0.0007491810711890267 1.2937752686377009 0 -0.0049718260878086557 1.3110770978450443 0 -0.0061232201965915342 1.1519915739394768 0 -0.0049718260878086557 1.3110770978450443 0 -0.0079318554721914646 1.1804589955166482 0 -0.0049718260878086557 1.3110770978450443 0 -0.0039633391278267914 1.3329180714061928 0 -0.0079318554721914646 1.1804589955166482 0 -0.0049718260878086557 1.3110770978450443 0 -0.0033582989875196321 1.4736134340795985 0 -0.0039633391278267914 1.3329180714061928 0 -0.0014487111497404068 1.449989866839964 0 -0.0049718260878086557 1.3110770978450443 0 -0.0033582989875196321 1.4736134340795985 0 -0.0033582989875196321 1.4736134340795985 0 -7.6269402844553003e-06 1.4285523516571019 0 -0.0039633391278267914 1.3329180714061928 0 -4.4943621621510788e-06 1.5714212050657561 0 -0.0033582989875196321 1.4736134340795985 0 -7.6269402844553003e-06 1.4285523516571019 0 -0.0039633391278267914 1.3329180714061928 0 -1.0532318268202961e-05 1.2856893763486066 0 -0.0079318554721914646 1.1804589955166482 0 -7.6269402844553003e-06 1.4285523516571019 0 -0.0039633391278267914 1.3329180714061928 0 -1.0532318268202961e-05 1.2856893763486066 0 -1.3145976976567177e-05 1.142834922942529 0 -0.0079318554721914646 1.1804589955166482 0 -0.0099680174720625115 1.0457202197687787 0 -1.0532318268202961e-05 1.2856893763486066 0 -1.3145976976567177e-05 1.142834922942529 0 -0.0079318554721914646 1.1804589955166482 0 -0.0079318554721914646 1.1804589955166482 0 -0.010839194250063407 1.0165604054397375 0 -0.0099680174720625115 1.0457202197687787 0 -0.0061232201965915342 1.1519915739394768 0 -0.0079318554721914646 1.1804589955166482 0 -0.010839194250063407 1.0165604054397375 0 -0.014094794293950115 0.84480079600529456 0 -0.010839194250063407 1.0165604054397375 0 -0.015176730077469358 0.89376454390144078 0 -0.010839194250063407 1.0165604054397375 0 -0.015176730077469358 0.89376454390144078 0 -0.0099680174720625115 1.0457202197687787 0 -1.3145976976567177e-05 1.142834922942529 0 -4.0666934105422217e-05 0.99988046812027365 0 -0.0099680174720625115 1.0457202197687787 0 -0.015176730077469358 0.89376454390144078 0 -4.0666934105422217e-05 0.99988046812027365 0 -0.0099680174720625115 1.0457202197687787 0 -4.0666934105422217e-05 0.99988046812027365 0 0.00050099872175957399 0.83861440651393204 0 1.8213225230464657e-05 0.85712655699512152 0 -0.015176730077469358 0.89376454390144078 0 -4.0666934105422217e-05 0.99988046812027365 0 0.00050099872175957399 0.83861440651393204 0 1.8213225230464657e-05 0.85712655699512152 0 0.0031815178809005882 0.73727503550957352 0 4.6950995984660314e-06 0.71425791393707116 0 0.00050099872175957399 0.83861440651393204 0 1.8213225230464657e-05 0.85712655699512152 0 0.0031815178809005882 0.73727503550957352 0 0.00050099872175957399 0.83861440651393204 0 0.0031815178809005882 0.73727503550957352 0 -0.0023815973098708027 0.77030994777096229 0 0.0031815178809005882 0.73727503550957352 0 -0.0023815973098708027 0.77030994777096229 0 0.0010735860355674963 0.64836481815171743 0 -0.014094794293950115 0.84480079600529456 0 -0.015176730077469358 0.89376454390144078 0 -0.0023815973098708027 0.77030994777096229 0 -0.015176730077469358 0.89376454390144078 0 0.00050099872175957399 0.83861440651393204 0 -0.0023815973098708027 0.77030994777096229 0 -0.014094794293950115 0.84480079600529456 0 -0.0023815973098708027 0.77030994777096229 0 -0.0076448697667355816 0.76993293182366973 0 -0.014094794293950115 0.84480079600529456 0 -0.0091841103240852574 0.82232360617421563 0 -0.0076448697667355816 0.76993293182366973 0 -0.0023815973098708027 0.77030994777096229 0 -0.0044769698854832144 0.68427150460555997 0 0.0010735860355674963 0.64836481815171743 0 -0.0023815973098708027 0.77030994777096229 0 -0.0076448697667355816 0.76993293182366973 0 -0.0044769698854832144 0.68427150460555997 0 -0.0044769698854832144 0.68427150460555997 0 -0.0085090116036932641 0.73053430946104969 0 -0.009566979887432752 0.61882021078749394 0 -0.0076448697667355816 0.76993293182366973 0 -0.0044769698854832144 0.68427150460555997 0 -0.0085090116036932641 0.73053430946104969 0 -0.0091841103240852574 0.82232360617421563 0 -0.0076448697667355816 0.76993293182366973 0 -0.0085090116036932641 0.73053430946104969 0 -0.003558744227890139 0.82067379028678222 0 -0.0091841103240852574 0.82232360617421563 0 -0.0085090116036932641 0.73053430946104969 0 -0.009283589972692843 0.50198795188690193 0 -0.002947780228357151 0.4483067494314818 0 -0.0078266400122594046 0.38104885435453278 0 -0.009283589972692843 0.50198795188690193 0 -0.003241221437966956 0.57324190473679626 0 -0.002947780228357151 0.4483067494314818 0 -0.0044769698854832144 0.68427150460555997 0 -0.009566979887432752 0.61882021078749394 0 -0.003241221437966956 0.57324190473679626 0 -0.009283589972692843 0.50198795188690193 0 -0.009566979887432752 0.61882021078749394 0 -0.003241221437966956 0.57324190473679626 0 -0.003241221437966956 0.57324190473679626 0 0.0012408846893422812 0.52136942897994254 0 0.0010735860355674963 0.64836481815171743 0 -0.0044769698854832144 0.68427150460555997 0 -0.003241221437966956 0.57324190473679626 0 0.0010735860355674963 0.64836481815171743 0 -0.003241221437966956 0.57324190473679626 0 -0.002947780228357151 0.4483067494314818 0 0.0012408846893422812 0.52136942897994254 0 -0.002947780228357151 0.4483067494314818 0 0.0012408846893422812 0.52136942897994254 0 0.0010614785421824413 0.39543220156912373 0 0.0012408846893422812 0.52136942897994254 0 0.0030003133363360641 0.61260103916744957 0 0.0023886289833115275 0.47743437234667957 0 0.0012408846893422812 0.52136942897994254 0 0.0023886289833115275 0.47743437234667957 0 0.0010614785421824413 0.39543220156912373 0 0.0031815178809005882 0.73727503550957352 0 0.0010735860355674963 0.64836481815171743 0 0.0030003133363360641 0.61260103916744957 0 0.0012408846893422812 0.52136942897994254 0 0.0010735860355674963 0.64836481815171743 0 0.0030003133363360641 0.61260103916744957 0 0.0031815178809005882 0.73727503550957352 0 0.0030003133363360641 0.61260103916744957 0 4.6950995984660314e-06 0.71425791393707116 0 0.0030003133363360641 0.61260103916744957 0 4.6950995984660314e-06 0.71425791393707116 0 6.5620323127195591e-06 0.57141417923209969 0 0.0030003133363360641 0.61260103916744957 0 0.0023886289833115275 0.47743437234667957 0 6.5620323127195591e-06 0.57141417923209969 0 0.0023886289833115275 0.47743437234667957 0 6.5620323127195591e-06 0.57141417923209969 0 4.2296733805857647e-06 0.4285591779807118 0 0.0023886289833115275 0.47743437234667957 0 4.2296733805857647e-06 0.4285591779807118 0 0.0020211587840980269 0.34363901751406178 0 3.8705770230949101e-06 0.28571319206985241 0 0.0020211587840980269 0.34363901751406178 0 0.0018628890634817825 0.21177856472721093 0 4.2296733805857647e-06 0.4285591779807118 0 3.8705770230949101e-06 0.28571319206985241 0 0.0020211587840980269 0.34363901751406178 0 0.0020211587840980269 0.34363901751406178 0 0.0011909382362666843 0.2667150484405218 0 0.0018628890634817825 0.21177856472721093 0 0.0020211587840980269 0.34363901751406178 0 0.0011909382362666843 0.2667150484405218 0 0.0010614785421824413 0.39543220156912373 0 0.0023886289833115275 0.47743437234667957 0 0.0020211587840980269 0.34363901751406178 0 0.0010614785421824413 0.39543220156912373 0 3.3926535134912016e-07 7.1985075979814504e-05 0 0.0011313532751523058 0.10131874436673681 0 3.1290050481587921e-06 0.14283494206924788 0 3.3926535134912016e-07 7.1985075979814504e-05 0 0.0011313532751523058 0.10131874436673681 0 2.2419774442739438e-06 0.00015550387733759635 0 3.8705770230949101e-06 0.28571319206985241 0 3.1290050481587921e-06 0.14283494206924788 0 0.0018628890634817825 0.21177856472721093 0 0.0011313532751523058 0.10131874436673681 0 3.1290050481587921e-06 0.14283494206924788 0 0.0018628890634817825 0.21177856472721093 0 0.0011909382362666843 0.2667150484405218 0 0.0018628890634817825 0.21177856472721093 0 0.0014090067132982924 0.12387830337811441 0 0.0011313532751523058 0.10131874436673681 0 0.0018628890634817825 0.21177856472721093 0 0.0014090067132982924 0.12387830337811441 0 0.0011313532751523058 0.10131874436673681 0 0.0014090067132982924 0.12387830337811441 0 2.2419774442739438e-06 0.00015550387733759635 0 0.0014090067132982924 0.12387830337811441 0 2.2419774442739438e-06 0.00015550387733759635 0 6.5631245302374798e-07 0.00012758429874028989 0 6.5631245302374798e-07 0.00012758429874028989 0 -4.1994372860407532e-05 0.087847830586805231 0 2.2676960870314298e-07 0.00013176412468680939 0 0.0014090067132982924 0.12387830337811441 0 6.5631245302374798e-07 0.00012758429874028989 0 -4.1994372860407532e-05 0.087847830586805231 0 0.0014090067132982924 0.12387830337811441 0 -4.1994372860407532e-05 0.087847830586805231 0 -0.00082775299010410229 0.19750185902862741 0 0.0011909382362666843 0.2667150484405218 0 0.0014090067132982924 0.12387830337811441 0 -0.00082775299010410229 0.19750185902862741 0 -0.00082775299010410229 0.19750185902862741 0 -0.0024384356504903795 0.11756816041602844 0 -0.0054336259173856753 0.25495543554988653 0 -4.1994372860407532e-05 0.087847830586805231 0 -0.00082775299010410229 0.19750185902862741 0 -0.0024384356504903795 0.11756816041602844 0 -4.1994372860407532e-05 0.087847830586805231 0 -0.0024384356504903795 0.11756816041602844 0 2.2676960870314298e-07 0.00013176412468680939 0 -0.0024384356504903795 0.11756816041602844 0 2.2676960870314298e-07 0.00013176412468680939 0 -2.7953558541987564e-06 0.00012975595031732221 0 -0.002947780228357151 0.4483067494314818 0 0.0010614785421824413 0.39543220156912373 0 -0.0020972552833010551 0.32319312773332842 0 0.0011909382362666843 0.2667150484405218 0 -0.00082775299010410229 0.19750185902862741 0 -0.0020972552833010551 0.32319312773332842 0 0.0011909382362666843 0.2667150484405218 0 0.0010614785421824413 0.39543220156912373 0 -0.0020972552833010551 0.32319312773332842 0 -0.00082775299010410229 0.19750185902862741 0 -0.0020972552833010551 0.32319312773332842 0 -0.0054336259173856753 0.25495543554988653 0 -0.0020972552833010551 0.32319312773332842 0 -0.0054336259173856753 0.25495543554988653 0 -0.0078266400122594046 0.38104885435453278 0 -0.002947780228357151 0.4483067494314818 0 -0.0020972552833010551 0.32319312773332842 0 -0.0078266400122594046 0.38104885435453278 0 -0.0078266400122594046 0.38104885435453278 0 -0.011806038929123876 0.31936343160615738 0 -0.015155297601332456 0.44280099729901179 0 -0.0054336259173856753 0.25495543554988653 0 -0.0078266400122594046 0.38104885435453278 0 -0.011806038929123876 0.31936343160615738 0 -0.0054336259173856753 0.25495543554988653 0 -0.011806038929123876 0.31936343160615738 0 -0.0076629511555698733 0.19319980780746898 0 -0.011806038929123876 0.31936343160615738 0 -0.0076629511555698733 0.19319980780746898 0 -0.013699922841188102 0.25701416045831754 0 -0.011806038929123876 0.31936343160615738 0 -0.018917386185373454 0.38597641091167351 0 -0.013699922841188102 0.25701416045831754 0 -0.018917386185373454 0.38597641091167351 0 -0.015155297601332456 0.44280099729901179 0 -0.022678967802469713 0.51277740886030743 0 -0.011806038929123876 0.31936343160615738 0 -0.018917386185373454 0.38597641091167351 0 -0.015155297601332456 0.44280099729901179 0 -0.0024384356504903795 0.11756816041602844 0 -2.7953558541987564e-06 0.00012975595031732221 0 -0.0038373777722831045 0.088025276291793839 0 -0.0024384356504903795 0.11756816041602844 0 -0.0076629511555698733 0.19319980780746898 0 -0.0038373777722831045 0.088025276291793839 0 -0.0024384356504903795 0.11756816041602844 0 -0.0054336259173856753 0.25495543554988653 0 -0.0076629511555698733 0.19319980780746898 0 -0.0076629511555698733 0.19319980780746898 0 -0.0038373777722831045 0.088025276291793839 0 -0.0071582595385330213 0.12000732309301497 0 -0.0076629511555698733 0.19319980780746898 0 -0.0071582595385330213 0.12000732309301497 0 -0.013699922841188102 0.25701416045831754 0 -2.7953558541987564e-06 0.00012975595031732221 0 -3.4077810624702963e-06 0.000130855632571561 0 -0.0038373777722831045 0.088025276291793839 0 -3.4077810624702963e-06 0.000130855632571561 0 -0.0038373777722831045 0.088025276291793839 0 -0.0071582595385330213 0.12000732309301497 0 -5.1070811769915716e-06 0.00013437867558671669 0 -0.0071582595385330213 0.12000732309301497 0 -0.0067713371972114083 0.097359247173137847 0 -3.4077810624702963e-06 0.000130855632571561 0 -5.1070811769915716e-06 0.00013437867558671669 0 -0.0071582595385330213 0.12000732309301497 0 -0.0071582595385330213 0.12000732309301497 0 -0.013327319780465953 0.20206123721562344 0 -0.013699922841188102 0.25701416045831754 0 -0.0071582595385330213 0.12000732309301497 0 -0.013327319780465953 0.20206123721562344 0 -0.0067713371972114083 0.097359247173137847 0 -0.013327319780465953 0.20206123721562344 0 -0.010099445191076129 0.13526788068623721 0 -0.018266374042646399 0.27223243862639085 0 -0.013327319780465953 0.20206123721562344 0 -0.010099445191076129 0.13526788068623721 0 -0.0067713371972114083 0.097359247173137847 0 -5.1070811769915716e-06 0.00013437867558671669 0 -6.2097394159448063e-06 0.00013257626239108087 0 -0.0067713371972114083 0.097359247173137847 0 -0.010099445191076129 0.13526788068623721 0 -6.2097394159448063e-06 0.00013257626239108087 0 -0.0067713371972114083 0.097359247173137847 0 -0.018917386185373454 0.38597641091167351 0 -0.025428083457100611 0.46299501753196109 0 -0.019878760210329388 0.32913365446188475 0 -0.018917386185373454 0.38597641091167351 0 -0.025428083457100611 0.46299501753196109 0 -0.022678967802469713 0.51277740886030743 0 -0.013327319780465953 0.20206123721562344 0 -0.013699922841188102 0.25701416045831754 0 -0.019878760210329388 0.32913365446188475 0 -0.018917386185373454 0.38597641091167351 0 -0.013699922841188102 0.25701416045831754 0 -0.019878760210329388 0.32913365446188475 0 -0.013327319780465953 0.20206123721562344 0 -0.019878760210329388 0.32913365446188475 0 -0.018266374042646399 0.27223243862639085 0 -0.019878760210329388 0.32913365446188475 0 -0.018266374042646399 0.27223243862639085 0 -0.024743195665556876 0.41038025712597631 0 -0.025428083457100611 0.46299501753196109 0 -0.019878760210329388 0.32913365446188475 0 -0.024743195665556876 0.41038025712597631 0 -0.025428083457100611 0.46299501753196109 0 -0.024743195665556876 0.41038025712597631 0 -0.029426727859913349 0.54994931870521135 0 -0.025428083457100611 0.46299501753196109 0 -0.029426727859913349 0.54994931870521135 0 -0.028789514447134436 0.59478129409889746 0 -0.025428083457100611 0.46299501753196109 0 -0.028789514447134436 0.59478129409889746 0 -0.022678967802469713 0.51277740886030743 0 -0.028789514447134436 0.59478129409889746 0 -0.0277931661506425 0.72049773638313963 0 -0.023269415576617099 0.63289620383795619 0 -0.028789514447134436 0.59478129409889746 0 -0.022678967802469713 0.51277740886030743 0 -0.023269415576617099 0.63289620383795619 0 -0.029426727859913349 0.54994931870521135 0 -0.028789514447134436 0.59478129409889746 0 -0.031026700307832545 0.69222773365291002 0 -0.028789514447134436 0.59478129409889746 0 -0.031026700307832545 0.69222773365291002 0 -0.0277931661506425 0.72049773638313963 0 -0.031026700307832545 0.69222773365291002 0 -0.025284532285228048 0.83967949336709236 0 -0.0277931661506425 0.72049773638313963 0 -0.025284532285228048 0.83967949336709236 0 -0.0277931661506425 0.72049773638313963 0 -0.019289855773040255 0.82721224162339269 0 -0.00018140856798991707 0.99989726967404002 0 -0.025284532285228048 0.83967949336709236 0 -0.019289855773040255 0.82721224162339269 0 -0.00018140856798991707 0.99989726967404002 0 0.0062106459924380171 0.88687457313647389 0 -0.019289855773040255 0.82721224162339269 0 0.0062106459924380171 0.88687457313647389 0 -0.019289855773040255 0.82721224162339269 0 -0.016597402763135528 0.75799464473242639 0 0.0062106459924380171 0.88687457313647389 0 0.0024292764632906773 0.840021619033684 0 -0.016597402763135528 0.75799464473242639 0 -0.0277931661506425 0.72049773638313963 0 -0.019289855773040255 0.82721224162339269 0 -0.016597402763135528 0.75799464473242639 0 -0.0277931661506425 0.72049773638313963 0 -0.016597402763135528 0.75799464473242639 0 -0.023269415576617099 0.63289620383795619 0 -0.016597402763135528 0.75799464473242639 0 -0.0089298732578862935 0.7599484297119824 0 -0.014556271952274012 0.67098789616703514 0 -0.016597402763135528 0.75799464473242639 0 -0.014556271952274012 0.67098789616703514 0 -0.023269415576617099 0.63289620383795619 0 0.0024292764632906773 0.840021619033684 0 -0.016597402763135528 0.75799464473242639 0 -0.0089298732578862935 0.7599484297119824 0 -0.003558744227890139 0.82067379028678222 0 0.0024292764632906773 0.840021619033684 0 -0.0089298732578862935 0.7599484297119824 0 -0.003558744227890139 0.82067379028678222 0 -0.0085090116036932641 0.73053430946104969 0 -0.0089298732578862935 0.7599484297119824 0 -0.0085090116036932641 0.73053430946104969 0 -0.0089298732578862935 0.7599484297119824 0 -0.014556271952274012 0.67098789616703514 0 -0.0085090116036932641 0.73053430946104969 0 -0.009566979887432752 0.61882021078749394 0 -0.014556271952274012 0.67098789616703514 0 -0.009283589972692843 0.50198795188690193 0 -0.009566979887432752 0.61882021078749394 0 -0.016692735253691755 0.56061931350248451 0 -0.009566979887432752 0.61882021078749394 0 -0.014556271952274012 0.67098789616703514 0 -0.016692735253691755 0.56061931350248451 0 -0.009283589972692843 0.50198795188690193 0 -0.0078266400122594046 0.38104885435453278 0 -0.015155297601332456 0.44280099729901179 0 -0.009283589972692843 0.50198795188690193 0 -0.016692735253691755 0.56061931350248451 0 -0.015155297601332456 0.44280099729901179 0 -0.016692735253691755 0.56061931350248451 0 -0.015155297601332456 0.44280099729901179 0 -0.022678967802469713 0.51277740886030743 0 -0.016692735253691755 0.56061931350248451 0 -0.022678967802469713 0.51277740886030743 0 -0.023269415576617099 0.63289620383795619 0 -0.014556271952274012 0.67098789616703514 0 -0.016692735253691755 0.56061931350248451 0 -0.023269415576617099 0.63289620383795619 0 
</DataArray>
</PointData>
<CellData Scalars="region_id,displacement_divergence," Vectors="" Tensors="stress,">
<DataArray type="Float64" Name="region_id" format="ascii">
15 15 15 15 15 15 15 15 15 15 15 15 15 15 15 15 15 15 15 15 15 15 15 15 15 15 15 15 15 15 15 15 15 15 15 15 15 15 15 15 15 15 15 15 15 15 15 15 15 15 15 15 15 15 15 15 15 15 15 15 15 15 15 15 15 15 15 15 15 15 15 15 15 15 15 15 15 15 15 15 15 15 15 15 15 15 15 15 15 15 15 15 15 15 15 15 15 15 15 15 15 15 15 15 15 15 15 15 15 15 15 15 15 15 15 15 15 15 14 14 14 14 14 14 14 14 14 14 14 14 14 14 14 14 14 14 14 14 14 14 14 14 14 14 14 14 14 14 14 14 14 14 14 14 14 14 14 14 14 14 14 14 14 14 14 14 14 14 14 14 14 14 14 14 14 14 14 14 14 14 14 14 14 14 14 14 14 14 14 14 14 14 14 14 14 14 14 14 14 14 14 14 14 14 14 14 14 14 14 14 14 14 14 14 14 14 14 14 14 14 14 14 14 14 14 14 14 14 14 14 14 14 14 14 14 14 15 15 15 15 15 15 15 15 15 15 15 15 15 15 15 15 15 15 15 15 15 15 15 15 15 15 15 15 15 15 15 15 15 15 15 15 15 15 15 15 15 15 15 15 15 15 15 15 15 15 15 15 15 15 15 15 15 15 15 15 15 15 15 15 15 15 15 15 15 15 15 15 15 15 15 15 15 15 15 15 15 15 15 15 15 15 15 15 15 15 15 15 15 15 15 15 15 15 15 15 15 15 15 15 15 15 15 15 15 15 15 15 15 15 15 15 15 15 14 14 14 14 14 14 14 14 14 14 14 14 14 14 14 14 14 14 14 14 14 14 14 14 14 14 14 14 14 14 14 14 14 14 14 14 14 14 14 14 14 14 14 14 14 14 14 14 14 14 14 14 14 14 14 14 14 14 14 14 14 14 14 14 14 14 14 14 14 14 14 14 14 14 14 14 14 14 14 14 14 14 14 14 14 14 14 14 14 14 14 14 14 14 14 14 14 14 14 14 14 14 14 14 14 14 14 14 14 14 14 14 14 14 14 14 14 14 
</DataArray>
<DataArray type="Float64" Name="stress" NumberOfComponents="9" format="ascii">
0.44254283103506376 0.77889038629531981 0 0.77889038629531981 49.969643551701104 0 0 0 0 0.00058363845623828927 0.23835787207065912 0 0.23835787207065912 51.492667772724836 0 0 0 0 0.64705547523138229 1.6308117292558357 0 1.6308117292558357 50.009491235660072 0 0 0 0 0.51694657967280166 1.1956847436756881 0 1.1956847436756881 51.691693132667815 0 0 0 0 -0.084692898893432622 0.82504341220536048 0 0.82504341220536048 51.805820572935673 0 0 0 0 -0.33785587948511542 1.3263244020427223 0 1.3263244020427223 53.49156889680971 0 0 0 0 -0.00071445148388478376 0.16075680124777195 0 0.16075680124777195 52.873110411517615 0 0 0 0 -0.10931864801515793 0.86546294267275092 0 0.86546294267275092 51.966464660532097 0 0 0 0 0.97580203191012105 3.8828886213437386 0 3.8828886213437386 52.903059851017105 0 0 0 0 0.71441173515309098 2.296455589962207 0 2.296455589962207 52.21893628573784 0 0 0 0 0.78667930410248421 2.8867079681769638 0 2.8867079681769638 49.999434102114165 0 0 0 0 -0.39820888267842763 2.4408755818596717 0 2.4408755818596717 54.536159020930114 0 0 0 0 -0.43368242795336504 1.7488745625932367 0 1.7488745625932367 52.240417691553574 0 0 0 0 -0.47170361216162104 2.9681961940099271 0 2.9681961940099271 52.909932414156941 0 0 0 0 -1.4457444702957545 1.9657154859891079 0 1.9657154859891079 56.577094387973915 0 0 0 0 -1.4396599923521534 1.3856530092546535 0 1.3856530092546535 54.544868253310675 0 0 0 0 -1.1741276741534203 0.98012538360536894 0 0.98012538360536894 55.150142777578793 0 0 0 0 -1.9210277349377185 0.20612309290196862 0 0.20612309290196862 56.210665099517669 0 0 0 0 -1.8051966500719494 0.0020935293396604493 0 0.0020935293396604493 55.17476851038225 0 0 0 0 -2.2908274130586506 0.42668847469816029 0 0.42668847469816029 56.55492319912392 0 0 0 0 -0.60467142155117282 0.40266286645995208 0 0.40266286645995208 53.167391270696072 0 0 0 0 -0.00017508941472949761 -0.18657559871826127 0 -0.18657559871826127 53.71436511408281 0 0 0 0 -0.74488717518671876 0.29971155738161137 0 0.29971155738161137 54.150487322907161 0 0 0 0 -1.0111837019450944 0.67997204595376104 0 0.67997204595376104 53.617236830050139 0 0 0 0 -0.99660609514606358 -0.17269570597411388 0 -0.17269570597411388 54.235076001231761 0 0 0 0 -1.4098509964253569 -0.27895693504686037 0 -0.27895693504686037 54.826916748830719 0 0 0 0 -0.0012806826563682725 -0.72434607786875305 0 -0.72434607786875305 53.888341963942828 0 0 0 0 -0.84728554004059553 -0.42846754018487104 0 -0.42846754018487104 53.813757092959747 0 0 0 0 -0.94422108969457175 -1.2724703082377609 0 -1.2724703082377609 53.569876110961332 0 0 0 0 -0.73103340581752185 -2.222329881264983 0 -2.222329881264983 52.19094996831528 0 0 0 0 -0.00024444571047789118 -1.3176606075914545 0 -1.3176606075914545 53.183947007615224 0 0 0 0 -1.1747337082031686 -2.2269511874898384 0 -2.2269511874898384 52.732612666726375 0 0 0 0 -1.036003959459503 -1.8311902271296177 0 -1.8311902271296177 53.66943766536825 0 0 0 0 -0.96378541866646472 -1.2902604008868259 0 -1.2902604008868259 53.737550586854681 0 0 0 0 -1.6493780289160678 -1.1036428918713526 0 -1.1036428918713526 54.815416582358857 0 0 0 0 -1.8073961465899695 -1.2160480010437524 0 -1.2160480010437524 54.954929456518826 0 0 0 0 -2.3140947690669504 -1.1600824069644062 0 -1.1600824069644062 56.171151234589217 0 0 0 0 -2.3815832667799497 -1.1085776406198846 0 -1.1085776406198846 56.551827025075568 0 0 0 0 -2.4142100680038325 -2.8500001691057903 0 -2.8500001691057903 56.580218751059562 0 0 0 0 -1.7671813897817668 -2.3294673848291154 0 -2.3294673848291154 54.794899362379155 0 0 0 0 -1.8827072199701766 -2.6176380939164297 0 -2.6176380939164297 54.13102909388769 0 0 0 0 -0.90261757809301812 -3.4587404525072714 0 -3.4587404525072714 51.06857150898162 0 0 0 0 -1.3996679740373708 -3.9410543080380052 0 -3.9410543080380052 54.026110657225132 0 0 0 0 -1.4769241451097024 -4.5191052144829555 0 -4.5191052144829555 52.210360443015944 0 0 0 0 -0.39244127936142092 -5.7751340529634234 0 -5.7751340529634234 52.27350965883727 0 0 0 0 -0.053232634174399607 -5.0145831674972925 0 -5.0145831674972925 48.351736474995874 0 0 0 0 -0.037794503020121439 -4.2805092876817028 0 -4.2805092876817028 50.942244110910238 0 0 0 0 0.30965765230675313 -3.7473001901752099 0 -3.7473001901752099 47.937595279193474 0 0 0 0 0.19356488768867752 -3.1724409878085709 0 -3.1724409878085709 50.031590804652311 0 0 0 0 0.00040045215015208514 -1.9549761493901381 0 -1.9549761493901381 49.596365115528407 0 0 0 0 0.37355001838322638 -2.9179056498168889 0 -2.9179056498168889 47.297356548437385 0 0 0 0 -0.00088985945979499516 -1.7763761951672885 0 -1.7763761951672885 51.666835982746676 0 0 0 0 -0.34310157870028668 -2.8913427066607262 0 -2.8913427066607262 50.327853555839468 0 0 0 0 -0.88047143270307027 -3.0763588372980202 0 -3.0763588372980202 52.499280111397539 0 0 0 0 -0.20578436866550476 -2.5606941058070234 0 -2.5606941058070234 50.19621895903142 0 0 0 0 -3.4143572407286982 -7.6624627628949042 0 -7.6624627628949042 62.999008797080592 0 0 0 0 -2.6488045252992425 -8.2177530530685843 0 -8.2177530530685843 60.326626962112357 0 0 0 0 -2.9160935916480546 -8.4306417118143884 0 -8.4306417118143884 69.305482286887923 0 0 0 0 -1.5510823908502165 -6.2845140719963979 0 -6.2845140719963979 65.825902007318604 0 0 0 0 0.34382455398309553 -12.145246036084586 0 -12.145246036084586 56.076221707283992 0 0 0 0 2.3687140969325173 -16.420817312774062 0 -16.420817312774062 62.602474717713534 0 0 0 0 -0.87076834677041681 -11.362007684415303 0 -11.362007684415303 51.608115899827936 0 0 0 0 -1.6947453161684134 -13.839436648889773 0 -13.839436648889773 61.625266686396003 0 0 0 0 -1.5766559196244039 -10.298946465627154 0 -10.298946465627154 57.189432699048446 0 0 0 0 -0.81620689671774294 -8.9545806980814007 0 -8.9545806980814007 49.797445231563387 0 0 0 0 -0.38864287091826721 -6.752490048797668 0 -6.752490048797668 48.849171552739136 0 0 0 0 -0.90816666100766419 -7.7536706129860562 0 -7.7536706129860562 54.065998295845539 0 0 0 0 -2.0229118114232065 -5.7034493618793789 0 -5.7034493618793789 54.019004824282348 0 0 0 0 -2.0035480569999544 -5.1023267264577896 0 -5.1023267264577896 56.033505413814055 0 0 0 0 -2.6076786848514679 -6.8839186505818191 0 -6.8839186505818191 56.83577487192003 0 0 0 0 -2.7895727975052482 -6.4767719518988827 0 -6.4767719518988827 58.698570356954463 0 0 0 0 -3.4051484053015324 -3.8673535669885553 0 -3.8673535669885553 61.989538505933638 0 0 0 0 -2.8855198542837419 -3.3842542094851922 0 -3.3842542094851922 58.595383007179947 0 0 0 0 -2.4569228689338063 -3.1111054223743508 0 -3.1111054223743508 55.805822792948057 0 0 0 0 -2.9978835064537601 -3.4205439449190536 0 -3.4205439449190536 58.840261576153722 0 0 0 0 -2.8447754121127424 -1.1305914091109415 0 -1.1305914091109415 58.051740183445929 0 0 0 0 -2.773370250059334 -0.84288747640847816 0 -0.84288747640847816 58.830635894488978 0 0 0 0 -3.1286115586410288 -0.9902671643975367 0 -0.9902671643975367 60.558840557969859 0 0 0 0 -2.8435549533037552 -0.43431039211387201 0 -0.43431039211387201 61.607823521497131 0 0 0 0 -2.9997540440218065 -0.7839572482906334 0 -0.7839572482906334 63.662946478291587 0 0 0 0 -2.5094635062776733 -0.15603509152089146 0 -0.15603509152089146 64.438880183601796 0 0 0 0 -3.0068193991743244 -4.1677520879904648 0 -4.1677520879904648 65.011607596570116 0 0 0 0 -2.9102674247311064 -3.3939812680268631 0 -3.3939812680268631 62.073784956360662 0 0 0 0 -2.809882847297847 -3.3090897933581118 0 -3.3090897933581118 68.696274514877018 0 0 0 0 -2.0541970504921556 -2.0578272045161441 0 -2.0578272045161441 66.095608945753384 0 0 0 0 -2.4768238003442842 -0.67697246493904117 0 -0.67697246493904117 68.228082378959698 0 0 0 0 -1.9488996821932589 3.3386457026979173 0 3.3386457026979173 67.869395911127867 0 0 0 0 -1.9513810866168213 1.3601507939127657 0 1.3601507939127657 65.693572849881434 0 0 0 0 -2.3113213187454331 2.6068554578172467 0 2.6068554578172467 63.503450482129438 0 0 0 0 -2.1222850339079313 2.433870294839096 0 2.433870294839096 63.549727335695366 0 0 0 0 -1.3648301442069615 6.0934959609113832 0 6.0934959609113832 64.251732093912779 0 0 0 0 -1.4740819837893495 4.9653865574618266 0 4.9653865574618266 60.555835302772437 0 0 0 0 -1.7591790667042737 4.9121856703898175 0 4.9121856703898175 65.202190901947404 0 0 0 0 -1.5461012298208183 5.9915880229488323 0 5.9915880229488323 66.807658333913082 0 0 0 0 -2.2589662831431121 0.90335766722306232 0 0.90335766722306232 58.087026624115239 0 0 0 0 -2.5653515301082108 1.0308612517602214 0 1.0308612517602214 58.553839347682441 0 0 0 0 -2.5817924349563812 1.7135785028484349 0 1.7135785028484349 61.250448704038121 0 0 0 0 -2.4179884603760713 1.7621536688071728 0 1.7621536688071728 60.511892054313556 0 0 0 0 -1.6588082796504064 3.6214378982435989 0 3.6214378982435989 57.747240689786651 0 0 0 0 -1.4586145408537805 4.7548089808704503 0 4.7548089808704503 61.209118373673995 0 0 0 0 -1.5575500879694473 3.2471264860179048 0 3.2471264860179048 58.62843434964639 0 0 0 0 -1.6755112288284324 2.366078983324357 0 2.366078983324357 55.880754578449171 0 0 0 0 -0.36320974779183168 4.5252768678169559 0 4.5252768678169559 53.978815125033435 0 0 0 0 -0.32934078701793301 3.9474699195237548 0 3.9474699195237548 55.878790225510144 0 0 0 0 -0.15800844452903329 5.8763024306205125 0 5.8763024306205125 57.857053511465715 0 0 0 0 -0.25046928523998591 6.6403253067140895 0 6.6403253067140895 55.647109075621728 0 0 0 0 2.5321769031405839 9.0071522021052601 0 9.0071522021052601 55.67176591307998 0 0 0 0 1.9112988110996907 6.8930109454420645 0 6.8930109454420645 50.004448827435908 0 0 0 0 1.5311552172583394 6.0148123641562279 0 6.0148123641562279 53.963966792496073 0 0 0 0 1.1664124575910746 4.5552467823961393 0 4.5552467823961393 50.002111582324403 0 0 0 0 0.37647498638822086 10.871277935352715 0 10.871277935352715 65.36103224728987 0 0 0 0 -0.47638302661998999 9.3880425327843682 0 9.3880425327843682 63.710816350139453 0 0 0 0 -0.078328847836681259 8.2670366146575418 0 8.2670366146575418 61.086769653506607 0 0 0 0 0.17613895501594667 9.5992686609982343 0 9.5992686609982343 57.401529233891324 0 0 0 0 4.2543807171705685 13.489221548790027 0 13.489221548790027 58.634669975230167 0 0 0 0 3.190834563015609 10.074792384259084 0 10.074792384259084 49.997378854069865 0 0 0 0 5.3456050282742744 18.789591481121903 0 18.789591481121903 58.89868723061295 0 0 0 0 4.9249502438816748 14.147153204991255 0 14.147153204991255 50.034465462758874 0 0 0 0 -0.30396310272703747 27.007664855745759 0 27.007664855745759 99.928787745187833 0 0 0 0 10.691210056548552 31.629774767375068 0 31.629774767375068 79.689394762675988 0 0 0 0 -0.95276605323997998 12.040107756946725 0 12.040107756946725 73.154930141274235 0 0 0 0 4.1697126441644059 14.456857070465617 0 14.456857070465617 67.99166147695928 0 0 0 0 3.0769588398274603 18.632477664311963 0 18.632477664311963 86.10737897163051 0 0 0 0 2.9301966167942992 12.198600414580596 0 12.198600414580596 76.146754951384878 0 0 0 0 -1.150461460844405 23.046277725663515 0 23.046277725663515 84.60171569154636 0 0 0 0 -2.7676899210062049 18.963560482633852 0 18.963560482633852 100.0050667739697 0 0 0 0 -2.9673106255725639 13.80128707986654 0 13.80128707986654 99.994966521683182 0 0 0 0 -2.8408632566889671 17.084258395601751 0 17.084258395601751 91.676652111832936 0 0 0 0 -2.195391247204542 9.1516674554892461 0 9.1516674554892461 99.994795171405485 0 0 0 0 -2.5064229132125262 11.318394338907979 0 11.318394338907979 93.144605980993219 0 0 0 0 1.5292990168874454 7.5533708329373894 0 7.5533708329373894 87.648435836065914 0 0 0 0 0.12865901665069623 11.44709317617378 0 11.44709317617378 92.882084447884267 0 0 0 0 2.7871346828281522 13.096129964309284 0 13.096129964309284 85.882196638325922 0 0 0 0 0.086060479667609435 12.009985435888439 0 12.009985435888439 88.200102864009978 0 0 0 0 3.9753244607093485 6.5394629186081374 0 6.5394629186081374 80.734618583857582 0 0 0 0 3.4714659851116925 7.9162832079138141 0 7.9162832079138141 79.346592925991445 0 0 0 0 3.9578915667424899 4.206954483536947 0 4.206954483536947 82.186758702794123 0 0 0 0 3.4682985590337316 7.9110656661255216 0 7.9110656661255216 86.732779690439884 0 0 0 0 4.9865847999839534 2.8880072573539337 0 2.8880072573539337 83.348461714215546 0 0 0 0 5.056720924496017 0.3833684707166185 0 0.3833684707166185 80.428336056933858 0 0 0 0 4.4995196967008395 0.77168492446946857 0 0.77168492446946857 79.204043102376204 0 0 0 0 4.9762883931497743 3.1964480037806418 0 3.1964480037806418 76.367184029714736 0 0 0 0 1.5372790541273149 3.7932486218641088 0 3.7932486218641088 75.597540729158709 0 0 0 0 1.5542587940287431 3.4159984868016409 0 3.4159984868016409 67.644690343018851 0 0 0 0 2.5536301469311384 7.9668331414959912 0 7.9668331414959912 67.149756284869795 0 0 0 0 -3.5183581334085474 5.6382393888208071 0 5.6382393888208071 72.058317947439548 0 0 0 0 4.0028930711314556 6.0088741969251487 0 6.0088741969251487 72.234132217019123 0 0 0 0 2.4127615663045048 10.369737246696277 0 10.369737246696277 78.254840588431989 0 0 0 0 0.00033956194031515229 0.63854240179875887 0 0.63854240179875887 94.126908664905727 0 0 0 0 -0.11406198450366101 1.8924437632282434 0 1.8924437632282434 95.741692920558535 0 0 0 0 -0.0010342547727737262 0.54295022588379904 0 0.54295022588379904 96.733616977623115 0 0 0 0 -1.1432052019755397 1.5723860440573389 0 1.5723860440573389 99.93465956116961 0 0 0 0 -1.5940051956317272 3.4357725056885897 0 3.4357725056885897 100.01306878554146 0 0 0 0 -1.3043355325296107 2.446823950584502 0 2.446823950584502 96.40637533204972 0 0 0 0 0.78519483689601 2.7591365771044138 0 2.7591365771044138 93.715667532304565 0 0 0 0 -0.17583592953755947 1.6453872078829193 0 1.6453872078829193 96.045035943280936 0 0 0 0 0.83357690308531496 2.9127510283124138 0 2.9127510283124138 92.399369183665272 0 0 0 0 -0.14395948200743192 5.1927113918208079 0 5.1927113918208079 95.390463142478779 0 0 0 0 -1.676123423168014 4.4379129884308668 0 4.4379129884308668 95.891924553996432 0 0 0 0 -1.8309622767232132 6.0491255737281904 0 6.0491255737281904 99.994861821213362 0 0 0 0 -2.0308093554971589 7.8874017509124315 0 7.8874017509124315 95.135551249650007 0 0 0 0 -0.075002327503872479 5.6258786286125542 0 5.6258786286125542 93.94332395019012 0 0 0 0 1.5058833463523809 7.1021239238368192 0 7.1021239238368192 91.318118337950864 0 0 0 0 3.950934263906261 3.8588001427716163 0 3.8588001427716163 87.406618194812609 0 0 0 0 2.4358787472500061 3.9092315221557783 0 3.9092315221557783 87.93658842998866 0 0 0 0 5.0643754499008589 -0.080466498120017604 0 -0.080466498120017604 85.820633909778621 0 0 0 0 3.9245451953700501 1.2917821358258834 0 1.2917821358258834 84.611419330553758 0 0 0 0 3.92348468781694 1.0285039971791832 0 1.0285039971791832 88.57929011016904 0 0 0 0 3.1567009811388163 -0.5827896235530261 0 -0.5827896235530261 87.072059308415078 0 0 0 0 2.3981902926463872 3.6577285524978365 0 3.6577285524978365 91.10792679522342 0 0 0 0 2.4106252102116628 1.4189828098454882 0 1.4189828098454882 88.603119237622423 0 0 0 0 2.4058595608724405 1.2959434015521882 0 1.2959434015521882 91.029462206161952 0 0 0 0 1.0392456903556535 1.0085899968710237 0 1.0085899968710237 91.865955238426068 0 0 0 0 3.1390927130258337 -0.68058223265416018 0 -0.68058223265416018 89.707922384047151 0 0 0 0 1.6799869255631812 -0.13621046523212499 0 -0.13621046523212499 89.56733694974389 0 0 0 0 1.6828069613112517 -0.0019495468064860688 0 -0.0019495468064860688 91.223157809831264 0 0 0 0 0.0012782684508509175 -0.95743140843012497 0 -0.95743140843012497 90.680309894002789 0 0 0 0 0.0011951021231900096 0.015824985696565926 0 0.015824985696565926 91.804594202555336 0 0 0 0 1.0699145933105831 1.3302620466552071 0 1.3302620466552071 92.928052681118515 0 0 0 0 1.5957200769678646 -3.0513217488880855 0 -3.0513217488880855 91.646455463083612 0 0 0 0 0.0014420362458384837 -1.9946626140731381 0 -1.9946626140731381 90.965305376137394 0 0 0 0 1.8573522555338378 -1.6173783190622544 0 -1.6173783190622544 90.827272624369584 0 0 0 0 1.8634745648483702 -1.5421621730213317 0 -1.5421621730213317 89.144093071634416 0 0 0 0 1.5769997295749265 -2.754888180395028 0 -2.754888180395028 90.401393350835747 0 0 0 0 3.0799703998306178 -2.6626107702104491 0 -2.6626107702104491 90.023987131455215 0 0 0 0 3.0810051198474127 -2.5102511633250262 0 -2.5102511633250262 87.767169323342841 0 0 0 0 3.8088270505734805 -4.3599393501177701 0 -4.3599393501177701 89.618913403160605 0 0 0 0 4.3637729729676913 -1.8381315497601918 0 -1.8381315497601918 88.116922617319347 0 0 0 0 4.3684434252690858 -1.5625333775383394 0 -1.5625333775383394 84.357080864757108 0 0 0 0 3.809468568821901 -4.0555106484060106 0 -4.0555106484060106 86.790178908404869 0 0 0 0 5.0471476922911513 -3.7820674132091199 0 -3.7820674132091199 86.692839730839523 0 0 0 0 3.7970417981624802 -6.6463851671033467 0 -6.6463851671033467 89.786005366897257 0 0 0 0 2.1765312562857377 -5.4322118607773291 0 -5.4322118607773291 92.338597156083551 0 0 0 0 1.4100998042399127 -6.7050047595562319 0 -6.7050047595562319 93.008885278826483 0 0 0 0 1.1924485823876854 -4.4742030948590354 0 -4.4742030948590354 93.373374735871778 0 0 0 0 1.020978317251064 -5.8060307376241553 0 -5.8060307376241553 96.710788251319173 0 0 0 0 2.2701128159133086 -3.8972743412762156 0 -3.8972743412762156 90.663696726982039 0 0 0 0 2.2148478334268145 -5.6101952756397679 0 -5.6101952756397679 92.639527889389228 0 0 0 0 2.2983333558515695 -4.0692040734764845 0 -4.0692040734764845 91.561134236458429 0 0 0 0 0.86191337165139448 -3.5903084677925108 0 -3.5903084677925108 93.200031536601955 0 0 0 0 0.87408882102421259 -4.4584025163422893 0 -4.4584025163422893 95.83456124594727 0 0 0 0 1.0736494745038776 -3.6614933336688864 0 -3.6614933336688864 93.220392829790569 0 0 0 0 0.0012741715917402581 -3.316382243506041 0 -3.316382243506041 93.609711150802809 0 0 0 0 0.57952963339767027 -4.0884537140211705 0 -4.0884537140211705 94.575598630027798 0 0 0 0 0.94744705597342549 -3.8172108092130088 0 -3.8172108092130088 93.116316064689045 0 0 0 0 0.00040036237993846049 -2.8545870210894009 0 -2.8545870210894009 92.292214971783665 0 0 0 0 3.3057846217861382 -7.4459888000525893 0 -7.4459888000525893 78.540373588816067 0 0 0 0 5.1179894707189852 -2.9516879714338415 0 -2.9516879714338415 72.773214841608933 0 0 0 0 -4.1083941009843095 -2.5814758167144873 0 -2.5814758167144873 72.685068350973324 0 0 0 0 3.4408824954694337 -3.8908203149860014 0 -3.8908203149860014 68.553816445926088 0 0 0 0 1.8624170516868885 -0.20179543213724266 0 -0.20179543213724266 67.982912399982411 0 0 0 0 -3.9027621732336408 1.4912474867677474 0 1.4912474867677474 71.802569828243236 0 0 0 0 1.861995079265516 -1.3682038620790937 0 -1.3682038620790937 75.629051802478216 0 0 0 0 4.4672005743019456 1.4318641222677115 0 1.4318641222677115 71.612616644774107 0 0 0 0 5.5682184958235217 -1.1991177216754636 0 -1.1991177216754636 76.426406767656431 0 0 0 0 5.5870188105312604 -2.0582573571202829 0 -2.0582573571202829 83.10221094077508 0 0 0 0 5.0442251217605465 -3.2526791343530537 0 -3.2526791343530537 81.90270077633636 0 0 0 0 5.3301188990741437 -6.7521111273493375 0 -6.7521111273493375 85.856840744391889 0 0 0 0 5.3605761993998993 -5.5234381927134564 0 -5.5234381927134564 79.568457598265468 0 0 0 0 5.1049197420571994 -4.6942458962733618 0 -4.6942458962733618 80.596494280587876 0 0 0 0 3.2345732539297005 -8.7123058371363769 0 -8.7123058371363769 88.654454079065999 0 0 0 0 5.030470095228317 -10.642294720312577 0 -10.642294720312577 85.593560077380971 0 0 0 0 3.0713038529746939 -9.575782772336197 0 -9.575782772336197 91.76703604848467 0 0 0 0 3.7845946313667795 -6.2552652448573554 0 -6.2552652448573554 86.879915060191479 0 0 0 0 1.7362753502356121 -8.5710485913868979 0 -8.5710485913868979 92.31320713993864 0 0 0 0 1.0565779200501861 -7.7514791409655572 0 -7.7514791409655572 97.69853689494937 0 0 0 0 0.66172979003771637 -10.576604893094952 0 -10.576604893094952 99.866645767132127 0 0 0 0 1.6420370687596382 -13.208197051087268 0 -13.208197051087268 91.362797699861005 0 0 0 0 0.45475961936746678 -14.101013949211108 0 -14.101013949211108 103.03149984303764 0 0 0 0 3.1008689399306135 -17.779290802226456 0 -17.779290802226456 86.453456608615767 0 0 0 0 4.229679405037114 -14.674303139951178 0 -14.674303139951178 87.727639710567814 0 0 0 0 5.5299373730808874 -8.3409586496677477 0 -8.3409586496677477 76.962646816599545 0 0 0 0 -3.1021647817004316 -8.2158257312268006 0 -8.2158257312268006 75.23979464633311 0 0 0 0 6.2566599117440358 -8.5058458514595259 0 -8.5058458514595259 71.054382899549978 0 0 0 0 4.73742819386504 -28.108388169662874 0 -28.108388169662874 85.607978289935147 0 0 0 0 -0.59821095581155603 -17.449451688843112 0 -17.449451688843112 112.26149040128189 0 0 0 0 0.11057634985804299 -11.937345420739348 0 -11.937345420739348 56.130745200640945 0 0 0 0 2.2372190961497744 -16.428977947667335 0 -16.428977947667335 62.987367508205239 0 0 0 0 -1.3234793352015681 -6.1951874556350504 0 -6.1951874556350504 65.899707062002506 0 0 0 0 -2.7057875070132562 -8.523749678352516 0 -8.523749678352516 69.436633560523092 0 0 0 0 -2.5123261193253974 -8.5467665821514132 0 -8.5467665821514132 59.670776790797845 0 0 0 0 -3.2925220134499291 -5.9917098453716733 0 -5.9917098453716733 64.168982172645087 0 0 0 0 -1.8903896412455232 -13.629887924117128 0 -13.629887924117128 61.817934460277044 0 0 0 0 -0.84892814614902257 -10.903046518005596 0 -10.903046518005596 51.515749921518818 0 0 0 0 -0.4774220433521128 -8.9661056314189693 0 -8.9661056314189693 49.93332288356612 0 0 0 0 -1.2760909510066814 -10.602964631632361 0 -10.602964631632361 55.610263169584755 0 0 0 0 -0.29487564518561893 -6.8041378961492569 0 -6.8041378961492569 48.849268447474572 0 0 0 0 -0.79335023227571444 -7.699230233198989 0 -7.699230233198989 53.986001676337594 0 0 0 0 -2.1128428771416319 -4.6354428041268818 0 -4.6354428041268818 56.850600117907675 0 0 0 0 -2.0401488406031554 -6.9441852901027801 0 -6.9441852901027801 53.691546051758024 0 0 0 0 -2.1204287374518174 -6.6602369791192473 0 -6.6602369791192473 57.944719225688431 0 0 0 0 -3.1327404549084283 -6.5804123357329161 0 -6.5804123357329161 58.234231072563688 0 0 0 0 -3.1686972386289267 -2.6927788640878134 0 -2.6927788640878134 60.16035962833854 0 0 0 0 -3.0606683463102549 -3.8077644916059579 0 -3.8077644916059579 61.398750724941976 0 0 0 0 -3.0464007449188308 -4.3579380670410561 0 -4.3579380670410561 56.818536178602926 0 0 0 0 -2.7374248324957637 -2.2411159182140921 0 -2.2411159182140921 59.205859411518531 0 0 0 0 -3.038982525873819 -1.3502769711013514 0 -1.3502769711013514 58.276341513785439 0 0 0 0 -3.028727373448973 -0.85761248334063112 0 -0.85761248334063112 62.220600707968572 0 0 0 0 -2.7320691807041508 0.9160619240719825 0 0.9160619240719825 64.868333768056686 0 0 0 0 -2.5639974588238172 -0.65424514006664936 0 -0.65424514006664936 63.032165490290765 0 0 0 0 -2.5640849047814589 -0.41282462043642454 0 -0.41282462043642454 67.891323970999281 0 0 0 0 -1.9688781336682895 1.3805592205312109 0 1.3805592205312109 65.646429487094053 0 0 0 0 -2.7956242077446056 -4.0952417662800515 0 -4.0952417662800515 68.636307641718474 0 0 0 0 -2.0958072419132834 -1.9894455323579052 0 -1.9894455323579052 65.926109676541131 0 0 0 0 -3.1730136421270876 -2.1366633817072795 0 -2.1366633817072795 64.916156445892767 0 0 0 0 -2.7846382798732217 -4.3328488270913246 0 -4.3328488270913246 62.262965976324097 0 0 0 0 -0.00036493505804275185 -1.8403336229711726 0 -1.8403336229711726 51.442188084162694 0 0 0 0 -0.31166261703189901 -2.8735286453409685 0 -2.8735286453409685 50.287367568827563 0 0 0 0 0.38249220984350796 -2.952479436477347 0 -2.952479436477347 47.287799315013785 0 0 0 0 9.0473103467582944e-05 -1.9963635938610911 0 -1.9963635938610911 49.582432736986448 0 0 0 0 0.15059797506692352 -3.1747827663023429 0 -3.1747827663023429 50.103192157264061 0 0 0 0 0.29095512972150583 -3.8480787226292819 0 -3.8480787226292819 47.917280622973635 0 0 0 0 -1.0657440364475841 -3.1364849066387137 0 -3.1364849066387137 51.884059103286972 0 0 0 0 -0.20215986605018854 -2.4607051772076787 0 -2.4607051772076787 50.404534212233443 0 0 0 0 -1.0300791995033363 -2.8977200547345205 0 -2.8977200547345205 53.010648777645201 0 0 0 0 -0.90607181180996044 -4.4550413550359167 0 -4.4550413550359167 51.113827920753891 0 0 0 0 0.077952476548228233 -4.15406826018625 0 -4.15406826018625 50.875469608790553 0 0 0 0 0.070525210163547847 -5.0902614932356585 0 -5.0902614932356585 48.3553941256597 0 0 0 0 -0.3310265843194653 -6.0358913342838036 0 -6.0358913342838036 51.649888194674446 0 0 0 0 -0.88476805320434515 -4.2813361219674562 0 -4.2813361219674562 52.472728036017003 0 0 0 0 -2.1180297536432198 -4.934052990868393 0 -4.934052990868393 53.867592506035294 0 0 0 0 -2.7457130959728127 -2.6288967976343933 0 -2.6288967976343933 55.964731901811433 0 0 0 0 -1.9953718077515266 -2.9107534019398145 0 -2.9107534019398145 56.037055580773085 0 0 0 0 -2.3501802141324175 -1.1690402533593556 0 -1.1690402533593556 57.526446750205253 0 0 0 0 -2.350137162263128 -1.4922180211849536 0 -1.4922180211849536 55.118812927169301 0 0 0 0 -1.7664022192353639 -0.53623121197889079 0 -0.53623121197889079 56.0483975773152 0 0 0 0 -2.0158640332168218 -3.2345246431991974 0 -3.2345246431991974 53.65955062066223 0 0 0 0 -1.6628395372011382 -1.7747716159383913 0 -1.7747716159383913 55.220757951322923 0 0 0 0 -1.6828069197205169 -2.05936092469965 0 -2.05936092469965 53.62368260981782 0 0 0 0 -0.8459269356763981 -1.857168995336508 0 -1.857168995336508 53.105696087192484 0 0 0 0 -1.7682640971776673 -0.79068480742392921 0 -0.79068480742392921 54.422715473146809 0 0 0 0 -1.0779146843507217 -1.081973544149605 0 -1.081973544149605 54.531088994144454 0 0 0 0 -1.0829283565263386 -1.362543408696403 0 -1.362543408696403 53.47313610349579 0 0 0 0 -0.00078669573332409027 -0.72029396264701973 0 -0.72029396264701973 53.85231624791578 0 0 0 0 -0.00084068178360150792 -1.3427531022551875 0 -1.3427531022551875 53.060289968132793 0 0 0 0 -0.88794569520336797 -2.3023508541605473 0 -2.3023508541605473 52.286040311968236 0 0 0 0 -0.67919065358839226 0.46650300874711093 0 0.46650300874711093 53.223411212977567 0 0 0 0 -0.00073041592167859292 -0.15820459497225348 0 -0.15820459497225348 53.706454356299218 0 0 0 0 -1.0054693114349638 -0.36579109609135685 0 -0.36579109609135685 53.776236637223178 0 0 0 0 -1.000419984366762 -0.25132078509006384 0 -0.25132078509006384 54.786888265504217 0 0 0 0 -0.67611741671544734 0.41029712194915646 0 0.41029712194915646 53.973377233304802 0 0 0 0 -1.3921086338550348 0.39138915110709149 0 0.39138915110709149 54.183027017302834 0 0 0 0 -1.3912234983821692 0.61288544495648123 0 0.61288544495648123 55.558982150194879 0 0 0 0 -1.2996173349465632 1.6738978664601518 0 1.6738978664601518 54.346095526588158 0 0 0 0 -2.0966804025112484 0.20009170925965236 0 0.20009170925965236 55.317522158313864 0 0 0 0 -2.6385920222019896 -0.35997274094563636 0 -0.35997274094563636 56.702045342731424 0 0 0 0 -2.0917049928952296 0.50675399259166332 0 0.50675399259166332 57.527938953761122 0 0 0 0 -1.3000001081109311 1.9569863364812037 0 1.9569863364812037 56.10795104954741 0 0 0 0 -1.9451492559330168 1.7521957139673532 0 1.7521957139673532 56.106638292434525 0 0 0 0 -0.63449510829793221 3.4826880097099604 0 3.4826880097099604 54.369025499075406 0 0 0 0 -0.040152256801450958 2.8458454561154696 0 2.8458454561154696 53.145843338421514 0 0 0 0 1.1293098311809699 4.0214265475845821 0 4.0214265475845821 52.522704162966249 0 0 0 0 0.91650190208805915 3.0389382319367826 0 3.0389382319367826 49.997985523049692 0 0 0 0 0.74237191677049075 2.2329164145616573 0 2.2329164145616573 52.103490250780681 0 0 0 0 0.031852465718472028 2.5880372291582177 0 2.5880372291582177 52.366729848502587 0 0 0 0 -0.59695669795046657 1.4583835183299243 0 1.4583835183299243 53.863868336935695 0 0 0 0 -0.54219688380454978 1.2793273753382977 0 1.2793273753382977 53.047388760926196 0 0 0 0 -0.03095376058478988 0.78688506722301099 0 0.78688506722301099 51.957606382521703 0 0 0 0 0.66835047095401501 1.7488444170981836 0 1.7488444170981836 50.010450174198127 0 0 0 0 0.53485440753836433 1.2164246840990245 0 1.2164246840990245 51.756412236347387 0 0 0 0 0.00044190853911011882 0.25069455121041528 0 0.25069455121041528 51.527561413697072 0 0 0 0 0.46693280283882016 0.79657834442537023 0 0.79657834442537023 49.969302932967523 0 0 0 0 -0.0002811680314949658 0.20197505027658735 0 0.20197505027658735 52.759185034876509 0 0 0 0 -0.057143729087642051 0.85653856850467491 0 0.85653856850467491 51.978785028366929 0 0 0 0 -1.2804843366924135 6.18645635600231 0 6.18645635600231 60.946703696278007 0 0 0 0 -1.9781934224809112 3.888923166886002 0 3.888923166886002 64.066095757562408 0 0 0 0 -1.2555517453022595 6.7237936626086139 0 6.7237936626086139 67.031560227940162 0 0 0 0 -1.7187393894526979 4.8635329833534513 0 4.8635329833534513 64.984829762084786 0 0 0 0 -2.1173897907601895 2.8849776302599541 0 2.8849776302599541 67.469340656064105 0 0 0 0 -2.1272258796170553 2.5784437543250229 0 2.5784437543250229 62.608405531859034 0 0 0 0 -2.7548790675225949 0.46498734414320531 0 0.46498734414320531 60.518999158764814 0 0 0 0 -2.4969487296612942 1.7744499963032183 0 1.7744499963032183 61.892409831627873 0 0 0 0 -2.6324262307917854 0.031372759225376967 0 0.031372759225376967 59.750962360232108 0 0 0 0 -2.5144077843592907 1.3559355840288845 0 1.3559355840288845 58.178764036448285 0 0 0 0 -1.4388797837502856 3.9007419422006535 0 3.9007419422006535 56.593294422265615 0 0 0 0 -1.9498822482922988 2.1284668282206916 0 2.1284668282206916 58.870561736394677 0 0 0 0 -1.9928364961970295 3.5142735378901246 0 3.5142735378901246 59.623263195196728 0 0 0 0 -1.4219330783933304 4.3196022262840472 0 4.3196022262840472 60.348246158202869 0 0 0 0 -0.53593571378667959 6.6920367204762101 0 6.6920367204762101 57.139965344780961 0 0 0 0 0.47545416467794349 6.3302321189783228 0 6.3302321189783228 56.323244725757945 0 0 0 0 0.43568097361946934 5.7431718850161815 0 5.7431718850161815 53.664831466763587 0 0 0 0 -0.64984047978676951 3.8727132748306587 0 3.8727132748306587 56.343889229521267 0 0 0 0 1.6822403095581375 5.9198763808550154 0 5.9198763808550154 53.669806579099713 0 0 0 0 1.3216865880844011 4.5973111475031203 0 4.5973111475031203 50.00409869302888 0 0 0 0 2.7834679832978351 9.1613421286167238 0 9.1613421286167238 54.396479678613105 0 0 0 0 2.2087200603345507 7.0290716531341104 0 7.0290716531341104 50.002041357973326 0 0 0 0 4.1770598375478718 13.357206970847244 0 13.357206970847244 58.215302468462312 0 0 0 0 3.089756241630699 9.7533898605624074 0 9.7533898605624074 49.999058692127136 0 0 0 0 0.48250525863195026 9.9589849303927167 0 9.9589849303927167 57.071521964800525 0 0 0 0 -0.48463487688359941 7.263197756654959 0 7.263197756654959 61.872492486045871 0 0 0 0 -0.37867752423173684 9.3783627540206851 0 9.3783627540206851 63.605224322795834 0 0 0 0 0.62729031454174589 11.080857244681027 0 11.080857244681027 65.367092964227368 0 0 0 0 4.7559868944879673 14.063649341762442 0 14.063649341762442 50.034059187789353 0 0 0 0 5.2976221001773727 18.84592050863796 0 18.84592050863796 59.056966315851014 0 0 0 0 -0.47673422085461975 27.118260973590793 0 27.118260973590793 99.927737787329079 0 0 0 0 10.59524420035474 31.583976210224897 0 31.583976210224897 79.924328892883182 0 0 0 0 -2.5623319977204964 19.572309743921494 0 19.572309743921494 100.00805014132936 0 0 0 0 -1.2745840059414342 23.099747459942947 0 23.099747459942947 83.925403476624183 0 0 0 0 2.79878534652567 17.807502515514216 0 17.807502515514216 85.647973610060376 0 0 0 0 3.1218627477791303 14.803314719960468 0 14.803314719960468 77.72141615421009 0 0 0 0 -0.75735504846347557 12.374046728365915 0 12.374046728365915 73.167934738600934 0 0 0 0 4.6530478428390909 14.208984169045209 0 14.208984169045209 68.001055295176201 0 0 0 0 1.542574298423153 6.3239512144622836 0 6.3239512144622836 67.579566075553259 0 0 0 0 -3.4374787789053962 5.6072735863268521 0 5.6072735863268521 71.990394511753607 0 0 0 0 2.9332322815597389 8.1874682168693909 0 8.1874682168693909 78.804915789788595 0 0 0 0 3.2373622192040941 9.7709245996249763 0 9.7709245996249763 72.146509664063274 0 0 0 0 3.5704610828699761 4.5154206881196899 0 4.5154206881196899 73.933570610804225 0 0 0 0 1.3948671483332449 2.5715848199918128 0 2.5715848199918128 73.556230574499665 0 0 0 0 0.89028445755450836 4.3689115914967545 0 4.3689115914967545 67.162382269378099 0 0 0 0 -3.9377562673365767 1.3914139075337744 0 1.3914139075337744 71.885418389834513 0 0 0 0 4.5250097575287818 2.0203528810707638 0 2.0203528810707638 83.423877263727036 0 0 0 0 4.9695317463095607 2.2033496444609 0 2.2033496444609 82.740795772047818 0 0 0 0 4.5202683153346621 2.6557235263434791 0 2.6557235263434791 77.51007592603014 0 0 0 0 4.889185731306732 3.4182686048558821 0 3.4182686048558821 79.068443186648423 0 0 0 0 3.6019728318939079 7.0576376588628875 0 7.0576376588628875 84.578666261186072 0 0 0 0 3.9511323820731974 8.6600881216529046 0 8.6600881216529046 77.590434782010007 0 0 0 0 3.5648928590524713 6.3570500840333466 0 6.3570500840333466 82.60054191611917 0 0 0 0 3.3485372616830111 4.949418908870129 0 4.949418908870129 88.256934947122261 0 0 0 0 1.1722176738670318 9.1245619610063073 0 9.1245619610063073 92.383968094745683 0 0 0 0 1.0006534993495666 7.785628187053689 0 7.785628187053689 88.260457969416905 0 0 0 0 1.6905598300693567 12.983082256362323 0 12.983082256362323 89.388308187741245 0 0 0 0 1.5216028282675376 11.281652119360217 0 11.281652119360217 84.372278178054898 0 0 0 0 -2.4851762266369986 16.562707810910354 0 16.562707810910354 89.351015911013249 0 0 0 0 -2.4064593828422511 13.590665128472608 0 13.590665128472608 99.990614294173383 0 0 0 0 -2.1603490810826744 11.509138571853157 0 11.509138571853157 92.407745986800961 0 0 0 0 -1.9263444051865108 9.1152223885725903 0 9.1152223885725903 99.998500876110256 0 0 0 0 -1.7816651653618083 7.6013809279437368 0 7.6013809279437368 94.320362507814679 0 0 0 0 -1.588292457391663 4.5898950079060654 0 4.5898950079060654 95.551112172426087 0 0 0 0 -1.637444132945048 5.852211382739597 0 5.852211382739597 99.992190137185489 0 0 0 0 0.59933713631838148 3.6867436272712624 0 3.6867436272712624 95.515573173327766 0 0 0 0 0.72271667836608322 4.9368284423424029 0 4.9368284423424029 90.802247470962811 0 0 0 0 0.92223969066290146 6.1100292859503895 0 6.1100292859503895 94.309152378088612 0 0 0 0 -1.079542890805284 1.5610355218729879 0 1.5610355218729879 99.934069894871797 0 0 0 0 -0.001331898465047224 0.51085032458795676 0 0.51085032458795676 96.755488507968025 0 0 0 0 -1.5426788141902001 3.327841107082179 0 3.327841107082179 100.01477500000692 0 0 0 0 -1.2479701302403536 2.4257858946325186 0 2.4257858946325186 96.466144016281305 0 0 0 0 0.48130731587787134 2.8287240155227451 0 2.8287240155227451 92.704952722888791 0 0 0 0 -0.083861531217372054 1.7887328764578072 0 1.7887328764578072 96.267492554994561 0 0 0 0 0.012844767503513476 1.9535881534856125 0 1.9535881534856125 95.697431802130396 0 0 0 0 0.0011099654938752611 0.54327860781722859 0 0.54327860781722859 93.789231279525978 0 0 0 0 0.000300679991024427 -0.023637856020226142 0 -0.023637856020226142 91.68357092829477 0 0 0 0 0.95388177324798296 1.2464032894889954 0 1.2464032894889954 93.06482483213739 0 0 0 0 1.3042154750654695 0.94418676210884556 0 0.94418676210884556 90.924725452613743 0 0 0 0 1.6445333011496275 1.7023622274614496 0 1.7023622274614496 92.485849741465756 0 0 0 0 2.5845423755340633 -0.013631156027798852 0 -0.013631156027798852 89.053357676777253 0 0 0 0 1.6009959087534025 0.12731755929661404 0 0.12731755929661404 90.781617460345117 0 0 0 0 1.4552000608338724 -0.13603746794223442 0 -0.13603746794223442 91.069121116018792 0 0 0 0 0.0021154878240304603 -0.93968213845640869 0 -0.93968213845640869 90.625351393157061 0 0 0 0 2.9074326573660416 4.0589813517581774 0 4.0589813517581774 86.513779371856771 0 0 0 0 2.1528256044048772 2.2261062828874572 0 2.2261062828874572 89.131153024152354 0 0 0 0 2.6039567477580232 3.0937032471888131 0 3.0937032471888131 90.786666408001949 0 0 0 0 3.1703116665761035 0.54844283273149586 0 0.54844283273149586 89.086937419558524 0 0 0 0 3.6582357053544943 0.83240660286372758 0 0.83240660286372758 86.721031741222333 0 0 0 0 4.2757844729576648 1.3171922597238108 0 1.3171922597238108 86.55014977156597 0 0 0 0 4.531725845685771 -1.4701981379167961 0 -1.4701981379167961 85.860799356869364 0 0 0 0 4.1609072202327315 -1.4148005936257704 0 -1.4148005936257704 86.768639204948627 0 0 0 0 3.3787036857132255 -1.6281872049745729 0 -1.6281872049745729 88.31040933212347 0 0 0 0 3.1799975704784735 -3.0944982912892698 0 -3.0944982912892698 88.417391477046635 0 0 0 0 3.599174428611672 -3.7244989384792291 0 -3.7244989384792291 89.340678448374803 0 0 0 0 4.5271167792228857 -4.5054882469249691 0 -4.5054882469249691 87.222957465858372 0 0 0 0 4.3822952750781159 -3.9790400835586439 0 -3.9790400835586439 85.859875426861379 0 0 0 0 1.593390502155535 -1.513387351668726 0 -1.513387351668726 90.761552026157375 0 0 0 0 1.763954389219218 -1.801041136513529 0 -1.801041136513529 89.975010924284845 0 0 0 0 2.8025046396610538 -1.3086586560143445 0 -1.3086586560143445 89.075853809883554 0 0 0 0 1.7464971791705168 -2.5061633921703788 0 -2.5061633921703788 90.191872839384672 0 0 0 0 2.3506492893343878 -3.2097955441817874 0 -3.2097955441817874 90.85039041852832 0 0 0 0 0.00042869764579007768 -1.9838562430475006 0 -1.9838562430475006 90.936149042646178 0 0 0 0 1.3557650236625216 -3.0118046196596779 0 -3.0118046196596779 91.7152791189597 0 0 0 0 0.94399171286811168 -3.8040785127868233 0 -3.8040785127868233 93.145503757735 0 0 0 0 0.0011895100801652182 -2.7503349380199196 0 -2.7503349380199196 92.126870358675731 0 0 0 0 1.9692688103277964 -3.8977920563179609 0 -3.8977920563179609 90.986627658441378 0 0 0 0 0.90222923743360539 -3.7247831026093472 0 -3.7247831026093472 93.390067808393567 0 0 0 0 0.80790235419907663 -4.3112324579500765 0 -4.3112324579500765 95.875190558386976 0 0 0 0 0.96062635627500992 -3.6644124043955202 0 -3.6644124043955202 93.372699023728245 0 0 0 0 0.00077186076726756445 -3.2593074926722529 0 -3.2593074926722529 93.689635092761193 0 0 0 0 0.54616000236117923 -3.9845405655258403 0 -3.9845405655258403 94.594713096874713 0 0 0 0 2.911559224553006 -5.9477099760416934 0 -5.9477099760416934 92.466777941766679 0 0 0 0 3.6296252646195875 -6.7898533634125613 0 -6.7898533634125613 87.207631452860937 0 0 0 0 2.1538937847545157 -4.5833495477409301 0 -4.5833495477409301 92.992992875501443 0 0 0 0 2.8351703312806134 -5.0282829221075929 0 -5.0282829221075929 89.440337711591511 0 0 0 0 1.316130394433852 -4.715555082373541 0 -4.715555082373541 93.007964471215033 0 0 0 0 1.1476000939681139 -5.5490483992726638 0 -5.5490483992726638 96.703472949991664 0 0 0 0 1.5631217255299923 -6.4734748660651746 0 -6.4734748660651746 92.474373101201323 0 0 0 0 1.2545221862371463 -7.6218441103269328 0 -7.6218441103269328 97.69834310547833 0 0 0 0 1.8114292448950824 -8.9167909585938219 0 -8.9167909585938219 91.577892234096566 0 0 0 0 3.470186909525701 -7.9104591062635734 0 -7.9104591062635734 91.602538222899526 0 0 0 0 3.9169158556832251 -10.1992176229964 0 -10.1992176229964 90.006699887382283 0 0 0 0 4.5636087437913044 -9.0057849247565116 0 -9.0057849247565116 83.877505999026368 0 0 0 0 1.1387712674566508 -10.567659145956796 0 -10.567659145956796 99.594890463126774 0 0 0 0 2.2501286073372899 -12.445146223712101 0 -12.445146223712101 89.868485515752013 0 0 0 0 0.48420695082376852 -14.477458632232185 0 -14.477458632232185 103.21623179965589 0 0 0 0 2.8840714120809139 -17.910904017285759 0 -17.910904017285759 86.55595043785479 0 0 0 0 -0.6996504142017379 -17.699932301107708 0 -17.699932301107708 112.15244341456803 0 0 0 0 4.4744381922995506 -28.184806183889766 0 -28.184806183889766 86.008607042532731 0 0 0 0 6.6412268939611501 -8.1940561437967858 0 -8.1940561437967858 71.084067690529793 0 0 0 0 -2.6469586704031385 -8.6640813447052167 0 -8.6640813447052167 74.954599816776863 0 0 0 0 3.7126508238859444 -13.484090232177266 0 -13.484090232177266 87.771174025220361 0 0 0 0 6.011216729974695 -11.229966200157492 0 -11.229966200157492 78.06235281883238 0 0 0 0 4.6053399627244742 -6.5449537701325511 0 -6.5449537701325511 71.999307493467768 0 0 0 0 4.0501269287705739 -4.9692835687092867 0 -4.9692835687092867 79.34422324696726 0 0 0 0 2.3928903035138163 -2.246278259767962 0 -2.246278259767962 69.240616112444911 0 0 0 0 -4.1916144838265659 -2.4720021767517943 0 -2.4720021767517943 72.58166856626724 0 0 0 0 1.2513552438761009 -0.92935215837684382 0 -0.92935215837684382 67.449970161491535 0 0 0 0 1.3379966464178401 0.034084764489158204 0 0.034084764489158204 74.741594510996151 0 0 0 0 4.4348444325734597 -1.6967986446442183 0 -1.6967986446442183 73.649998177480384 0 0 0 0 5.763865348412784 -1.6197688627590026 0 -1.6197688627590026 78.983520794761191 0 0 0 0 4.7681546109445456 -0.37253040541295945 0 -0.37253040541295945 77.539648800099599 0 0 0 0 5.2581435259119793 -1.504828686282309 0 -1.504828686282309 83.481150917032394 0 0 0 0 5.2640423550634692 -1.168389796035683 0 -1.168389796035683 82.312527256950773 0 0 0 0 5.3808463604547878 -5.138356048138661 0 -5.138356048138661 82.288667889279893 0 0 0 0 4.9313854430357598 -5.265082348456275 0 -5.265082348456275 84.086192422109491 0 0 0 0 5.8598721618583234 -6.1489385933701612 0 -6.1489385933701612 77.667850707419049 0 0 0 0 
</DataArray>
<DataArray type="Float64" Name="displacement_divergence" format="ascii">
1.0082437276547234 1.0298650282236215 1.0131309342178292 1.0441727942468124 1.0344225534808447 1.063074260346492 1.0574479192006745 1.0371429202503391 1.0775772376585442 1.058666960417818 1.0157222681243332 1.0827590027650333 1.0361347052720038 1.0487645760399062 1.1026269983535628 1.0621041652191703 1.0795203020685069 1.0857927472915989 1.0673914372062057 1.0852819157213043 1.0512543969828978 1.0742838004933615 1.0681120029544089 1.0521210625621009 1.0647693981217141 1.0683413150481074 1.077741225625729 1.059329431058383 1.0525131004253352 1.0291983312499553 1.0636740512380949 1.0311575791704639 1.0526686741181748 1.0554753033637645 1.0633207710688553 1.0629506661985773 1.0771411293104458 1.0834048751659124 1.083320173661114 1.0605543594519473 1.0449664374783505 1.0033190786177721 1.0525288536637545 1.0146687259581246 1.0376213675895174 0.96597007681642921 1.018088992157802 0.96494505863000468 1.0045031138468197 0.99193531135357105 0.95341813133641218 1.0333189224657378 0.99969503954278394 1.0323761735738897 0.99980869180731824 1.1916930311270386 1.1535564487362606 1.3277877739047952 1.2854963923293674 1.1284009252253417 1.2994237762929202 1.0147469510611495 1.1986104274045508 1.1122555355884798 0.9796247666969129 0.96921057363641738 1.0631566326967574 1.0399218602571827 1.0805991471362821 1.0845619237413706 1.1181799511889841 1.1716878020126424 1.1141972630579244 1.0669779984802847 1.1168475613939997 1.1041392954266631 1.1211453128885924 1.1486045799865767 1.1752853713638682 1.2132638486853971 1.2385883335464816 1.2400957639479149 1.1832703506325906 1.3177278333515829 1.2808282379052249 1.3150251715723122 1.3184099245786953 1.2748438352652922 1.2238425832676807 1.2285488460357481 1.2577380389941164 1.1816350663796618 1.268860236704862 1.3052311420818459 1.1165612068194426 1.1197697563514848 1.1733731253816337 1.1618780718787505 1.1217686482027247 1.1950100766564047 1.1414176852335387 1.0841048669924147 1.0723121075448327 1.1109889887698445 1.1539809013387334 1.1079327958076339 1.1640788563244122 1.0383149527707127 1.1099024401950883 1.0233704807983091 1.3147501446735586 1.2646886664703896 1.2201688161133979 1.1515533637781461 1.2577810138480157 1.0637642683417088 1.2848858451777447 1.0991883141328112 0.99624824642460919 0.9038060481922443 0.72202164088034149 0.72161374121123778 0.89184337811457759 0.79076951568179243 0.83451254230702099 0.97237376852963386 0.97027655896110687 0.88835788855143827 0.97799403924200945 0.90638183067780709 0.8917773485295335 0.93010743464535084 0.88669331321154043 0.88286163343677693 0.84709943044566849 0.82818058911103343 0.86144650269536527 0.90201078249473809 0.88335046514199433 0.85485056981429874 0.83703562799077069 0.81343472422864416 0.77134819783286179 0.69198949137047805 0.69703386431801206 0.68539959814030915 0.7623702528815075 0.80667602154736429 0.94127248226846127 0.95627630936055041 0.96732582722849969 0.98791454359194297 0.98419063589909861 0.95102039799519922 0.94500862369200611 0.95869200013743594 0.93232946086750612 0.95246503660471404 0.9421580113082868 0.98163899544490008 0.93104741894152632 0.93868321622686501 0.92824001684303248 0.91357552458718772 0.90372467177238658 0.9088500935967927 0.88535964525923827 0.92502774797985943 0.90228760289553822 0.93506117087869889 0.910137444478341 0.93435321767034374 0.92905200928781451 0.92847015097072916 0.91247323875307007 0.92905964771142546 0.90681588162453419 0.91805789304678243 0.93997967274429062 0.93242175540051253 0.90966747412383242 0.92684624879903676 0.91007567636482634 0.91978393080410648 0.93103957531285975 0.90848174443190466 0.93427740453734209 0.92480695590286999 0.88725524290026314 0.90599647477226597 0.91739987423130565 0.93583047165059607 0.94515128412369442 0.94418985083066431 0.94565823318259223 0.97731766568570499 0.92933809542895229 0.94854375722816187 0.93859467592309898 0.94061944908253814 0.96708650066971558 0.94294042304294434 0.93610985322394402 0.95155128263425404 0.94063763120662713 0.92292615334163397 0.81846158210602304 0.77891204312328099 0.68576674249989189 0.71994698941395541 0.69845329451669258 0.67899807655009603 0.77491046881743664 0.76079817219076062 0.81994625263480003 0.8868922975130662 0.86946925898096872 0.91186959643466103 0.84929033797665276 0.85701414022645217 0.91889027332995532 0.9062403017260916 0.94838339901459179 0.90664509691558326 0.94049482490173997 0.98755114814999523 1.005283755571698 0.93004834768620404 1.0348625946240517 0.89554325548546476 0.9195731911560463 0.82492584189680507 0.72137629864632657 0.77311042811294151 0.90345406483800339 1.116632794454703 1.1248264310099794 1.3044917320870981 1.2915245545360188 1.334616921070197 1.1431690134294481 1.2175292031839025 1.1985508963806297 1.0133364355073962 0.98911801680427835 1.0866834443715643 0.97108785604578074 1.0638530288812369 1.0947551448153217 1.0330279442230976 1.1164858097647326 1.1020298123531047 1.1398332477941899 1.166761647572633 1.0754427086736822 1.1293686915804564 1.1047471797582338 1.1838374666903917 1.2427252917470524 1.2093633606293395 1.3065447813243565 1.2735510270685162 1.3168136686794769 1.2766060486925559 1.2348628560753143 1.1895665539290174 1.0288364629820901 0.99951409903591326 0.95340583049714667 0.99165046420180047 1.0050758026466173 0.96416471505390255 1.016366301336789 1.0040474869236622 1.0396113915628371 1.0041551221788767 1.0190684417067759 0.96851838671646462 1.0263772322071025 1.031759199656253 1.0349912550478422 1.0643803761167714 1.0808336754604317 1.1035253307214559 1.0553735152981227 1.0856399071615979 1.0328737317489107 1.0711583682824362 1.0388175138019484 1.0451953830303209 1.0530890275193814 1.0690634861958745 1.0478041549393868 1.0770305910436466 1.0611889857269849 1.0279618923352984 1.0508844111877815 1.0741144788075534 1.0554153465157619 1.0757293656227471 1.0659451963317874 1.055818367668957 1.0833551730362565 1.0609295638328309 1.0644168351160523 1.0812690664105888 1.1087246792173193 1.0961590188287289 1.0832297807300275 1.0746906078155485 1.0621138216324031 1.0730402798829477 1.0182897485027542 1.056917243351025 1.0479716462844237 1.0653382327797027 1.0501038375424319 1.0385330524387371 1.0135760129030427 1.0458253328777136 1.0305600664447248 1.0087247147161262 1.0551780773369002 1.0384328259855842 1.193324387191713 1.2417580467016309 1.3155201696527579 1.2653218074526427 1.3070390173060771 1.2096235930448405 1.1552824018248433 1.1879092220393304 1.1423707225888098 1.1132871250417784 1.1030882927703081 1.1384135897620471 1.1526085339799934 1.1785262615961889 1.1320805926198858 1.1359739778087174 1.0820102488076619 1.1138809749946903 1.1070409377731565 1.0265157056222645 1.1435989532382189 1.0442152283661574 1.2478472461202017 1.0617762986751562 1.15108054446865 1.227757152183246 1.264530935971282 1.3198876655753837 1.0958009216455444 1.2870917683205683 0.99451003566474405 0.90519573093238037 0.97445718143608762 0.82650819470682713 0.88446758956586158 0.80843278901989191 0.72410579690137489 0.72654103138015236 0.69122140373976437 0.68552915732847985 0.81738148071348249 0.75383871883267428 0.77504031693674147 0.74951097722832982 0.68052666726932776 0.6794766212249792 0.87948887021255784 0.87710327518357367 0.8203034424136475 0.83957628917955174 0.88180639093079982 0.8154156716408324 0.86165434775171657 0.91605472208805283 0.93556185768612776 0.89261111468766474 0.9107886801781051 0.8589388100632237 0.86865839684376234 0.97584154911331122 0.90247396905718236 0.98072156470923755 0.92538697342452902 0.93962819715034462 0.98354746004240368 0.96114910309646184 0.91524964149328936 0.95231392068751575 0.98854527004066517 0.96754156609502973 0.98472096185816738 0.9521817388604098 0.93186260038766666 0.96183631023777183 0.95710276569633901 0.93790341245019859 0.91683871608285805 0.94018706605385371 0.92228940927679226 0.94130383042615384 0.91637900052311327 0.92382613369098532 0.92524321176852664 0.906274668809811 0.89421212029222819 0.91283978628557216 0.93390623155759922 0.92257249086134641 0.90379267446576805 0.9082593424452361 0.90392525202555163 0.90929546425181362 0.91689113017836643 0.91597389047525146 0.92939852876986495 0.91750074245081326 0.9024217070193945 0.92354942528312911 0.91738965313504062 0.91878358449544595 0.91938370018555204 0.93201039707862698 0.90936577740291957 0.93071044142622217 0.94089495470603102 0.92128059868755885 0.9295589646876915 0.94292297045827189 0.96683092912586044 0.94333325380003252 0.9369040695352846 0.9514087309923589 0.95378337166319715 0.90837256717480575 0.95146886660255969 0.92275508042872101 0.94324094865648878 0.97851073043959835 0.94037494826731338 0.98952865291715453 0.93389321478991638 0.95072725132425329 0.93923615743065436 0.88441114742817639 1.0073366173058336 0.92118614123089326 1.0370043875047965 0.89440021849935647 1.1145279300036628 0.90483045234832371 0.77725294584491045 0.72307641146373758 0.9148382484910621 0.8407356954880707 0.76604647456192332 0.8339435017573793 0.71633506415958692 0.68390054082440699 0.68701325405367575 0.7607959115741405 0.78084842610053762 0.84747386143173997 0.82307803411044134 0.88739294442944316 0.87576569612014277 0.87669514249734692 0.89017577865145237 0.83527722869277343 
</DataArray>
</CellData>
</Piece>
</UnstructuredGrid>
</VTKFile>
