<?xml version="1.0"?>
<VTKFile type="UnstructuredGrid" version="0.1" byte_order="LittleEndian">
<UnstructuredGrid>
<Piece NumberOfPoints="3186" NumberOfCells="1062">
<Points>
<DataArray type="Float64" NumberOfComponents="3" format="ascii">
0 0 0 0.14285714285686729 0 0 0.10402057578810379 0.10402057578810379 0 0 0 0 0.10402057578810379 0.10402057578810379 0 0 0.14285714285686729 0 0.14285714285686729 0 0 0.10402057578810379 0.10402057578810379 0 0.21622614199724011 0.1170905489967794 0 0.10402057578810379 0.10402057578810379 0 0.12873413335214179 0.22892000827465461 0 0.21622614199724011 0.1170905489967794 0 0.10402057578810379 0.10402057578810379 0 0 0.14285714285686729 0 0.12873413335214179 0.22892000827465461 0 0 0.14285714285686729 0 0 0.28571428571359381 0 0.12873413335214179 0.22892000827465461 0 0.093737460955887239 0.36334567880837831 0 0 0.28571428571359381 0 0 0.42857142857032021 0 0.093737460955887239 0.36334567880837831 0 0 0.28571428571359381 0 0.12873413335214179 0.22892000827465461 0 0.093737460955887239 0.36334567880837831 0 0.12873413335214179 0.22892000827465461 0 0.21341038379882901 0.37169997079090128 0 0.12873413335214179 0.22892000827465461 0 0.28183877965613813 0.2453094238274868 0 0.21622614199724011 0.1170905489967794 0 0.12873413335214179 0.22892000827465461 0 0.21341038379882901 0.37169997079090128 0 0.28183877965613813 0.2453094238274868 0 0.21341038379882901 0.37169997079090128 0 0.28183877965613813 0.2453094238274868 0 0.35714458040172548 0.37949340689832922 0 0.28183877965613813 0.2453094238274868 0 0.35714458040172548 0.37949340689832922 0 0.42857142856968189 0.24782843958009351 0 0.28183877965613813 0.2453094238274868 0 0.35419193461659548 0.1242932860904311 0 0.42857142856968189 0.24782843958009351 0 0.28183877965613813 0.2453094238274868 0 0.35419193461659548 0.1242932860904311 0 0.21622614199724011 0.1170905489967794 0 0.35419193461659548 0.1242932860904311 0 0.28571428571359381 0 0 0.21622614199724011 0.1170905489967794 0 0.35419193461659548 0.1242932860904311 0 0.28571428571359381 0 0 0.42857142857032021 0 0 0.14285714285686729 0 0 0.28571428571359381 0 0 0.21622614199724011 0.1170905489967794 0 0.091975849439628388 0.63906079561326345 0 0.21183497469564019 0.63320029487793694 0 0.12868163055416221 0.76697400229767487 0 0 0.71428571428496201 0 0.091975849439628388 0.63906079561326345 0 0.12868163055416221 0.76697400229767487 0 0.091975849439628388 0.63906079561326345 0 0 0.57142857142744297 0 0.12654278762846541 0.50182270069242174 0 0 0.71428571428496201 0 0.091975849439628388 0.63906079561326345 0 0 0.57142857142744297 0 0.091975849439628388 0.63906079561326345 0 0.12654278762846541 0.50182270069242174 0 0.21183497469564019 0.63320029487793694 0 0 0.57142857142744297 0 0.12654278762846541 0.50182270069242174 0 0 0.42857142857032021 0 0.093737460955887239 0.36334567880837831 0 0.12654278762846541 0.50182270069242174 0 0 0.42857142857032021 0 0.093737460955887239 0.36334567880837831 0 0.21341038379882901 0.37169997079090128 0 0.12654278762846541 0.50182270069242174 0 0.21341038379882901 0.37169997079090128 0 0.12654278762846541 0.50182270069242174 0 0.28571428571288859 0.50512834069527579 0 0.35714458040172548 0.37949340689832922 0 0.28571428571288859 0.50512834069527579 0 0.42857911129460902 0.5051327763182708 0 0.21341038379882901 0.37169997079090128 0 0.35714458040172548 0.37949340689832922 0 0.28571428571288859 0.50512834069527579 0 0.28571428571288859 0.50512834069527579 0 0.35657912408519199 0.6297632267709089 0 0.42857911129460902 0.5051327763182708 0 0.12654278762846541 0.50182270069242174 0 0.28571428571288859 0.50512834069527579 0 0.21183497469564019 0.63320029487793694 0 0.28571428571288859 0.50512834069527579 0 0.21183497469564019 0.63320029487793694 0 0.35657912408519199 0.6297632267709089 0 0.35657912408519199 0.6297632267709089 0 0.42876602422768972 0.75267652020288756 0 0.28454251053718921 0.75357332720455328 0 0.21183497469564019 0.63320029487793694 0 0.35657912408519199 0.6297632267709089 0 0.28454251053718921 0.75357332720455328 0 0.21183497469564019 0.63320029487793694 0 0.28454251053718921 0.75357332720455328 0 0.12868163055416221 0.76697400229767487 0 0.50003783804313584 0.62886810132652948 0 0.57146100403685018 0.75258289532342593 0 0.42876602422768972 0.75267652020288756 0 0.35657912408519199 0.6297632267709089 0 0.50003783804313584 0.62886810132652948 0 0.42876602422768972 0.75267652020288756 0 0.35657912408519199 0.6297632267709089 0 0.50003783804313584 0.62886810132652948 0 0.42857911129460902 0.5051327763182708 0 0.50003783804313584 0.62886810132652948 0 0.42857911129460902 0.5051327763182708 0 0.57143682973041188 0.50513310862866234 0 0.35714458040172548 0.37949340689832922 0 0.42857911129460902 0.5051327763182708 0 0.50000265683637624 0.3797679478844822 0 0.42857911129460902 0.5051327763182708 0 0.50000265683637624 0.3797679478844822 0 0.57143682973041188 0.50513310862866234 0 0.6428589620457259 0.38113747419351418 0 0.71689882325258081 0.50562151542895928 0 0.57143682973041188 0.50513310862866234 0 0.50000265683637624 0.3797679478844822 0 0.6428589620457259 0.38113747419351418 0 0.57143682973041188 0.50513310862866234 0 0.6428589620457259 0.38113747419351418 0 0.71689882325258081 0.50562151542895928 0 0.78571428571267199 0.38141042586853341 0 0.71689882325258081 0.50562151542895928 0 0.57143682973041188 0.50513310862866234 0 0.6428688546313952 0.62885301731806609 0 0.50003783804313584 0.62886810132652948 0 0.57143682973041188 0.50513310862866234 0 0.6428688546313952 0.62885301731806609 0 0.71689882325258081 0.50562151542895928 0 0.6428688546313952 0.62885301731806609 0 0.7865654166374938 0.63474444568669874 0 0.6428688546313952 0.62885301731806609 0 0.7865654166374938 0.63474444568669874 0 0.71537080136980369 0.7565812122385458 0 0.50003783804313584 0.62886810132652948 0 0.6428688546313952 0.62885301731806609 0 0.57146100403685018 0.75258289532342593 0 0.6428688546313952 0.62885301731806609 0 0.57146100403685018 0.75258289532342593 0 0.71537080136980369 0.7565812122385458 0 0.49927531931040692 0.1259400136946118 0 0.42857142857032021 0 0 0.57142857142744297 0 0 0.35419193461659548 0.1242932860904311 0 0.49927531931040692 0.1259400136946118 0 0.42857142857032021 0 0 0.35419193461659548 0.1242932860904311 0 0.49927531931040692 0.1259400136946118 0 0.42857142856968189 0.24782843958009351 0 0.35714458040172548 0.37949340689832922 0 0.50000265683637624 0.3797679478844822 0 0.42857142856968189 0.24782843958009351 0 0.50000265683637624 0.3797679478844822 0 0.42857142856968189 0.24782843958009351 0 0.57134283277699616 0.25528695228377429 0 0.49927531931040692 0.1259400136946118 0 0.42857142856968189 0.24782843958009351 0 0.57134283277699616 0.25528695228377429 0 0.57134283277699616 0.25528695228377429 0 0.71335089116972128 0.25578338314493299 0 0.64223892332544308 0.130274960827549 0 0.6428589620457259 0.38113747419351418 0 0.57134283277699616 0.25528695228377429 0 0.71335089116972128 0.25578338314493299 0 0.50000265683637624 0.3797679478844822 0 0.6428589620457259 0.38113747419351418 0 0.57134283277699616 0.25528695228377429 0 0.6428589620457259 0.38113747419351418 0 0.71335089116972128 0.25578338314493299 0 0.78571428571267199 0.38141042586853341 0 0.71335089116972128 0.25578338314493299 0 0.64223892332544308 0.130274960827549 0 0.78018926648548503 0.12559094919453551 0 0.49927531931040692 0.1259400136946118 0 0.57134283277699616 0.25528695228377429 0 0.64223892332544308 0.130274960827549 0 0.64223892332544308 0.130274960827549 0 0.57142857142744297 0 0 0.71428571428496201 0 0 0.49927531931040692 0.1259400136946118 0 0.64223892332544308 0.130274960827549 0 0.57142857142744297 0 0 0.64223892332544308 0.130274960827549 0 0.71428571428496201 0 0 0.78018926648548503 0.12559094919453551 0 0.71428571428496201 0 0 0.78018926648548503 0.12559094919453551 0 0.85714285714248095 0 0 0.78018926648548503 0.12559094919453551 0 0.89542131320406015 0.10457868679576519 0 0.86802342313663505 0.2373869704637242 0 0.89542131320406015 0.10457868679576519 0 1 0.14285714285686729 0 0.86802342313663505 0.2373869704637242 0 0.89542131320406015 0.10457868679576519 0 0.85714285714248095 0 0 1 0 0 0.78018926648548503 0.12559094919453551 0 0.89542131320406015 0.10457868679576519 0 0.85714285714248095 0 0 0.89542131320406015 0.10457868679576519 0 1 0 0 1 0.14285714285686729 0 1 0.14285714285686729 0 1.1045786867956009 0.1045786867955263 0 1.11654878083672 0.2171580770020253 0 1 0 0 1 0.14285714285686729 0 1.1045786867956009 0.1045786867955263 0 1 0 0 1.1045786867956009 0.1045786867955263 0 1.142857142857143 0 0 1.120408926261548 0.35723491808527941 0 1 0.28571428571359381 0 1 0.42857142857032021 0 1.120408926261548 0.35723491808527941 0 1.11654878083672 0.2171580770020253 0 1 0.28571428571359381 0 1 0.14285714285686729 0 1.11654878083672 0.2171580770020253 0 1 0.28571428571359381 0 1 0.14285714285686729 0 1 0.28571428571359381 0 0.86802342313663505 0.2373869704637242 0 1 0.28571428571359381 0 0.90513725992141869 0.36710674629889062 0 1 0.42857142857032021 0 1 0.28571428571359381 0 0.90513725992141869 0.36710674629889062 0 0.86802342313663505 0.2373869704637242 0 0.90513725992141869 0.36710674629889062 0 0.86802342313663505 0.2373869704637242 0 0.78571428571267199 0.38141042586853341 0 0.71335089116972128 0.25578338314493299 0 0.78018926648548503 0.12559094919453551 0 0.86802342313663505 0.2373869704637242 0 0.71335089116972128 0.25578338314493299 0 0.86802342313663505 0.2373869704637242 0 0.78571428571267199 0.38141042586853341 0 0.71689882325258081 0.50562151542895928 0 0.78571428571267199 0.38141042586853341 0 0.87194859075778619 0.50245062087828152 0 0.71689882325258081 0.50562151542895928 0 0.87194859075778619 0.50245062087828152 0 0.7865654166374938 0.63474444568669874 0 0.90513725992141869 0.36710674629889062 0 0.87194859075778619 0.50245062087828152 0 1 0.42857142857032021 0 0.90513725992141869 0.36710674629889062 0 0.78571428571267199 0.38141042586853341 0 0.87194859075778619 0.50245062087828152 0 0.7865654166374938 0.63474444568669874 0 0.87061467893647215 0.77259634013423817 0 0.71537080136980369 0.7565812122385458 0 0.87194859075778619 0.50245062087828152 0 0.90582573726635052 0.63910113848232464 0 1 0.57142857142744297 0 0.87194859075778619 0.50245062087828152 0 0.7865654166374938 0.63474444568669874 0 0.90582573726635052 0.63910113848232464 0 0.90582573726635052 0.63910113848232464 0 1 0.71428571428496201 0 0.87061467893647215 0.77259634013423817 0 0.7865654166374938 0.63474444568669874 0 0.90582573726635052 0.63910113848232464 0 0.87061467893647215 0.77259634013423817 0 0.90582573726635052 0.63910113848232464 0 1 0.71428571428496201 0 1 0.57142857142744297 0 1 0.57142857142744297 0 1.1230850406616231 0.64211163998861642 0 1.1231105411754949 0.50105200202130007 0 1 0.71428571428496201 0 1 0.57142857142744297 0 1.1230850406616231 0.64211163998861642 0 1 0.71428571428496201 0 1.1230850406616231 0.64211163998861642 0 1.1205280434883049 0.78018926648583675 0 0.87194859075778619 0.50245062087828152 0 1 0.57142857142744297 0 1 0.42857142857032021 0 1 0.57142857142744297 0 1 0.42857142857032021 0 1.1231105411754949 0.50105200202130007 0 1.120408926261548 0.35723491808527941 0 1 0.42857142857032021 0 1.1231105411754949 0.50105200202130007 0 1.120408926261548 0.35723491808527941 0 1.1231105411754949 0.50105200202130007 0 1.242992467502205 0.4277245950738956 0 1.1231105411754949 0.50105200202130007 0 1.242992467502205 0.4277245950738956 0 1.247229121683481 0.57147965461975947 0 1.242992467502205 0.4277245950738956 0 1.247229121683481 0.57147965461975947 0 1.369122867196076 0.49769215192747729 0 1.1230850406616231 0.64211163998861642 0 1.246702098928647 0.71318645322081164 0 1.1205280434883049 0.78018926648583675 0 1.1230850406616231 0.64211163998861642 0 1.1231105411754949 0.50105200202130007 0 1.247229121683481 0.57147965461975947 0 1.1230850406616231 0.64211163998861642 0 1.247229121683481 0.57147965461975947 0 1.246702098928647 0.71318645322081164 0 1.247229121683481 0.57147965461975947 0 1.246702098928647 0.71318645322081164 0 1.3707808136040489 0.64248101537579216 0 1.246702098928647 0.71318645322081164 0 1.3707808136040489 0.64248101537579216 0 1.369080439626563 0.78389141510404459 0 1.247229121683481 0.57147965461975947 0 1.3707808136040489 0.64248101537579216 0 1.369122867196076 0.49769215192747729 0 1.3707808136040489 0.64248101537579216 0 1.49447102461245 0.57098124216803303 0 1.4948716593059641 0.71428571428344279 0 1.3707808136040489 0.64248101537579216 0 1.49447102461245 0.57098124216803303 0 1.369122867196076 0.49769215192747729 0 1.3707808136040489 0.64248101537579216 0 1.4948716593059641 0.71428571428344279 0 1.369080439626563 0.78389141510404459 0 1.242992467502205 0.4277245950738956 0 1.369122867196076 0.49769215192747729 0 1.365913983939659 0.35404229584497132 0 1.49447102461245 0.57098124216803303 0 1.369122867196076 0.49769215192747729 0 1.493210541712801 0.42593700932760992 0 1.369122867196076 0.49769215192747729 0 1.493210541712801 0.42593700932760992 0 1.365913983939659 0.35404229584497132 0 1.493210541712801 0.42593700932760992 0 1.365913983939659 0.35404229584497132 0 1.4945915486603041 0.278046120036475 0 1.365913983939659 0.35404229584497132 0 1.362797304713371 0.2085843731968661 0 1.239801768054871 0.28318912013054159 0 1.362797304713371 0.2085843731968661 0 1.4945915486603041 0.278046120036475 0 1.4981772993068541 0.1265427876282571 0 1.365913983939659 0.35404229584497132 0 1.362797304713371 0.2085843731968661 0 1.4945915486603041 0.278046120036475 0 1.4981772993068541 0.1265427876282571 0 1.4285714285714279 0 0 1.357142857142857 0.088385776599927718 0 1.4981772993068541 0.1265427876282571 0 1.4285714285714279 0 0 1.571428571428571 0 0 1.4285714285714279 0 0 1.357142857142857 0.088385776599927718 0 1.2857142857142849 0 0 1.362797304713371 0.2085843731968661 0 1.357142857142857 0.088385776599927718 0 1.230484398416066 0.12817051038898539 0 1.362797304713371 0.2085843731968661 0 1.4981772993068541 0.1265427876282571 0 1.357142857142857 0.088385776599927718 0 1.230484398416066 0.12817051038898539 0 1.2857142857142849 0 0 1.142857142857143 0 0 1.357142857142857 0.088385776599927718 0 1.230484398416066 0.12817051038898539 0 1.2857142857142849 0 0 1.1045786867956009 0.1045786867955263 0 1.230484398416066 0.12817051038898539 0 1.142857142857143 0 0 1.1045786867956009 0.1045786867955263 0 1.11654878083672 0.2171580770020253 0 1.230484398416066 0.12817051038898539 0 1.11654878083672 0.2171580770020253 0 1.230484398416066 0.12817051038898539 0 1.239801768054871 0.28318912013054159 0 1.120408926261548 0.35723491808527941 0 1.242992467502205 0.4277245950738956 0 1.239801768054871 0.28318912013054159 0 1.120408926261548 0.35723491808527941 0 1.11654878083672 0.2171580770020253 0 1.239801768054871 0.28318912013054159 0 1.242992467502205 0.4277245950738956 0 1.365913983939659 0.35404229584497132 0 1.239801768054871 0.28318912013054159 0 1.362797304713371 0.2085843731968661 0 1.230484398416066 0.12817051038898539 0 1.239801768054871 0.28318912013054159 0 1.2843187895246739 1.251849118408489 0 1.356519680644851 1.1297688427831769 0 1.217136293327606 1.122039968907099 0 1.2843187895246739 1.251849118408489 0 1.1309902448456099 1.235084640813384 0 1.217136293327606 1.122039968907099 0 1.1309902448456099 1.235084640813384 0 1.217136293327606 1.122039968907099 0 1.1045786867955529 1.1045786867955529 0 1.2843187895246739 1.251849118408489 0 1.1309902448456099 1.235084640813384 0 1.214285714285708 1.381410425868262 0 1.1309902448456099 1.235084640813384 0 1.214285714285708 1.381410425868262 0 1.0966122299857239 1.357142857142857 0 1.214285714285708 1.381410425868262 0 1.1265427876294609 1.501822700692834 0 1.285714285714282 1.505128340694609 0 1.214285714285708 1.381410425868262 0 1.0966122299857239 1.357142857142857 0 1.1265427876294609 1.501822700692834 0 1.214285714285708 1.381410425868262 0 1.3557237634480139 1.380474745153186 0 1.285714285714282 1.505128340694609 0 1.2843187895246739 1.251849118408489 0 1.214285714285708 1.381410425868262 0 1.3557237634480139 1.380474745153186 0 1.3557237634480139 1.380474745153186 0 1.285714285714282 1.505128340694609 0 1.42857911129607 1.505132776317748 0 1.3557237634480139 1.380474745153186 0 1.4999999999999949 1.3814104258682569 0 1.42857911129607 1.505132776317748 0 1.3557237634480139 1.380474745153186 0 1.4999999999999949 1.3814104258682569 0 1.426914538806672 1.255395578508163 0 1.4999999999999949 1.3814104258682569 0 1.426914538806672 1.255395578508163 0 1.571152652531757 1.256105255633247 0 1.2843187895246739 1.251849118408489 0 1.3557237634480139 1.380474745153186 0 1.426914538806672 1.255395578508163 0 1.2843187895246739 1.251849118408489 0 1.426914538806672 1.255395578508163 0 1.356519680644851 1.1297688427831769 0 1.426914538806672 1.255395578508163 0 1.499999999999998 1.1271398115696349 0 1.571152652531757 1.256105255633247 0 1.426914538806672 1.255395578508163 0 1.356519680644851 1.1297688427831769 0 1.499999999999998 1.1271398115696349 0 1.499999999999998 1.1271398115696349 0 1.4285714285714279 1 0 1.571428571428571 1 0 1.356519680644851 1.1297688427831769 0 1.499999999999998 1.1271398115696349 0 1.4285714285714279 1 0 1.4285714285714279 1 0 1.497549379121643 0.87194859075748521 0 1.571428571428571 1 0 1.4285714285714279 1 0 1.359152564409752 0.9044833397938371 0 1.2857142857142849 1 0 1.356519680644851 1.1297688427831769 0 1.4285714285714279 1 0 1.2857142857142849 1 0 1.4948716593059641 0.71428571428344279 0 1.497549379121643 0.87194859075748521 0 1.369080439626563 0.78389141510404459 0 1.497549379121643 0.87194859075748521 0 1.359152564409752 0.9044833397938371 0 1.369080439626563 0.78389141510404459 0 1.4285714285714279 1 0 1.497549379121643 0.87194859075748521 0 1.359152564409752 0.9044833397938371 0 1.359152564409752 0.9044833397938371 0 1.369080439626563 0.78389141510404459 0 1.2323719363650789 0.86814175826561835 0 1.246702098928647 0.71318645322081164 0 1.369080439626563 0.78389141510404459 0 1.2323719363650789 0.86814175826561835 0 1.359152564409752 0.9044833397938371 0 1.2323719363650789 0.86814175826561835 0 1.2857142857142849 1 0 1.2323719363650789 0.86814175826561835 0 1.142857142857143 1 0 1.104578686795793 0.89542131320410689 0 1.2323719363650789 0.86814175826561835 0 1.1205280434883049 0.78018926648583675 0 1.104578686795793 0.89542131320410689 0 1.246702098928647 0.71318645322081164 0 1.2323719363650789 0.86814175826561835 0 1.1205280434883049 0.78018926648583675 0 1.356519680644851 1.1297688427831769 0 1.2857142857142849 1 0 1.217136293327606 1.122039968907099 0 1.2323719363650789 0.86814175826561835 0 1.2857142857142849 1 0 1.142857142857143 1 0 1.142857142857143 1 0 1.217136293327606 1.122039968907099 0 1.1045786867955529 1.1045786867955529 0 1.2857142857142849 1 0 1.142857142857143 1 0 1.217136293327606 1.122039968907099 0 1.1045786867955529 1.1045786867955529 0 1 1 0 1 1.142857142857143 0 1.142857142857143 1 0 1.1045786867955529 1.1045786867955529 0 1 1 0 1.142857142857143 1 0 1 1 0 1.104578686795793 0.89542131320410689 0 1 1 0 0.89542131320410701 1.104578686795793 0 1 1.142857142857143 0 1 0.71428571428496201 0 1.1205280434883049 0.78018926648583675 0 1 0.85714285714248095 0 1 1 0 1.104578686795793 0.89542131320410689 0 1 0.85714285714248095 0 1.1205280434883049 0.78018926648583675 0 1.104578686795793 0.89542131320410689 0 1 0.85714285714248095 0 1 1 0 1 0.85714285714248095 0 0.89542131320417073 0.89542131320417073 0 1 0.71428571428496201 0 1 0.85714285714248095 0 0.87061467893647215 0.77259634013423817 0 1 0.85714285714248095 0 0.87061467893647215 0.77259634013423817 0 0.89542131320417073 0.89542131320417073 0 0.89542131320417073 0.89542131320417073 0 0.78149925341697946 0.88257916460195274 0 0.85714285714248095 1 0 0.87061467893647215 0.77259634013423817 0 0.89542131320417073 0.89542131320417073 0 0.78149925341697946 0.88257916460195274 0 0.87061467893647215 0.77259634013423817 0 0.78149925341697946 0.88257916460195274 0 0.71537080136980369 0.7565812122385458 0 0.89542131320410701 1.104578686795793 0 0.85714285714248095 1 0 0.78018926648585263 1.1205280434881351 0 1 1 0 0.89542131320410701 1.104578686795793 0 0.85714285714248095 1 0 1 1 0 0.89542131320417073 0.89542131320417073 0 0.85714285714248095 1 0 0.78149925341697946 0.88257916460195274 0 0.85714285714248095 1 0 0.71428571428496201 1 0 0.85714285714248095 1 0 0.78018926648585263 1.1205280434881351 0 0.71428571428496201 1 0 0.78018926648585263 1.1205280434881351 0 0.8681417582656602 1.2323719363648691 0 0.71318645322083074 1.246702098928443 0 0.8681417582656602 1.2323719363648691 0 0.78389141510410065 1.3690804396262211 0 0.71318645322083074 1.246702098928443 0 0.8681417582656602 1.2323719363648691 0 1 1.2857142857142849 0 0.90448333979397377 1.359152564409229 0 0.89542131320410701 1.104578686795793 0 0.78018926648585263 1.1205280434881351 0 0.8681417582656602 1.2323719363648691 0 0.89542131320410701 1.104578686795793 0 0.8681417582656602 1.2323719363648691 0 1 1.142857142857143 0 0.8681417582656602 1.2323719363648691 0 1 1.142857142857143 0 1 1.2857142857142849 0 1.1309902448456099 1.235084640813384 0 1 1.2857142857142849 0 1.0966122299857239 1.357142857142857 0 1.1309902448456099 1.235084640813384 0 1 1.142857142857143 0 1 1.2857142857142849 0 1.1309902448456099 1.235084640813384 0 1.1045786867955529 1.1045786867955529 0 1 1.142857142857143 0 1.0966122299857239 1.357142857142857 0 1 1.4285714285714279 0 1.1265427876294609 1.501822700692834 0 1 1.2857142857142849 0 1.0966122299857239 1.357142857142857 0 1 1.4285714285714279 0 1 1.2857142857142849 0 1 1.4285714285714279 0 0.90448333979397377 1.359152564409229 0 1 1.4285714285714279 0 0.87194859075750586 1.497549379121565 0 1 1.571428571428571 0 0.87194859075750586 1.497549379121565 0 0.90448333979397377 1.359152564409229 0 0.78389141510410065 1.3690804396262211 0 1 1.4285714285714279 0 0.87194859075750586 1.497549379121565 0 0.90448333979397377 1.359152564409229 0 0.8681417582656602 1.2323719363648691 0 0.90448333979397377 1.359152564409229 0 0.78389141510410065 1.3690804396262211 0 0.87194859075750586 1.497549379121565 0 0.78389141510410065 1.3690804396262211 0 0.71428571428344279 1.494871659305963 0 0.78389141510410065 1.3690804396262211 0 0.71428571428344279 1.494871659305963 0 0.64248101537579227 1.370780813604048 0 0.71428571428344279 1.494871659305963 0 0.5709812421680337 1.49447102461245 0 0.64248101537579227 1.370780813604048 0 0.5709812421680337 1.49447102461245 0 0.64248101537579227 1.370780813604048 0 0.49769215192747779 1.3691228671960749 0 0.64248101537579227 1.370780813604048 0 0.57147965461975991 1.2472291216834761 0 0.49769215192747779 1.3691228671960749 0 0.78389141510410065 1.3690804396262211 0 0.64248101537579227 1.370780813604048 0 0.71318645322083074 1.246702098928443 0 0.78018926648585263 1.1205280434881351 0 0.71318645322083074 1.246702098928443 0 0.64211163998861909 1.1230850406615951 0 0.71318645322083074 1.246702098928443 0 0.57147965461975991 1.2472291216834761 0 0.64211163998861909 1.1230850406615951 0 0.57147965461975991 1.2472291216834761 0 0.64211163998861909 1.1230850406615951 0 0.50105200202129974 1.1231105411754949 0 0.64248101537579227 1.370780813604048 0 0.71318645322083074 1.246702098928443 0 0.57147965461975991 1.2472291216834761 0 0.57147965461975991 1.2472291216834761 0 0.42772459507389549 1.2429924675022059 0 0.49769215192747779 1.3691228671960749 0 0.57147965461975991 1.2472291216834761 0 0.42772459507389549 1.2429924675022059 0 0.50105200202129974 1.1231105411754949 0 0.42772459507389549 1.2429924675022059 0 0.50105200202129974 1.1231105411754949 0 0.35723491808528002 1.1204089262615491 0 0.42772459507389549 1.2429924675022059 0 0.49769215192747779 1.3691228671960749 0 0.35404229584497188 1.365913983939661 0 0.42593700932761119 1.4932105417128021 0 0.49769215192747779 1.3691228671960749 0 0.35404229584497188 1.365913983939661 0 0.5709812421680337 1.49447102461245 0 0.42593700932761119 1.4932105417128021 0 0.49769215192747779 1.3691228671960749 0 0.57146100403685018 0.75258289532342593 0 0.71537080136980369 0.7565812122385458 0 0.64285714285588325 0.87628208517373918 0 0.57146100403685018 0.75258289532342593 0 0.64285714285588325 0.87628208517373918 0 0.49999999999885258 0.87628208517384021 0 0.78149925341697946 0.88257916460195274 0 0.71537080136980369 0.7565812122385458 0 0.64285714285588325 0.87628208517373918 0 0.78149925341697946 0.88257916460195274 0 0.64285714285588325 0.87628208517373918 0 0.71428571428496201 1 0 0.64285714285588325 0.87628208517373918 0 0.57142857142744297 1 0 0.49999999999885258 0.87628208517384021 0 0.64285714285588325 0.87628208517373918 0 0.57142857142744297 1 0 0.71428571428496201 1 0 0.78018926648585263 1.1205280434881351 0 0.71428571428496201 1 0 0.64211163998861909 1.1230850406615951 0 0.57142857142744297 1 0 0.71428571428496201 1 0 0.64211163998861909 1.1230850406615951 0 0.57142857142744297 1 0 0.64211163998861909 1.1230850406615951 0 0.50105200202129974 1.1231105411754949 0 0.57142857142744297 1 0 0.50105200202129974 1.1231105411754949 0 0.42857142857032021 1 0 0.50105200202129974 1.1231105411754949 0 0.42857142857032021 1 0 0.35723491808528002 1.1204089262615491 0 0.57142857142744297 1 0 0.42857142857032021 1 0 0.49999999999885258 0.87628208517384021 0 0.42857142857032021 1 0 0.49999999999885258 0.87628208517384021 0 0.35831043108656913 0.87695618430515165 0 0.49999999999885258 0.87628208517384021 0 0.42876602422768972 0.75267652020288756 0 0.35831043108656913 0.87695618430515165 0 0.57146100403685018 0.75258289532342593 0 0.49999999999885258 0.87628208517384021 0 0.42876602422768972 0.75267652020288756 0 0.28454251053718921 0.75357332720455328 0 0.22029060869521661 0.88080238224013152 0 0.12868163055416221 0.76697400229767487 0 0.28454251053718921 0.75357332720455328 0 0.35831043108656913 0.87695618430515165 0 0.22029060869521661 0.88080238224013152 0 0.42876602422768972 0.75267652020288756 0 0.28454251053718921 0.75357332720455328 0 0.35831043108656913 0.87695618430515165 0 0.35831043108656913 0.87695618430515165 0 0.22029060869521661 0.88080238224013152 0 0.28571428571359381 1 0 0.22029060869521661 0.88080238224013152 0 0.28571428571359381 1 0 0.14285714285686729 1 0 0.42857142857032021 1 0 0.35831043108656913 0.87695618430515165 0 0.28571428571359381 1 0 0.42857142857032021 1 0 0.28571428571359381 1 0 0.35723491808528002 1.1204089262615491 0 0.28571428571359381 1 0 0.35723491808528002 1.1204089262615491 0 0.21715807700202849 1.116548780836722 0 0.28571428571359381 1 0 0.21715807700202849 1.116548780836722 0 0.14285714285686729 1 0 0.21715807700202849 1.116548780836722 0 0.1045786867955263 1.1045786867956 0 0.14285714285686729 1 0 0.1045786867955263 1.1045786867956 0 0 1 0 0 1.142857142857143 0 0.1045786867955263 1.1045786867956 0 0 1 0 0.14285714285686729 1 0 0 1 0 0.14285714285686729 1 0 0.1045786867957653 0.89542131320405993 0 0.22029060869521661 0.88080238224013152 0 0.1045786867957653 0.89542131320405993 0 0.12868163055416221 0.76697400229767487 0 0.22029060869521661 0.88080238224013152 0 0.14285714285686729 1 0 0.1045786867957653 0.89542131320405993 0 0 1 0 0.1045786867957653 0.89542131320405993 0 0 0.85714285714248095 0 0.1045786867957653 0.89542131320405993 0 0 0.85714285714248095 0 0.12868163055416221 0.76697400229767487 0 0 0.71428571428496201 0 0 0.85714285714248095 0 0.12868163055416221 0.76697400229767487 0 0.2085843731968674 1.3627973047133739 0 0.27804612003647688 1.494591548660307 0 0.12654278762825799 1.4981772993068549 0 0.2085843731968674 1.3627973047133739 0 0.27804612003647688 1.494591548660307 0 0.35404229584497188 1.365913983939661 0 0.42593700932761119 1.4932105417128021 0 0.27804612003647688 1.494591548660307 0 0.35404229584497188 1.365913983939661 0 0.2085843731968674 1.3627973047133739 0 0.35404229584497188 1.365913983939661 0 0.2831891201305422 1.2398017680548721 0 0.42772459507389549 1.2429924675022059 0 0.35404229584497188 1.365913983939661 0 0.2831891201305422 1.2398017680548721 0 0.42772459507389549 1.2429924675022059 0 0.35723491808528002 1.1204089262615491 0 0.2831891201305422 1.2398017680548721 0 0.35723491808528002 1.1204089262615491 0 0.21715807700202849 1.116548780836722 0 0.2831891201305422 1.2398017680548721 0 0.21715807700202849 1.116548780836722 0 0.2831891201305422 1.2398017680548721 0 0.1281705103889863 1.2304843984160669 0 0.2085843731968674 1.3627973047133739 0 0.2831891201305422 1.2398017680548721 0 0.1281705103889863 1.2304843984160669 0 0.21715807700202849 1.116548780836722 0 0.1045786867955263 1.1045786867956 0 0.1281705103889863 1.2304843984160669 0 0.1045786867955263 1.1045786867956 0 0.1281705103889863 1.2304843984160669 0 0 1.142857142857143 0 0.1281705103889863 1.2304843984160669 0 0 1.2857142857142849 0 0.088385776599929494 1.357142857142857 0 0.1281705103889863 1.2304843984160669 0 0 1.142857142857143 0 0 1.2857142857142849 0 0 1.2857142857142849 0 0.088385776599929494 1.357142857142857 0 0 1.4285714285714279 0 0.2085843731968674 1.3627973047133739 0 0.088385776599929494 1.357142857142857 0 0.12654278762825799 1.4981772993068549 0 0.2085843731968674 1.3627973047133739 0 0.1281705103889863 1.2304843984160669 0 0.088385776599929494 1.357142857142857 0 0.12654278762825799 1.4981772993068549 0 0 1.4285714285714279 0 0 1.571428571428571 0 0.088385776599929494 1.357142857142857 0 0.12654278762825799 1.4981772993068549 0 0 1.4285714285714279 0 0.12654278762825799 1.4981772993068549 0 0 1.571428571428571 0 0.093464308857800493 1.636633879872754 0 0 1.571428571428571 0 0.093464308857800493 1.636633879872754 0 0 1.714285714285714 0 0.093464308857800493 1.636633879872754 0 0.21204462330902701 1.6281978226174341 0 0.12873413335171741 1.7710799917251949 0 0.12654278762825799 1.4981772993068549 0 0.093464308857800493 1.636633879872754 0 0.21204462330902701 1.6281978226174341 0 0.27804612003647688 1.494591548660307 0 0.12654278762825799 1.4981772993068549 0 0.21204462330902701 1.6281978226174341 0 0.21204462330902701 1.6281978226174341 0 0.35661818314176119 1.6201734641978449 0 0.2815234200304042 1.7546180202569051 0 0.27804612003647688 1.494591548660307 0 0.21204462330902701 1.6281978226174341 0 0.35661818314176119 1.6201734641978449 0 0.42593700932761119 1.4932105417128021 0 0.27804612003647688 1.494591548660307 0 0.35661818314176119 1.6201734641978449 0 0.2815234200304042 1.7546180202569051 0 0.35415439180319602 1.875698076300893 0 0.42857142856855118 1.752171560420507 0 0.2815234200304042 1.7546180202569051 0 0.21616732492381949 1.8828959187492971 0 0.35415439180319602 1.875698076300893 0 0.35661818314176119 1.6201734641978449 0 0.2815234200304042 1.7546180202569051 0 0.42857142856855118 1.752171560420507 0 0.21204462330902701 1.6281978226174341 0 0.2815234200304042 1.7546180202569051 0 0.12873413335171741 1.7710799917251949 0 0.2815234200304042 1.7546180202569051 0 0.12873413335171741 1.7710799917251949 0 0.21616732492381949 1.8828959187492971 0 0.12873413335171741 1.7710799917251949 0 0.1040205757871384 1.895979424212787 0 0.21616732492381949 1.8828959187492971 0 0.093464308857800493 1.636633879872754 0 0.12873413335171741 1.7710799917251949 0 0 1.714285714285714 0 0.12873413335171741 1.7710799917251949 0 0 1.714285714285714 0 0 1.857142857142857 0 0.12873413335171741 1.7710799917251949 0 0 1.857142857142857 0 0.1040205757871384 1.895979424212787 0 0 2 0 0.14285714285686729 2 0 0.1040205757871384 1.895979424212787 0 0 1.857142857142857 0 0 2 0 0.1040205757871384 1.895979424212787 0 0 2 0 0.14285714285686729 2 0 0.10402057578714501 2.104020575787219 0 0.14285714285686729 2 0 0.1040205757871384 1.895979424212787 0 0.21616732492381949 1.8828959187492971 0 0 2.1428571428571428 0 0.12873413335172121 2.2289200082748062 0 0 2.2857142857142851 0 0 2.1428571428571428 0 0.10402057578714501 2.104020575787219 0 0.12873413335172121 2.2289200082748062 0 0 2 0 0 2.1428571428571428 0 0.10402057578714501 2.104020575787219 0 0.10402057578714501 2.104020575787219 0 0.12873413335172121 2.2289200082748062 0 0.21616732492382371 2.1171040812507051 0 0.14285714285686729 2 0 0.10402057578714501 2.104020575787219 0 0.21616732492382371 2.1171040812507051 0 0.12873413335172121 2.2289200082748062 0 0.21616732492382371 2.1171040812507051 0 0.2815234200304122 2.2453819797430978 0 0.21616732492382371 2.1171040812507051 0 0.35415439180320291 2.1243019236991101 0 0.28571428571359381 2 0 0.21616732492382371 2.1171040812507051 0 0.35415439180320291 2.1243019236991101 0 0.2815234200304122 2.2453819797430978 0 0.35415439180320291 2.1243019236991101 0 0.2815234200304122 2.2453819797430978 0 0.42857142856855918 2.2478284395795001 0 0.14285714285686729 2 0 0.21616732492381949 1.8828959187492971 0 0.28571428571359381 2 0 0.14285714285686729 2 0 0.21616732492382371 2.1171040812507051 0 0.28571428571359381 2 0 0.35415439180320291 2.1243019236991101 0 0.28571428571359381 2 0 0.42857142857032021 2 0 0.28571428571359381 2 0 0.35415439180319602 1.875698076300893 0 0.42857142857032021 2 0 0.21616732492381949 1.8828959187492971 0 0.28571428571359381 2 0 0.35415439180319602 1.875698076300893 0 0.35415439180319602 1.875698076300893 0 0.42857142857032021 2 0 0.49927531931007929 1.874059986305624 0 0.42857142857032021 2 0 0.49927531931008179 2.1259400136943771 0 0.57142857142744297 2 0 0.42857142857032021 2 0 0.57142857142744297 2 0 0.49927531931007929 1.874059986305624 0 0.35415439180320291 2.1243019236991101 0 0.42857142856855918 2.2478284395795001 0 0.49927531931008179 2.1259400136943771 0 0.35415439180320291 2.1243019236991101 0 0.42857142857032021 2 0 0.49927531931008179 2.1259400136943771 0 0.42857142856855918 2.2478284395795001 0 0.49927531931008179 2.1259400136943771 0 0.57126208756432351 2.2553423194843969 0 0.49927531931008179 2.1259400136943771 0 0.64222861727828873 2.130282196703202 0 0.57126208756432351 2.2553423194843969 0 0.64222861727828873 2.130282196703202 0 0.57126208756432351 2.2553423194843969 0 0.7133104372685124 2.2558131098502412 0 0.49927531931008179 2.1259400136943771 0 0.64222861727828873 2.130282196703202 0 0.57142857142744297 2 0 0.64222861727828873 2.130282196703202 0 0.71428571428496201 2 0 0.78018926648515108 2.1255909491940099 0 0.64222861727828873 2.130282196703202 0 0.7133104372685124 2.2558131098502412 0 0.78018926648515108 2.1255909491940099 0 0.57142857142744297 2 0 0.71428571428496201 2 0 0.6422286172782864 1.869717803296798 0 0.57142857142744297 2 0 0.6422286172782864 1.869717803296798 0 0.49927531931007929 1.874059986305624 0 0.64222861727828873 2.130282196703202 0 0.57142857142744297 2 0 0.71428571428496201 2 0 0.71428571428496201 2 0 0.6422286172782864 1.869717803296798 0 0.78018926648514864 1.8744090508059901 0 0.6422286172782864 1.869717803296798 0 0.71331043726850674 1.744186890149759 0 0.78018926648514864 1.8744090508059901 0 0.6422286172782864 1.869717803296798 0 0.57126208756431718 1.7446576805156051 0 0.71331043726850674 1.744186890149759 0 0.6422286172782864 1.869717803296798 0 0.57126208756431718 1.7446576805156051 0 0.49927531931007929 1.874059986305624 0 0.57126208756431718 1.7446576805156051 0 0.71331043726850674 1.744186890149759 0 0.64269698385324503 1.618739532771452 0 0.71331043726850674 1.744186890149759 0 0.64269698385324503 1.618739532771452 0 0.78571428571188839 1.618589574132365 0 0.71428571428344279 1.494871659305963 0 0.64269698385324503 1.618739532771452 0 0.78571428571188839 1.618589574132365 0 0.71428571428344279 1.494871659305963 0 0.5709812421680337 1.49447102461245 0 0.64269698385324503 1.618739532771452 0 0.5709812421680337 1.49447102461245 0 0.64269698385324503 1.618739532771452 0 0.49948637524749079 1.619889960661181 0 0.57126208756431718 1.7446576805156051 0 0.64269698385324503 1.618739532771452 0 0.49948637524749079 1.619889960661181 0 0.5709812421680337 1.49447102461245 0 0.42593700932761119 1.4932105417128021 0 0.49948637524749079 1.619889960661181 0 0.42593700932761119 1.4932105417128021 0 0.35661818314176119 1.6201734641978449 0 0.49948637524749079 1.619889960661181 0 0.35661818314176119 1.6201734641978449 0 0.49948637524749079 1.619889960661181 0 0.42857142856855118 1.752171560420507 0 0.35415439180319602 1.875698076300893 0 0.42857142856855118 1.752171560420507 0 0.49927531931007929 1.874059986305624 0 0.57126208756431718 1.7446576805156051 0 0.42857142856855118 1.752171560420507 0 0.49927531931007929 1.874059986305624 0 0.57126208756431718 1.7446576805156051 0 0.49948637524749079 1.619889960661181 0 0.42857142856855118 1.752171560420507 0 0.28571428571359381 3 0 0.35723491808528102 2.87959107373845 0 0.42857142857032021 3 0 0.28571428571359381 3 0 0.35723491808528102 2.87959107373845 0 0.21715807700202869 2.883451219163276 0 0.35723491808528102 2.87959107373845 0 0.21715807700202869 2.883451219163276 0 0.28318912013054431 2.760198231945127 0 0.28571428571359381 3 0 0.21715807700202869 2.883451219163276 0 0.14285714285686729 3 0 0.21715807700202869 2.883451219163276 0 0.14285714285686729 3 0 0.10457868679552811 2.8954213132043991 0 0 3 0 0 2.8571428571428572 0 0.10457868679552811 2.8954213132043991 0 0.14285714285686729 3 0 0 3 0 0.10457868679552811 2.8954213132043991 0 0 2.8571428571428572 0 0.10457868679552811 2.8954213132043991 0 0.1281705103889878 2.7695156015839308 0 0.21715807700202869 2.883451219163276 0 0.10457868679552811 2.8954213132043991 0 0.1281705103889878 2.7695156015839308 0 0 2.8571428571428572 0 0.1281705103889878 2.7695156015839308 0 0 2.714285714285714 0 0.1281705103889878 2.7695156015839308 0 0 2.714285714285714 0 0.088385776599930521 2.6428571428571428 0 0 2.714285714285714 0 0.088385776599930521 2.6428571428571428 0 0 2.5714285714285712 0 0.1281705103889878 2.7695156015839308 0 0.088385776599930521 2.6428571428571428 0 0.20858437319687029 2.6372026952866259 0 0.21715807700202869 2.883451219163276 0 0.1281705103889878 2.7695156015839308 0 0.28318912013054431 2.760198231945127 0 0.1281705103889878 2.7695156015839308 0 0.20858437319687029 2.6372026952866259 0 0.28318912013054431 2.760198231945127 0 0.35723491808528102 2.87959107373845 0 0.28318912013054431 2.760198231945127 0 0.42772459507389821 2.7570075324977932 0 0.28318912013054431 2.760198231945127 0 0.35404229584497637 2.6340860160603379 0 0.42772459507389821 2.7570075324977932 0 0.20858437319687029 2.6372026952866259 0 0.28318912013054431 2.760198231945127 0 0.35404229584497637 2.6340860160603379 0 0.35404229584497637 2.6340860160603379 0 0.27804612003648221 2.5054084513396928 0 0.42593700932761791 2.506789458287197 0 0.27804612003648221 2.5054084513396928 0 0.35661818314176918 2.3798265358021551 0 0.42593700932761791 2.506789458287197 0 0.27804612003648221 2.5054084513396928 0 0.1265427876282616 2.5018227006931442 0 0.21204462330903229 2.3718021773825648 0 0.20858437319687029 2.6372026952866259 0 0.27804612003648221 2.5054084513396928 0 0.1265427876282616 2.5018227006931442 0 0.20858437319687029 2.6372026952866259 0 0.35404229584497637 2.6340860160603379 0 0.27804612003648221 2.5054084513396928 0 0.088385776599930521 2.6428571428571428 0 0.20858437319687029 2.6372026952866259 0 0.1265427876282616 2.5018227006931442 0 0.088385776599930521 2.6428571428571428 0 0 2.5714285714285712 0 0.1265427876282616 2.5018227006931442 0 0 2.5714285714285712 0 0.1265427876282616 2.5018227006931442 0 0 2.4285714285714279 0 0.1265427876282616 2.5018227006931442 0 0.093464308857803033 2.363366120127246 0 0.21204462330903229 2.3718021773825648 0 0.1265427876282616 2.5018227006931442 0 0.093464308857803033 2.363366120127246 0 0 2.4285714285714279 0 0.093464308857803033 2.363366120127246 0 0 2.4285714285714279 0 0 2.2857142857142851 0 0.12873413335172121 2.2289200082748062 0 0.093464308857803033 2.363366120127246 0 0 2.2857142857142851 0 0.12873413335172121 2.2289200082748062 0 0.093464308857803033 2.363366120127246 0 0.21204462330903229 2.3718021773825648 0 0.12873413335172121 2.2289200082748062 0 0.2815234200304122 2.2453819797430978 0 0.21204462330903229 2.3718021773825648 0 0.27804612003648221 2.5054084513396928 0 0.21204462330903229 2.3718021773825648 0 0.35661818314176918 2.3798265358021551 0 0.2815234200304122 2.2453819797430978 0 0.21204462330903229 2.3718021773825648 0 0.35661818314176918 2.3798265358021551 0 0.2815234200304122 2.2453819797430978 0 0.42857142856855918 2.2478284395795001 0 0.35661818314176918 2.3798265358021551 0 0.42857142856855918 2.2478284395795001 0 0.35661818314176918 2.3798265358021551 0 0.49948637524749862 2.3801100393388199 0 0.35661818314176918 2.3798265358021551 0 0.49948637524749862 2.3801100393388199 0 0.42593700932761791 2.506789458287197 0 0.42857142856855918 2.2478284395795001 0 0.49948637524749862 2.3801100393388199 0 0.57126208756432351 2.2553423194843969 0 0.49948637524749862 2.3801100393388199 0 0.57126208756432351 2.2553423194843969 0 0.64269698385325302 2.3812604672285489 0 0.57126208756432351 2.2553423194843969 0 0.7133104372685124 2.2558131098502412 0 0.64269698385325302 2.3812604672285489 0 0.7133104372685124 2.2558131098502412 0 0.64269698385325302 2.3812604672285489 0 0.78571428571189661 2.3814104258676352 0 0.64269698385325302 2.3812604672285489 0 0.714285714283452 2.5051283406940419 0 0.78571428571189661 2.3814104258676352 0 0.49948637524749862 2.3801100393388199 0 0.64269698385325302 2.3812604672285489 0 0.57098124216804058 2.5055289753875498 0 0.64269698385325302 2.3812604672285489 0 0.57098124216804058 2.5055289753875498 0 0.714285714283452 2.5051283406940419 0 0.714285714283452 2.5051283406940419 0 0.64248101537579549 2.6292191863959529 0 0.78389141510404725 2.630919560373445 0 0.57098124216804058 2.5055289753875498 0 0.49769215192748217 2.6308771328039229 0 0.64248101537579549 2.6292191863959529 0 0.57098124216804058 2.5055289753875498 0 0.714285714283452 2.5051283406940419 0 0.64248101537579549 2.6292191863959529 0 0.57098124216804058 2.5055289753875498 0 0.42593700932761791 2.506789458287197 0 0.49769215192748217 2.6308771328039229 0 0.49948637524749862 2.3801100393388199 0 0.57098124216804058 2.5055289753875498 0 0.42593700932761791 2.506789458287197 0 0.35404229584497637 2.6340860160603379 0 0.42593700932761791 2.506789458287197 0 0.49769215192748217 2.6308771328039229 0 0.35404229584497637 2.6340860160603379 0 0.42772459507389821 2.7570075324977932 0 0.49769215192748217 2.6308771328039229 0 0.42772459507389821 2.7570075324977932 0 0.57147965461976069 2.752770878316519 0 0.50105200202130085 2.8768894588245049 0 0.42772459507389821 2.7570075324977932 0 0.49769215192748217 2.6308771328039229 0 0.57147965461976069 2.752770878316519 0 0.49769215192748217 2.6308771328039229 0 0.64248101537579549 2.6292191863959529 0 0.57147965461976069 2.752770878316519 0 0.64248101537579549 2.6292191863959529 0 0.71318645322081142 2.7532979010713579 0 0.57147965461976069 2.752770878316519 0 0.64248101537579549 2.6292191863959529 0 0.71318645322081142 2.7532979010713579 0 0.78389141510404725 2.630919560373445 0 0.71318645322081142 2.7532979010713579 0 0.57147965461976069 2.752770878316519 0 0.64211163998861565 2.8769149593383769 0 0.57147965461976069 2.752770878316519 0 0.64211163998861565 2.8769149593383769 0 0.50105200202130085 2.8768894588245049 0 0.71318645322081142 2.7532979010713579 0 0.64211163998861565 2.8769149593383769 0 0.78018926648583442 2.8794719565116988 0 0.64211163998861565 2.8769149593383769 0 0.71428571428496201 3 0 0.78018926648583442 2.8794719565116988 0 0.64211163998861565 2.8769149593383769 0 0.71428571428496201 3 0 0.57142857142744297 3 0 0.64211163998861565 2.8769149593383769 0 0.57142857142744297 3 0 0.50105200202130085 2.8768894588245049 0 0.57142857142744297 3 0 0.50105200202130085 2.8768894588245049 0 0.42857142857032021 3 0 0.35723491808528102 2.87959107373845 0 0.42772459507389821 2.7570075324977932 0 0.50105200202130085 2.8768894588245049 0 0.35723491808528102 2.87959107373845 0 0.50105200202130085 2.8768894588245049 0 0.42857142857032021 3 0 1.1045786867955549 2.8954213132044448 0 1 3 0 1.142857142857143 3 0 1.1045786867955549 2.8954213132044448 0 1 2.8571428571428572 0 1 3 0 1.1045786867955549 2.8954213132044448 0 1 2.8571428571428572 0 1.1205280434878859 2.780189266486456 0 1 2.8571428571428572 0 1 3 0 0.89542131320410789 2.8954213132042099 0 1 3 0 0.85714285714248095 3 0 0.89542131320410789 2.8954213132042099 0 0.85714285714248095 3 0 0.78018926648583442 2.8794719565116988 0 0.89542131320410789 2.8954213132042099 0 0.71428571428496201 3 0 0.85714285714248095 3 0 0.78018926648583442 2.8794719565116988 0 1 2.8571428571428572 0 0.89542131320410789 2.8954213132042099 0 0.86814175826561968 2.7676280636349269 0 0.78018926648583442 2.8794719565116988 0 0.89542131320410789 2.8954213132042099 0 0.86814175826561968 2.7676280636349269 0 0.71318645322081142 2.7532979010713579 0 0.78018926648583442 2.8794719565116988 0 0.86814175826561968 2.7676280636349269 0 0.71318645322081142 2.7532979010713579 0 0.86814175826561968 2.7676280636349269 0 0.78389141510404725 2.630919560373445 0 0.86814175826561968 2.7676280636349269 0 0.78389141510404725 2.630919560373445 0 0.9044833397938421 2.6408474355902611 0 0.86814175826561968 2.7676280636349269 0 0.9044833397938421 2.6408474355902611 0 1 2.714285714285714 0 0.9044833397938421 2.6408474355902611 0 1 2.714285714285714 0 1 2.5714285714285712 0 1 2.8571428571428572 0 0.86814175826561968 2.7676280636349269 0 1 2.714285714285714 0 1 2.8571428571428572 0 1 2.714285714285714 0 1.1205280434878859 2.780189266486456 0 1 2.714285714285714 0 1.1231862696032711 2.6419363063191699 0 1 2.5714285714285712 0 1 2.714285714285714 0 1.1205280434878859 2.780189266486456 0 1.1231862696032711 2.6419363063191699 0 1.1231862696032711 2.6419363063191699 0 1.1237179148263481 2.4999999999999978 0 1 2.5714285714285712 0 1.1237179148263481 2.4999999999999978 0 1 2.5714285714285712 0 1 2.4285714285714279 0 1 2.5714285714285712 0 0.87194859075748876 2.5024506208783599 0 1 2.4285714285714279 0 0.78389141510404725 2.630919560373445 0 0.9044833397938421 2.6408474355902611 0 0.87194859075748876 2.5024506208783599 0 0.9044833397938421 2.6408474355902611 0 1 2.5714285714285712 0 0.87194859075748876 2.5024506208783599 0 0.714285714283452 2.5051283406940419 0 0.78389141510404725 2.630919560373445 0 0.87194859075748876 2.5024506208783599 0 0.714285714283452 2.5051283406940419 0 0.87194859075748876 2.5024506208783599 0 0.78571428571189661 2.3814104258676352 0 0.87194859075748876 2.5024506208783599 0 0.905136104095428 2.367107595633493 0 0.78571428571189661 2.3814104258676352 0 0.87194859075748876 2.5024506208783599 0 0.905136104095428 2.367107595633493 0 1 2.4285714285714279 0 0.7133104372685124 2.2558131098502412 0 0.78571428571189661 2.3814104258676352 0 0.86801764400775483 2.2373912171357588 0 0.905136104095428 2.367107595633493 0 0.78571428571189661 2.3814104258676352 0 0.86801764400775483 2.2373912171357588 0 0.905136104095428 2.367107595633493 0 1 2.2857142857142851 0 0.86801764400775483 2.2373912171357588 0 0.905136104095428 2.367107595633493 0 1 2.2857142857142851 0 1 2.4285714285714279 0 1.1237179148263481 2.4999999999999978 0 1 2.4285714285714279 0 1.124445554570056 2.3535499438421961 0 1 2.2857142857142851 0 1 2.4285714285714279 0 1.124445554570056 2.3535499438421961 0 1 2.2857142857142851 0 1.124445554570056 2.3535499438421961 0 1.1237179148263481 2.2142857142857149 0 1.124445554570056 2.3535499438421961 0 1.2437589323753271 2.2790339186609172 0 1.1237179148263481 2.2142857142857149 0 1.1237179148263481 2.4999999999999978 0 1.124445554570056 2.3535499438421961 0 1.247435829652694 2.4285714285714248 0 1.124445554570056 2.3535499438421961 0 1.247435829652694 2.4285714285714248 0 1.2437589323753271 2.2790339186609172 0 1.247435829652694 2.4285714285714248 0 1.2437589323753271 2.2790339186609172 0 1.367319104369215 2.3469268258187319 0 1.2437589323753271 2.2790339186609172 0 1.367319104369215 2.3469268258187319 0 1.3682878852476059 2.2035940021081579 0 1.4944588869160489 2.2778135148397252 0 1.367319104369215 2.3469268258187319 0 1.3682878852476059 2.2035940021081579 0 1.49336243329776 2.4259573724460979 0 1.367319104369215 2.3469268258187319 0 1.3698831109599341 2.4977991981870939 0 1.4944588869160489 2.2778135148397252 0 1.49336243329776 2.4259573724460979 0 1.367319104369215 2.3469268258187319 0 1.247435829652694 2.4285714285714248 0 1.367319104369215 2.3469268258187319 0 1.3698831109599341 2.4977991981870939 0 1.49336243329776 2.4259573724460979 0 1.3698831109599341 2.4977991981870939 0 1.4946221303562011 2.5709963746106008 0 1.3698831109599341 2.4977991981870939 0 1.4946221303562011 2.5709963746106008 0 1.370927204302999 2.6424647637622658 0 1.3698831109599341 2.4977991981870939 0 1.2473472221155171 2.5712750986722401 0 1.370927204302999 2.6424647637622658 0 1.247435829652694 2.4285714285714248 0 1.3698831109599341 2.4977991981870939 0 1.2473472221155171 2.5712750986722401 0 1.1237179148263481 2.4999999999999978 0 1.247435829652694 2.4285714285714248 0 1.2473472221155171 2.5712750986722401 0 1.1231862696032711 2.6419363063191699 0 1.1237179148263481 2.4999999999999978 0 1.2473472221155171 2.5712750986722401 0 1.1205280434878859 2.780189266486456 0 1.1231862696032711 2.6419363063191699 0 1.2467630522735731 2.713120429682879 0 1.1231862696032711 2.6419363063191699 0 1.2473472221155171 2.5712750986722401 0 1.2467630522735731 2.713120429682879 0 1.1205280434878859 2.780189266486456 0 1.2467630522735731 2.713120429682879 0 1.2323855807482531 2.8681303673999259 0 1.2467630522735731 2.713120429682879 0 1.3691149969664549 2.7838777025796868 0 1.2323855807482531 2.8681303673999259 0 1.2473472221155171 2.5712750986722401 0 1.2467630522735731 2.713120429682879 0 1.370927204302999 2.6424647637622658 0 1.2467630522735731 2.713120429682879 0 1.370927204302999 2.6424647637622658 0 1.3691149969664549 2.7838777025796868 0 1.370927204302999 2.6424647637622658 0 1.4948716593053959 2.7142857142857029 0 1.3691149969664549 2.7838777025796868 0 1.4946221303562011 2.5709963746106008 0 1.370927204302999 2.6424647637622658 0 1.4948716593053959 2.7142857142857029 0 1.4948716593053959 2.7142857142857029 0 1.3691149969664549 2.7838777025796868 0 1.49754937912118 2.871948590758397 0 1.3691149969664549 2.7838777025796868 0 1.3591560776536049 2.904481510101697 0 1.2323855807482531 2.8681303673999259 0 1.3691149969664549 2.7838777025796868 0 1.3591560776536049 2.904481510101697 0 1.49754937912118 2.871948590758397 0 1.3591560776536049 2.904481510101697 0 1.49754937912118 2.871948590758397 0 1.4285714285714279 3 0 1.49754937912118 2.871948590758397 0 1.4285714285714279 3 0 1.571428571428571 3 0 1.3591560776536049 2.904481510101697 0 1.4285714285714279 3 0 1.2857142857142849 3 0 1.3591560776536049 2.904481510101697 0 1.2857142857142849 3 0 1.2323855807482531 2.8681303673999259 0 1.2857142857142849 3 0 1.2323855807482531 2.8681303673999259 0 1.142857142857143 3 0 1.1045786867955549 2.8954213132044448 0 1.1205280434878859 2.780189266486456 0 1.2323855807482531 2.8681303673999259 0 1.1045786867955549 2.8954213132044448 0 1.2323855807482531 2.8681303673999259 0 1.142857142857143 3 0 1 1.714285714285714 0 1 1.857142857142857 0 0.86801764400775172 1.7626087828642401 0 1 1.857142857142857 0 1.1045786867955549 1.895421313204446 0 1.1286816305548799 1.7669740022979501 0 1 1.714285714285714 0 1.0919758494404179 1.6390607956138989 0 1.1286816305548799 1.7669740022979501 0 1 1.714285714285714 0 1 1.857142857142857 0 1.1286816305548799 1.7669740022979501 0 1.0919758494404179 1.6390607956138989 0 1 1.571428571428571 0 1.1265427876294609 1.501822700692834 0 1 1.4285714285714279 0 1 1.571428571428571 0 1.1265427876294609 1.501822700692834 0 1 1.714285714285714 0 1.0919758494404179 1.6390607956138989 0 1 1.571428571428571 0 1 1.714285714285714 0 1 1.571428571428571 0 0.90513610409542911 1.632892404366491 0 0.90513610409542911 1.632892404366491 0 0.78571428571188839 1.618589574132365 0 0.86801764400775172 1.7626087828642401 0 0.87194859075750586 1.497549379121565 0 1 1.571428571428571 0 0.90513610409542911 1.632892404366491 0 0.87194859075750586 1.497549379121565 0 0.90513610409542911 1.632892404366491 0 0.78571428571188839 1.618589574132365 0 0.87194859075750586 1.497549379121565 0 0.71428571428344279 1.494871659305963 0 0.78571428571188839 1.618589574132365 0 0.71331043726850674 1.744186890149759 0 0.78571428571188839 1.618589574132365 0 0.86801764400775172 1.7626087828642401 0 1 1.714285714285714 0 0.90513610409542911 1.632892404366491 0 0.86801764400775172 1.7626087828642401 0 1 1.857142857142857 0 0.86801764400775172 1.7626087828642401 0 0.89542131320410678 1.895421313204209 0 0.86801764400775172 1.7626087828642401 0 0.78018926648514864 1.8744090508059901 0 0.89542131320410678 1.895421313204209 0 0.71331043726850674 1.744186890149759 0 0.86801764400775172 1.7626087828642401 0 0.78018926648514864 1.8744090508059901 0 0.71428571428496201 2 0 0.78018926648514864 1.8744090508059901 0 0.85714285714248095 2 0 0.71428571428496201 2 0 0.85714285714248095 2 0 0.78018926648515108 2.1255909491940099 0 0.85714285714248095 2 0 0.8954213132041059 2.1045786867957932 0 1 2 0 0.78018926648514864 1.8744090508059901 0 0.85714285714248095 2 0 0.89542131320410678 1.895421313204209 0 0.85714285714248095 2 0 0.89542131320410678 1.895421313204209 0 1 2 0 0.7133104372685124 2.2558131098502412 0 0.78018926648515108 2.1255909491940099 0 0.86801764400775483 2.2373912171357588 0 0.78018926648515108 2.1255909491940099 0 0.8954213132041059 2.1045786867957932 0 0.86801764400775483 2.2373912171357588 0 0.85714285714248095 2 0 0.78018926648515108 2.1255909491940099 0 0.8954213132041059 2.1045786867957932 0 0.8954213132041059 2.1045786867957932 0 0.86801764400775483 2.2373912171357588 0 1 2.1428571428571428 0 1 2.2857142857142851 0 0.86801764400775483 2.2373912171357588 0 1 2.1428571428571428 0 0.8954213132041059 2.1045786867957932 0 1 2.1428571428571428 0 1 2 0 1 2.1428571428571428 0 1.1045786867955549 2.1045786867955538 0 1.1237179148263481 2.2142857142857149 0 1 2.1428571428571428 0 1.1045786867955549 2.1045786867955538 0 1 2 0 1 2.2857142857142851 0 1 2.1428571428571428 0 1.1237179148263481 2.2142857142857149 0 1 1.857142857142857 0 0.89542131320410678 1.895421313204209 0 1 2 0 1.1045786867955549 2.1045786867955538 0 1 2 0 1.142857142857143 2 0 1 2 0 1.1045786867955549 1.895421313204446 0 1.142857142857143 2 0 1 1.857142857142857 0 1 2 0 1.1045786867955549 1.895421313204446 0 1.1045786867955549 1.895421313204446 0 1.142857142857143 2 0 1.2202906086958949 1.8808023822399611 0 1.142857142857143 2 0 1.2857142857142849 2 0 1.2202906086958949 1.8808023822399611 0 1.142857142857143 2 0 1.2857142857142849 2 0 1.23134730558604 2.127275597339279 0 1.2857142857142849 2 0 1.2202906086958949 1.8808023822399611 0 1.3583104310875389 1.876956184304913 0 1.2437589323753271 2.2790339186609172 0 1.1237179148263481 2.2142857142857149 0 1.23134730558604 2.127275597339279 0 1.1045786867955549 2.1045786867955538 0 1.1237179148263481 2.2142857142857149 0 1.23134730558604 2.127275597339279 0 1.1045786867955549 2.1045786867955538 0 1.142857142857143 2 0 1.23134730558604 2.127275597339279 0 1.2857142857142849 2 0 1.23134730558604 2.127275597339279 0 1.357142857142857 2.0883857766009042 0 1.2437589323753271 2.2790339186609172 0 1.23134730558604 2.127275597339279 0 1.3682878852476059 2.2035940021081579 0 1.23134730558604 2.127275597339279 0 1.3682878852476059 2.2035940021081579 0 1.357142857142857 2.0883857766009042 0 1.357142857142857 2.0883857766009042 0 1.4981772993071649 2.1265427876294591 0 1.4285714285714279 2 0 1.3682878852476059 2.2035940021081579 0 1.357142857142857 2.0883857766009042 0 1.4981772993071649 2.1265427876294591 0 1.4944588869160489 2.2778135148397252 0 1.3682878852476059 2.2035940021081579 0 1.4981772993071649 2.1265427876294591 0 1.2857142857142849 2 0 1.3583104310875389 1.876956184304913 0 1.4285714285714279 2 0 1.2857142857142849 2 0 1.357142857142857 2.0883857766009042 0 1.4285714285714279 2 0 1.4981772993071649 2.1265427876294591 0 1.4285714285714279 2 0 1.571428571428571 2 0 1.4285714285714279 2 0 1.4999999999999989 1.876282085173651 0 1.571428571428571 2 0 1.3583104310875389 1.876956184304913 0 1.4285714285714279 2 0 1.4999999999999989 1.876282085173651 0 1.3583104310875389 1.876956184304913 0 1.4999999999999989 1.876282085173651 0 1.4287660242288751 1.752676520202513 0 1.4287660242288751 1.752676520202513 0 1.284542510538256 1.7535733272041241 0 1.35657912408646 1.6297632267705111 0 1.3583104310875389 1.876956184304913 0 1.4287660242288751 1.752676520202513 0 1.284542510538256 1.7535733272041241 0 1.2202906086958949 1.8808023822399611 0 1.3583104310875389 1.876956184304913 0 1.284542510538256 1.7535733272041241 0 1.284542510538256 1.7535733272041241 0 1.1286816305548799 1.7669740022979501 0 1.211834974696774 1.6332002948779361 0 1.2202906086958949 1.8808023822399611 0 1.284542510538256 1.7535733272041241 0 1.1286816305548799 1.7669740022979501 0 1.1045786867955549 1.895421313204446 0 1.2202906086958949 1.8808023822399611 0 1.1286816305548799 1.7669740022979501 0 1.0919758494404179 1.6390607956138989 0 1.1265427876294609 1.501822700692834 0 1.211834974696774 1.6332002948779361 0 1.1265427876294609 1.501822700692834 0 1.211834974696774 1.6332002948779361 0 1.285714285714282 1.505128340694609 0 1.0919758494404179 1.6390607956138989 0 1.1286816305548799 1.7669740022979501 0 1.211834974696774 1.6332002948779361 0 1.284542510538256 1.7535733272041241 0 1.211834974696774 1.6332002948779361 0 1.35657912408646 1.6297632267705111 0 1.211834974696774 1.6332002948779361 0 1.285714285714282 1.505128340694609 0 1.35657912408646 1.6297632267705111 0 1.285714285714282 1.505128340694609 0 1.35657912408646 1.6297632267705111 0 1.42857911129607 1.505132776317748 0 1.4287660242288751 1.752676520202513 0 1.35657912408646 1.6297632267705111 0 1.500037838044501 1.628868101326133 0 1.35657912408646 1.6297632267705111 0 1.42857911129607 1.505132776317748 0 1.500037838044501 1.628868101326133 0 1.42857911129607 1.505132776317748 0 1.5714368297319321 1.505133108628274 0 1.500037838044501 1.628868101326133 0 1.5714368297319321 1.505133108628274 0 1.500037838044501 1.628868101326133 0 1.642868854632821 1.6288530173177931 0 1.500037838044501 1.628868101326133 0 1.642868854632821 1.6288530173177931 0 1.571461004038144 1.7525828953231699 0 1.5714368297319321 1.505133108628274 0 1.642868854632821 1.6288530173177931 0 1.7164690164522749 1.505013992076764 0 1.642868854632821 1.6288530173177931 0 1.7164690164522749 1.505013992076764 0 1.7839870186351829 1.630825559243579 0 1.642868854632821 1.6288530173177931 0 1.7839870186351829 1.630825559243579 0 1.713372235145284 1.7531000633658289 0 1.7839870186351829 1.630825559243579 0 1.868181956188198 1.767586372373096 0 1.904493237859993 1.64083754547551 0 1.7839870186351829 1.630825559243579 0 1.871948590758401 1.50245062087882 0 1.904493237859993 1.64083754547551 0 1.7164690164522749 1.505013992076764 0 1.7839870186351829 1.630825559243579 0 1.871948590758401 1.50245062087882 0 1.868181956188198 1.767586372373096 0 1.713372235145284 1.7531000633658289 0 1.7801892664864549 1.879471956512115 0 1.868181956188198 1.767586372373096 0 1.7801892664864549 1.879471956512115 0 1.8954213132044451 1.8954213132044451 0 1.7839870186351829 1.630825559243579 0 1.868181956188198 1.767586372373096 0 1.713372235145284 1.7531000633658289 0 1.713372235145284 1.7531000633658289 0 1.6417894652306939 1.876906166729128 0 1.7801892664864549 1.879471956512115 0 1.713372235145284 1.7531000633658289 0 1.571461004038144 1.7525828953231699 0 1.6417894652306939 1.876906166729128 0 1.642868854632821 1.6288530173177931 0 1.713372235145284 1.7531000633658289 0 1.571461004038144 1.7525828953231699 0 1.4287660242288751 1.752676520202513 0 1.500037838044501 1.628868101326133 0 1.571461004038144 1.7525828953231699 0 1.4999999999999989 1.876282085173651 0 1.571461004038144 1.7525828953231699 0 1.6417894652306939 1.876906166729128 0 1.4999999999999989 1.876282085173651 0 1.4287660242288751 1.752676520202513 0 1.571461004038144 1.7525828953231699 0 1.4999999999999989 1.876282085173651 0 1.571428571428571 2 0 1.6417894652306939 1.876906166729128 0 1.571428571428571 2 0 1.6428571428571419 2.0966122299857219 0 1.714285714285714 2 0 1.571428571428571 2 0 1.6417894652306939 1.876906166729128 0 1.714285714285714 2 0 1.4944588869160489 2.2778135148397252 0 1.4981772993071649 2.1265427876294591 0 1.618589574131738 2.2142857142857051 0 1.4981772993071649 2.1265427876294591 0 1.571428571428571 2 0 1.6428571428571419 2.0966122299857219 0 1.4981772993071649 2.1265427876294591 0 1.6428571428571419 2.0966122299857219 0 1.618589574131738 2.2142857142857051 0 1.6428571428571419 2.0966122299857219 0 1.618589574131738 2.2142857142857051 0 1.764905672277584 2.1309733946265141 0 1.618589574131738 2.2142857142857051 0 1.764905672277584 2.1309733946265141 0 1.7480830732282899 2.2842008379910128 0 1.6428571428571419 2.0966122299857219 0 1.764905672277584 2.1309733946265141 0 1.714285714285714 2 0 1.764905672277584 2.1309733946265141 0 1.8779600310929021 2.2171362933276071 0 1.895421313204446 2.1045786867955552 0 1.764905672277584 2.1309733946265141 0 1.857142857142857 2 0 1.895421313204446 2.1045786867955552 0 1.764905672277584 2.1309733946265141 0 1.8779600310929021 2.2171362933276071 0 1.7480830732282899 2.2842008379910128 0 1.6417894652306939 1.876906166729128 0 1.7801892664864549 1.879471956512115 0 1.714285714285714 2 0 1.764905672277584 2.1309733946265141 0 1.714285714285714 2 0 1.857142857142857 2 0 1.7801892664864549 1.879471956512115 0 1.714285714285714 2 0 1.857142857142857 2 0 1.7801892664864549 1.879471956512115 0 1.857142857142857 2 0 1.8954213132044451 1.8954213132044451 0 1.8954213132044451 1.8954213132044451 0 2 2 0 2 1.857142857142857 0 1.857142857142857 2 0 1.8954213132044451 1.8954213132044451 0 2 2 0 1.857142857142857 2 0 2 2 0 1.895421313204446 2.1045786867955552 0 2 2 0 2.1045786867955552 1.8954213132044451 0 2 1.857142857142857 0 1.8779600310929021 2.2171362933276071 0 2 2.1428571428571428 0 2 2.2857142857142851 0 2 2 0 1.895421313204446 2.1045786867955552 0 2 2.1428571428571428 0 1.8779600310929021 2.2171362933276071 0 1.895421313204446 2.1045786867955552 0 2 2.1428571428571428 0 2 2 0 2 2.1428571428571428 0 2.1045786867955552 2.1045786867955552 0 2 2.1428571428571428 0 2.1237179148263481 2.2142857142857149 0 2 2.2857142857142851 0 2 2.1428571428571428 0 2.1237179148263481 2.2142857142857149 0 2.1045786867955552 2.1045786867955552 0 2.1237179148263481 2.2142857142857149 0 2.1045786867955552 2.1045786867955552 0 2.2313473055860129 2.1272755973392572 0 2.1045786867955552 2.1045786867955552 0 2.2313473055860129 2.1272755973392572 0 2.1428571428571428 2 0 2.1237179148263481 2.2142857142857149 0 2.2313473055860129 2.1272755973392572 0 2.2437590376264152 2.2790339820013181 0 2 2 0 2.1045786867955552 1.8954213132044451 0 2.1428571428571428 2 0 2.1045786867955552 1.8954213132044451 0 2.1428571428571428 2 0 2.2202906086958931 1.880802382239964 0 2 2 0 2.1045786867955552 2.1045786867955552 0 2.1428571428571428 2 0 2.2313473055860129 2.1272755973392572 0 2.1428571428571428 2 0 2.2857142857142851 2 0 2.1428571428571428 2 0 2.2202906086958931 1.880802382239964 0 2.2857142857142851 2 0 2.2202906086958931 1.880802382239964 0 2.1286816305548801 1.7669740022979501 0 2.2845425105382549 1.7535733272041241 0 2.1045786867955552 1.8954213132044451 0 2.2202906086958931 1.880802382239964 0 2.1286816305548801 1.7669740022979501 0 2.1045786867955552 1.8954213132044451 0 2.1286816305548801 1.7669740022979501 0 2 1.857142857142857 0 2.1286816305548801 1.7669740022979501 0 2.0920210771696688 1.6392662971026759 0 2 1.714285714285714 0 2.1286816305548801 1.7669740022979501 0 2.2118802024260251 1.6334057963667139 0 2.2845425105382549 1.7535733272041241 0 2.2118802024260251 1.6334057963667139 0 2.1268141540049612 1.5030557096254999 0 2.2857142857142878 1.505128340694611 0 2.1268141540049612 1.5030557096254999 0 2.0920210771696688 1.6392662971026759 0 2 1.571428571428571 0 2.2118802024260251 1.6334057963667139 0 2.1268141540049612 1.5030557096254999 0 2.0920210771696688 1.6392662971026759 0 2.1286816305548801 1.7669740022979501 0 2.2118802024260251 1.6334057963667139 0 2.0920210771696688 1.6392662971026759 0 2.0920210771696688 1.6392662971026759 0 2 1.571428571428571 0 2 1.714285714285714 0 2.1268141540049612 1.5030557096254999 0 2 1.571428571428571 0 2 1.4285714285714279 0 1.871948590758401 1.50245062087882 0 2 1.571428571428571 0 1.904493237859993 1.64083754547551 0 1.871948590758401 1.50245062087882 0 2 1.571428571428571 0 2 1.4285714285714279 0 2 1.571428571428571 0 1.904493237859993 1.64083754547551 0 2 1.714285714285714 0 1.868181956188198 1.767586372373096 0 2 1.857142857142857 0 2 1.714285714285714 0 1.868181956188198 1.767586372373096 0 1.904493237859993 1.64083754547551 0 2 1.714285714285714 0 1.868181956188198 1.767586372373096 0 1.8954213132044451 1.8954213132044451 0 2 1.857142857142857 0 2.1286816305548801 1.7669740022979501 0 2 1.857142857142857 0 2 1.714285714285714 0 1.857142857142857 3 0 1.7625829828895341 2.8680117993848531 0 1.895421313204446 2.8954213132044462 0 1.7625829828895341 2.8680117993848531 0 1.8744090508054969 2.7801892664864498 0 1.895421313204446 2.8954213132044462 0 1.857142857142857 3 0 1.7625829828895341 2.8680117993848531 0 1.714285714285714 3 0 1.7625829828895341 2.8680117993848531 0 1.714285714285714 3 0 1.6328872443713489 2.905134935171505 0 1.714285714285714 3 0 1.571428571428571 3 0 1.6328872443713489 2.905134935171505 0 1.49754937912118 2.871948590758397 0 1.571428571428571 3 0 1.6328872443713489 2.905134935171505 0 1.49754937912118 2.871948590758397 0 1.6328872443713489 2.905134935171505 0 1.618589574131748 2.7857142857142771 0 1.7625829828895341 2.8680117993848531 0 1.6328872443713489 2.905134935171505 0 1.618589574131748 2.7857142857142771 0 1.4948716593053959 2.7142857142857029 0 1.49754937912118 2.871948590758397 0 1.618589574131748 2.7857142857142771 0 1.4948716593053959 2.7142857142857029 0 1.618589574131748 2.7857142857142771 0 1.618499131669189 2.6427004919168251 0 1.4946221303562011 2.5709963746106008 0 1.4948716593053959 2.7142857142857029 0 1.618499131669189 2.6427004919168251 0 1.618589574131748 2.7857142857142771 0 1.618499131669189 2.6427004919168251 0 1.744006290327982 2.7132695249030081 0 1.618499131669189 2.6427004919168251 0 1.744006290327982 2.7132695249030081 0 1.7438144826910189 2.571013105300513 0 1.7625829828895341 2.8680117993848531 0 1.618589574131748 2.7857142857142771 0 1.744006290327982 2.7132695249030081 0 1.7625829828895341 2.8680117993848531 0 1.744006290327982 2.7132695249030081 0 1.8744090508054969 2.7801892664864498 0 1.744006290327982 2.7132695249030081 0 1.8744090508054969 2.7801892664864498 0 1.869528722044044 2.6422655888827711 0 1.744006290327982 2.7132695249030081 0 1.869528722044044 2.6422655888827711 0 1.7438144826910189 2.571013105300513 0 1.869528722044044 2.6422655888827711 0 1.8728601884303651 2.4999999999999969 0 1.7438144826910189 2.571013105300513 0 1.8728601884303651 2.4999999999999969 0 1.7438144826910189 2.571013105300513 0 1.7445056250705191 2.4267429915673051 0 1.7438144826910189 2.571013105300513 0 1.6182964483056039 2.499492291176109 0 1.7445056250705191 2.4267429915673051 0 1.618499131669189 2.6427004919168251 0 1.7438144826910189 2.571013105300513 0 1.6182964483056039 2.499492291176109 0 1.4946221303562011 2.5709963746106008 0 1.618499131669189 2.6427004919168251 0 1.6182964483056039 2.499492291176109 0 1.49336243329776 2.4259573724460979 0 1.4946221303562011 2.5709963746106008 0 1.6182964483056039 2.499492291176109 0 1.6182964483056039 2.499492291176109 0 1.619225602145042 2.355202188835702 0 1.7445056250705191 2.4267429915673051 0 1.49336243329776 2.4259573724460979 0 1.6182964483056039 2.499492291176109 0 1.619225602145042 2.355202188835702 0 1.4944588869160489 2.2778135148397252 0 1.49336243329776 2.4259573724460979 0 1.619225602145042 2.355202188835702 0 1.4944588869160489 2.2778135148397252 0 1.618589574131738 2.2142857142857051 0 1.619225602145042 2.355202188835702 0 1.618589574131738 2.2142857142857051 0 1.619225602145042 2.355202188835702 0 1.7480830732282899 2.2842008379910128 0 1.619225602145042 2.355202188835702 0 1.7480830732282899 2.2842008379910128 0 1.7445056250705191 2.4267429915673051 0 1.8728601884303651 2.4999999999999969 0 1.7445056250705191 2.4267429915673051 0 1.8702227561605891 2.3565050932945648 0 1.7480830732282899 2.2842008379910128 0 1.7445056250705191 2.4267429915673051 0 1.8702227561605891 2.3565050932945648 0 1.8779600310929021 2.2171362933276071 0 1.7480830732282899 2.2842008379910128 0 1.8702227561605891 2.3565050932945648 0 1.8779600310929021 2.2171362933276071 0 1.8702227561605891 2.3565050932945648 0 2 2.2857142857142851 0 1.8702227561605891 2.3565050932945648 0 2 2.4285714285714279 0 2 2.2857142857142851 0 1.8728601884303651 2.4999999999999969 0 1.8702227561605891 2.3565050932945648 0 2 2.4285714285714279 0 2 2.4285714285714279 0 2 2.2857142857142851 0 2.1244455545700558 2.3535499438421899 0 2.1237179148263481 2.2142857142857149 0 2 2.2857142857142851 0 2.1244455545700558 2.3535499438421899 0 2.1237179148263481 2.2142857142857149 0 2.2437590376264152 2.2790339820013181 0 2.1244455545700558 2.3535499438421899 0 2.2437590376264152 2.2790339820013181 0 2.2474358296526931 2.4285714285714239 0 2.1244455545700558 2.3535499438421899 0 2.2474358296526931 2.4285714285714239 0 2.1244455545700558 2.3535499438421899 0 2.1237179148263481 2.4999999999999978 0 2 2.4285714285714279 0 2.1244455545700558 2.3535499438421899 0 2.1237179148263481 2.4999999999999978 0 2.2474358296526931 2.4285714285714239 0 2.1237179148263481 2.4999999999999978 0 2.2473472221155188 2.571275098672237 0 2.1237179148263481 2.4999999999999978 0 2.2473472221155188 2.571275098672237 0 2.1231862696032739 2.641936306319169 0 2.1237179148263481 2.4999999999999978 0 2 2.5714285714285712 0 2.1231862696032739 2.641936306319169 0 2 2.4285714285714279 0 2.1237179148263481 2.4999999999999978 0 2 2.5714285714285712 0 1.8728601884303651 2.4999999999999969 0 2 2.4285714285714279 0 2 2.5714285714285712 0 1.869528722044044 2.6422655888827711 0 1.8728601884303651 2.4999999999999969 0 2 2.5714285714285712 0 1.8744090508054969 2.7801892664864498 0 1.869528722044044 2.6422655888827711 0 2 2.714285714285714 0 1.869528722044044 2.6422655888827711 0 2 2.5714285714285712 0 2 2.714285714285714 0 1.8744090508054969 2.7801892664864498 0 2 2.714285714285714 0 2 2.8571428571428572 0 2 2.714285714285714 0 2.1205280434878868 2.7801892664864529 0 2 2.8571428571428572 0 2 2.5714285714285712 0 2 2.714285714285714 0 2.1231862696032739 2.641936306319169 0 2 2.714285714285714 0 2.1231862696032739 2.641936306319169 0 2.1205280434878868 2.7801892664864529 0 2.1231862696032739 2.641936306319169 0 2.2467630522735749 2.713120429682875 0 2.1205280434878868 2.7801892664864529 0 2.2473472221155188 2.571275098672237 0 2.1231862696032739 2.641936306319169 0 2.2467630522735749 2.713120429682875 0 2.2467630522735749 2.713120429682875 0 2.1205280434878868 2.7801892664864529 0 2.232409009442776 2.8681560935612769 0 2.1205280434878868 2.7801892664864529 0 2.1045786867955552 2.8954213132044448 0 2.232409009442776 2.8681560935612769 0 2.1205280434878868 2.7801892664864529 0 2.1045786867955552 2.8954213132044448 0 2 2.8571428571428572 0 2.232409009442776 2.8681560935612769 0 2.1428571428571428 3 0 2.2857142857142851 3 0 2.1045786867955552 2.8954213132044448 0 2.232409009442776 2.8681560935612769 0 2.1428571428571428 3 0 2.1045786867955552 2.8954213132044448 0 2.1428571428571428 3 0 2 3 0 2.1045786867955552 2.8954213132044448 0 2 3 0 2 2.8571428571428572 0 1.8744090508054969 2.7801892664864498 0 2 2.8571428571428572 0 1.895421313204446 2.8954213132044462 0 2 3 0 2 2.8571428571428572 0 1.895421313204446 2.8954213132044462 0 1.857142857142857 3 0 2 3 0 1.895421313204446 2.8954213132044462 0 2.5714285714285712 3 0 2.498533384291155 2.8730290895352302 0 2.6413671075336191 2.906422072834058 0 2.498533384291155 2.8730290895352302 0 2.624345486027623 2.7856888613712472 0 2.6413671075336191 2.906422072834058 0 2.5714285714285712 3 0 2.498533384291155 2.8730290895352302 0 2.4285714285714279 3 0 2.4285714285714279 3 0 2.2857142857142851 3 0 2.3612561171619291 2.9048358126425291 0 2.498533384291155 2.8730290895352302 0 2.4285714285714279 3 0 2.3612561171619291 2.9048358126425291 0 2.232409009442776 2.8681560935612769 0 2.2857142857142851 3 0 2.3612561171619291 2.9048358126425291 0 2.232409009442776 2.8681560935612769 0 2.3612561171619291 2.9048358126425291 0 2.369278997828121 2.784057785709154 0 2.498533384291155 2.8730290895352302 0 2.3612561171619291 2.9048358126425291 0 2.369278997828121 2.784057785709154 0 2.2467630522735749 2.713120429682875 0 2.232409009442776 2.8681560935612769 0 2.369278997828121 2.784057785709154 0 2.2467630522735749 2.713120429682875 0 2.369278997828121 2.784057785709154 0 2.370927204303003 2.64246476376226 0 2.2473472221155188 2.571275098672237 0 2.2467630522735749 2.713120429682875 0 2.370927204303003 2.64246476376226 0 2.369278997828121 2.784057785709154 0 2.370927204303003 2.64246476376226 0 2.495616516317638 2.717626453377767 0 2.370927204303003 2.64246476376226 0 2.495616516317638 2.717626453377767 0 2.4946221303562042 2.5709963746105879 0 2.498533384291155 2.8730290895352302 0 2.369278997828121 2.784057785709154 0 2.495616516317638 2.717626453377767 0 2.498533384291155 2.8730290895352302 0 2.495616516317638 2.717626453377767 0 2.624345486027623 2.7856888613712472 0 2.495616516317638 2.717626453377767 0 2.624345486027623 2.7856888613712472 0 2.6192455835349819 2.6438414003703889 0 2.495616516317638 2.717626453377767 0 2.6192455835349819 2.6438414003703889 0 2.4946221303562042 2.5709963746105879 0 2.6192455835349819 2.6438414003703889 0 2.618402581522377 2.4995561624500251 0 2.4946221303562042 2.5709963746105879 0 2.618402581522377 2.4995561624500251 0 2.4946221303562042 2.5709963746105879 0 2.4933624332977531 2.4259573724460828 0 2.4946221303562042 2.5709963746105879 0 2.3698831109599312 2.497799198187086 0 2.4933624332977531 2.4259573724460828 0 2.370927204303003 2.64246476376226 0 2.4946221303562042 2.5709963746105879 0 2.3698831109599312 2.497799198187086 0 2.2473472221155188 2.571275098672237 0 2.370927204303003 2.64246476376226 0 2.3698831109599312 2.497799198187086 0 2.2474358296526931 2.4285714285714239 0 2.2473472221155188 2.571275098672237 0 2.3698831109599312 2.497799198187086 0 2.3698831109599312 2.497799198187086 0 2.3673193849061538 2.3469269946466551 0 2.4933624332977531 2.4259573724460828 0 2.2474358296526931 2.4285714285714239 0 2.3698831109599312 2.497799198187086 0 2.3673193849061538 2.3469269946466551 0 2.2437590376264152 2.2790339820013181 0 2.2474358296526931 2.4285714285714239 0 2.3673193849061538 2.3469269946466551 0 2.2437590376264152 2.2790339820013181 0 2.3673193849061538 2.3469269946466551 0 2.3682882362172282 2.20359421332267 0 2.3673193849061538 2.3469269946466551 0 2.4944618350609482 2.277815289041762 0 2.3682882362172282 2.20359421332267 0 2.3673193849061538 2.3469269946466551 0 2.4944618350609482 2.277815289041762 0 2.4933624332977531 2.4259573724460828 0 2.618402581522377 2.4995561624500251 0 2.4933624332977531 2.4259573724460828 0 2.619243291014496 2.3552128340480101 0 2.4944618350609482 2.277815289041762 0 2.4933624332977531 2.4259573724460828 0 2.619243291014496 2.3552128340480101 0 2.4944618350609482 2.277815289041762 0 2.619243291014496 2.3552128340480101 0 2.6185895741317191 2.2142857142856851 0 2.619243291014496 2.3552128340480101 0 2.7479931719733139 2.2843081023179281 0 2.6185895741317191 2.2142857142856851 0 2.618402581522377 2.4995561624500251 0 2.619243291014496 2.3552128340480101 0 2.7439826402435501 2.4273237749392429 0 2.619243291014496 2.3552128340480101 0 2.7439826402435501 2.4273237749392429 0 2.7479931719733139 2.2843081023179281 0 2.7439826402435501 2.4273237749392429 0 2.7479931719733139 2.2843081023179281 0 2.8701886445882661 2.3565572506718269 0 2.7479931719733139 2.2843081023179281 0 2.8701886445882661 2.3565572506718269 0 2.8779600310929019 2.217136293327608 0 3 2.2857142857142851 0 2.8701886445882661 2.3565572506718269 0 2.8779600310929019 2.217136293327608 0 3 2.4285714285714279 0 2.8701886445882661 2.3565572506718269 0 2.872982021166786 2.5000325873846538 0 3 2.2857142857142851 0 3 2.4285714285714279 0 2.8701886445882661 2.3565572506718269 0 2.7439826402435501 2.4273237749392429 0 2.8701886445882661 2.3565572506718269 0 2.872982021166786 2.5000325873846538 0 3 2.4285714285714279 0 2.872982021166786 2.5000325873846538 0 3 2.5714285714285712 0 2.872982021166786 2.5000325873846538 0 3 2.5714285714285712 0 2.8702940969356949 2.6423588347380189 0 2.872982021166786 2.5000325873846538 0 2.7446704713759029 2.571237155042541 0 2.8702940969356949 2.6423588347380189 0 2.7439826402435501 2.4273237749392429 0 2.872982021166786 2.5000325873846538 0 2.7446704713759029 2.571237155042541 0 2.618402581522377 2.4995561624500251 0 2.7439826402435501 2.4273237749392429 0 2.7446704713759029 2.571237155042541 0 2.6192455835349819 2.6438414003703889 0 2.618402581522377 2.4995561624500251 0 2.7446704713759029 2.571237155042541 0 2.6192455835349819 2.6438414003703889 0 2.7446704713759029 2.571237155042541 0 2.7461960343957288 2.7138118622537939 0 2.624345486027623 2.7856888613712472 0 2.6192455835349819 2.6438414003703889 0 2.7461960343957288 2.7138118622537939 0 2.624345486027623 2.7856888613712472 0 2.7461960343957288 2.7138118622537939 0 2.764916587633921 2.868832996132892 0 2.7461960343957288 2.7138118622537939 0 2.8756576008474641 2.7804868632666988 0 2.764916587633921 2.868832996132892 0 2.7446704713759029 2.571237155042541 0 2.7461960343957288 2.7138118622537939 0 2.8702940969356949 2.6423588347380189 0 2.7461960343957288 2.7138118622537939 0 2.8702940969356949 2.6423588347380189 0 2.8756576008474641 2.7804868632666988 0 3 2.5714285714285712 0 2.8702940969356949 2.6423588347380189 0 3 2.714285714285714 0 2.8702940969356949 2.6423588347380189 0 3 2.714285714285714 0 2.8756576008474641 2.7804868632666988 0 3 2.714285714285714 0 2.8756576008474641 2.7804868632666988 0 3 2.8571428571428572 0 2.8756576008474641 2.7804868632666988 0 2.895421313204448 2.895421313204448 0 2.764916587633921 2.868832996132892 0 2.8756576008474641 2.7804868632666988 0 2.895421313204448 2.895421313204448 0 3 2.8571428571428572 0 2.895421313204448 2.895421313204448 0 3 3 0 2.8571428571428572 3 0 2.895421313204448 2.895421313204448 0 3 2.8571428571428572 0 3 3 0 2.895421313204448 2.895421313204448 0 2.8571428571428572 3 0 2.764916587633921 2.868832996132892 0 2.8571428571428572 3 0 2.764916587633921 2.868832996132892 0 2.714285714285714 3 0 2.624345486027623 2.7856888613712472 0 2.764916587633921 2.868832996132892 0 2.6413671075336191 2.906422072834058 0 2.5714285714285712 3 0 2.6413671075336191 2.906422072834058 0 2.714285714285714 3 0 2.764916587633921 2.868832996132892 0 2.6413671075336191 2.906422072834058 0 2.714285714285714 3 0 2.5714610040381438 1.7525828953231719 0 2.5000378380445039 1.6288681013261359 0 2.4287660242288749 1.752676520202513 0 2.5714610040381438 1.7525828953231719 0 2.4287660242288749 1.752676520202513 0 2.4999999999999978 1.876282085173651 0 2.5714610040381438 1.7525828953231719 0 2.4999999999999978 1.876282085173651 0 2.6428571428571388 1.876282085173651 0 2.5714610040381438 1.7525828953231719 0 2.5000378380445039 1.6288681013261359 0 2.6427234372420072 1.628936974087531 0 2.5712671761093171 1.5052310581929651 0 2.5000378380445039 1.6288681013261359 0 2.6427234372420072 1.628936974087531 0 2.5712671761093171 1.5052310581929651 0 2.5000378380445039 1.6288681013261359 0 2.4285508356923038 1.5051491012451981 0 2.5000378380445039 1.6288681013261359 0 2.356581949440709 1.6298001978398831 0 2.4287660242288749 1.752676520202513 0 2.5000378380445039 1.6288681013261359 0 2.356581949440709 1.6298001978398831 0 2.4285508356923038 1.5051491012451981 0 2.356581949440709 1.6298001978398831 0 2.4285508356923038 1.5051491012451981 0 2.2857142857142878 1.505128340694611 0 2.2118802024260251 1.6334057963667139 0 2.356581949440709 1.6298001978398831 0 2.2857142857142878 1.505128340694611 0 2.2118802024260251 1.6334057963667139 0 2.356581949440709 1.6298001978398831 0 2.2845425105382549 1.7535733272041241 0 2.356581949440709 1.6298001978398831 0 2.2845425105382549 1.7535733272041241 0 2.4287660242288749 1.752676520202513 0 2.2845425105382549 1.7535733272041241 0 2.4287660242288749 1.752676520202513 0 2.358310431087538 1.876956184304913 0 2.4287660242288749 1.752676520202513 0 2.358310431087538 1.876956184304913 0 2.4999999999999978 1.876282085173651 0 2.2202906086958931 1.880802382239964 0 2.2845425105382549 1.7535733272041241 0 2.358310431087538 1.876956184304913 0 2.2202906086958931 1.880802382239964 0 2.2857142857142851 2 0 2.358310431087538 1.876956184304913 0 2.2857142857142851 2 0 2.4285714285714279 2 0 2.3571428571428541 2.088385776600894 0 2.4285714285714279 2 0 2.358310431087538 1.876956184304913 0 2.4999999999999978 1.876282085173651 0 2.2857142857142851 2 0 2.4285714285714279 2 0 2.358310431087538 1.876956184304913 0 2.2313473055860129 2.1272755973392572 0 2.2437590376264152 2.2790339820013181 0 2.3682882362172282 2.20359421332267 0 2.2313473055860129 2.1272755973392572 0 2.2857142857142851 2 0 2.3571428571428541 2.088385776600894 0 2.2313473055860129 2.1272755973392572 0 2.3571428571428541 2.088385776600894 0 2.3682882362172282 2.20359421332267 0 2.4285714285714279 2 0 2.3571428571428541 2.088385776600894 0 2.4981772993071591 2.1265427876294498 0 2.3571428571428541 2.088385776600894 0 2.3682882362172282 2.20359421332267 0 2.4981772993071591 2.1265427876294498 0 2.4944618350609482 2.277815289041762 0 2.3682882362172282 2.20359421332267 0 2.4981772993071591 2.1265427876294498 0 2.4981772993071591 2.1265427876294498 0 2.5714285714285712 2 0 2.6428571428571428 2.0966122299857148 0 2.4981772993071591 2.1265427876294498 0 2.6185895741317191 2.2142857142856851 0 2.6428571428571428 2.0966122299857148 0 2.4944618350609482 2.277815289041762 0 2.4981772993071591 2.1265427876294498 0 2.6185895741317191 2.2142857142856851 0 2.4285714285714279 2 0 2.4999999999999978 1.876282085173651 0 2.5714285714285712 2 0 2.4285714285714279 2 0 2.4981772993071591 2.1265427876294498 0 2.5714285714285712 2 0 2.4999999999999978 1.876282085173651 0 2.5714285714285712 2 0 2.6428571428571388 1.876282085173651 0 2.5714285714285712 2 0 2.6428571428571388 1.876282085173651 0 2.714285714285714 2 0 2.6428571428571388 1.876282085173651 0 2.714285714285714 2 0 2.7814963681520442 1.882580830411096 0 2.5714285714285712 2 0 2.714285714285714 2 0 2.6428571428571428 2.0966122299857148 0 2.714285714285714 2 0 2.7648928292411559 2.1309887181017841 0 2.8571428571428572 2 0 2.714285714285714 2 0 2.7814963681520442 1.882580830411096 0 2.8571428571428572 2 0 2.7479931719733139 2.2843081023179281 0 2.6185895741317191 2.2142857142856851 0 2.7648928292411559 2.1309887181017841 0 2.714285714285714 2 0 2.6428571428571428 2.0966122299857148 0 2.7648928292411559 2.1309887181017841 0 2.6185895741317191 2.2142857142856851 0 2.6428571428571428 2.0966122299857148 0 2.7648928292411559 2.1309887181017841 0 2.7479931719733139 2.2843081023179281 0 2.7648928292411559 2.1309887181017841 0 2.8779600310929019 2.217136293327608 0 2.7648928292411559 2.1309887181017841 0 2.8954213132044448 2.1045786867955552 0 2.8571428571428572 2 0 2.7648928292411559 2.1309887181017841 0 2.8779600310929019 2.217136293327608 0 2.8954213132044448 2.1045786867955552 0 2.8954213132044448 2.1045786867955552 0 3 2.1428571428571428 0 3 2 0 2.8779600310929019 2.217136293327608 0 2.8954213132044448 2.1045786867955552 0 3 2.1428571428571428 0 3 2.2857142857142851 0 2.8779600310929019 2.217136293327608 0 3 2.1428571428571428 0 2.7814963681520442 1.882580830411096 0 2.895421313204448 1.895421313204448 0 2.8571428571428572 2 0 2.8954213132044448 2.1045786867955552 0 2.8571428571428572 2 0 3 2 0 2.895421313204448 1.895421313204448 0 2.8571428571428572 2 0 3 2 0 2.895421313204448 1.895421313204448 0 3 2 0 3 1.857142857142857 0 2.895421313204448 1.895421313204448 0 3 1.857142857142857 0 2.870614678937029 1.7725963401346581 0 3 1.857142857142857 0 3 1.714285714285714 0 2.870614678937029 1.7725963401346581 0 3 1.714285714285714 0 2.870614678937029 1.7725963401346581 0 2.905423741759479 1.6391988482369699 0 2.7814963681520442 1.882580830411096 0 2.895421313204448 1.895421313204448 0 2.870614678937029 1.7725963401346581 0 2.7814963681520442 1.882580830411096 0 2.870614678937029 1.7725963401346581 0 2.7153465651391322 1.7565952050335309 0 2.870614678937029 1.7725963401346581 0 2.7153465651391322 1.7565952050335309 0 2.786129397280769 1.6349001941088239 0 2.5714610040381438 1.7525828953231719 0 2.7153465651391322 1.7565952050335309 0 2.6427234372420072 1.628936974087531 0 2.5714610040381438 1.7525828953231719 0 2.6428571428571388 1.876282085173651 0 2.7153465651391322 1.7565952050335309 0 2.6428571428571388 1.876282085173651 0 2.7814963681520442 1.882580830411096 0 2.7153465651391322 1.7565952050335309 0 2.5712671761093171 1.5052310581929651 0 2.7167234160060199 1.5059542429009301 0 2.6427234372420072 1.628936974087531 0 2.7167234160060199 1.5059542429009301 0 2.6427234372420072 1.628936974087531 0 2.786129397280769 1.6349001941088239 0 2.7153465651391322 1.7565952050335309 0 2.6427234372420072 1.628936974087531 0 2.786129397280769 1.6349001941088239 0 2.7167234160060199 1.5059542429009301 0 2.786129397280769 1.6349001941088239 0 2.870374632579594 1.502783421227085 0 2.786129397280769 1.6349001941088239 0 2.870374632579594 1.502783421227085 0 2.905423741759479 1.6391988482369699 0 2.870614678937029 1.7725963401346581 0 2.786129397280769 1.6349001941088239 0 2.905423741759479 1.6391988482369699 0 3 1.714285714285714 0 2.905423741759479 1.6391988482369699 0 3 1.571428571428571 0 2.870374632579594 1.502783421227085 0 3 1.571428571428571 0 3 1.4285714285714279 0 2.870374632579594 1.502783421227085 0 2.905423741759479 1.6391988482369699 0 3 1.571428571428571 0 2.870374632579594 1.502783421227085 0 3 1.4285714285714279 0 2.9030656089791811 1.3584705572527791 0 3 1.4285714285714279 0 2.9030656089791811 1.3584705572527791 0 3 1.2857142857142849 0 2.9030656089791811 1.3584705572527791 0 2.868688836155401 1.2355313237831811 0 2.786125463576842 1.383677911645713 0 2.870374632579594 1.502783421227085 0 2.9030656089791811 1.3584705572527791 0 2.786125463576842 1.383677911645713 0 3 1.142857142857143 0 2.868688836155401 1.2355313237831811 0 2.8954213132044462 1.104578686795556 0 3 1.142857142857143 0 3 1.2857142857142849 0 2.868688836155401 1.2355313237831811 0 2.9030656089791811 1.3584705572527791 0 3 1.2857142857142849 0 2.868688836155401 1.2355313237831811 0 2.868688836155401 1.2355313237831811 0 2.7814750862709881 1.1221194143447999 0 2.8954213132044462 1.104578686795556 0 2.868688836155401 1.2355313237831811 0 2.7147343810563518 1.251301267871989 0 2.7814750862709881 1.1221194143447999 0 2.868688836155401 1.2355313237831811 0 2.7147343810563518 1.251301267871989 0 2.786125463576842 1.383677911645713 0 2.7147343810563518 1.251301267871989 0 2.6437203892475911 1.3801958981434661 0 2.5728365947067089 1.2514338603666431 0 2.7147343810563518 1.251301267871989 0 2.642474724251239 1.124923408518995 0 2.7814750862709881 1.1221194143447999 0 2.7147343810563518 1.251301267871989 0 2.5728365947067089 1.2514338603666431 0 2.642474724251239 1.124923408518995 0 2.7167234160060199 1.5059542429009301 0 2.870374632579594 1.502783421227085 0 2.786125463576842 1.383677911645713 0 2.7147343810563518 1.251301267871989 0 2.786125463576842 1.383677911645713 0 2.6437203892475911 1.3801958981434661 0 2.5712671761093171 1.5052310581929651 0 2.7167234160060199 1.5059542429009301 0 2.6437203892475911 1.3801958981434661 0 2.7167234160060199 1.5059542429009301 0 2.786125463576842 1.383677911645713 0 2.6437203892475911 1.3801958981434661 0 2.5712671761093171 1.5052310581929651 0 2.6437203892475911 1.3801958981434661 0 2.5003077208249551 1.3799672261976821 0 2.5712671761093171 1.5052310581929651 0 2.4285508356923038 1.5051491012451981 0 2.5003077208249551 1.3799672261976821 0 2.6437203892475911 1.3801958981434661 0 2.5003077208249551 1.3799672261976821 0 2.5728365947067089 1.2514338603666431 0 2.5728365947067089 1.2514338603666431 0 2.5000879977590982 1.1246859085305361 0 2.642474724251239 1.124923408518995 0 2.5728365947067089 1.2514338603666431 0 2.428721567443501 1.25649282465861 0 2.5000879977590982 1.1246859085305361 0 2.5003077208249551 1.3799672261976821 0 2.5728365947067089 1.2514338603666431 0 2.428721567443501 1.25649282465861 0 2.428721567443501 1.25649282465861 0 2.2866681211738742 1.256066682441406 0 2.3571907118004951 1.3811733526815959 0 2.428721567443501 1.25649282465861 0 2.3577140298740269 1.130492812416215 0 2.2866681211738742 1.256066682441406 0 2.428721567443501 1.25649282465861 0 2.3577140298740269 1.130492812416215 0 2.5000879977590982 1.1246859085305361 0 2.3577140298740269 1.130492812416215 0 2.2866681211738742 1.256066682441406 0 2.2198107335135431 1.1256563841824909 0 2.2866681211738742 1.256066682441406 0 2.3571907118004951 1.3811733526815959 0 2.214285714285714 1.3814104258682629 0 2.2857142857142878 1.505128340694611 0 2.3571907118004951 1.3811733526815959 0 2.214285714285714 1.3814104258682629 0 2.4285508356923038 1.5051491012451981 0 2.2857142857142878 1.505128340694611 0 2.3571907118004951 1.3811733526815959 0 2.4285508356923038 1.5051491012451981 0 2.5003077208249551 1.3799672261976821 0 2.3571907118004951 1.3811733526815959 0 2.5003077208249551 1.3799672261976821 0 2.428721567443501 1.25649282465861 0 2.3571907118004951 1.3811733526815959 0 2.3591525644097571 0.90448333979383388 0 2.3690804396265648 0.78389141510404292 0 2.497549379121645 0.87194859075748421 0 2.3591525644097571 0.90448333979383388 0 2.4285714285714279 1 0 2.497549379121645 0.87194859075748421 0 2.3690804396265648 0.78389141510404292 0 2.2467020989286488 0.71318645322081209 0 2.2323719363650798 0.86814175826561746 0 2.3591525644097571 0.90448333979383388 0 2.3690804396265648 0.78389141510404292 0 2.2323719363650798 0.86814175826561746 0 2.3591525644097571 0.90448333979383388 0 2.2857142857142851 1 0 2.2323719363650798 0.86814175826561746 0 2.3577140298740269 1.130492812416215 0 2.2857142857142851 1 0 2.2198107335135431 1.1256563841824909 0 2.3577140298740269 1.130492812416215 0 2.2857142857142851 1 0 2.4285714285714279 1 0 2.3577140298740269 1.130492812416215 0 2.4285714285714279 1 0 2.5000879977590982 1.1246859085305361 0 2.3591525644097571 0.90448333979383388 0 2.2857142857142851 1 0 2.4285714285714279 1 0 2.4285714285714279 1 0 2.5714285714285712 1 0 2.497549379121645 0.87194859075748421 0 2.4285714285714279 1 0 2.5000879977590982 1.1246859085305361 0 2.5714285714285712 1 0 2.5000879977590982 1.1246859085305361 0 2.5714285714285712 1 0 2.642474724251239 1.124923408518995 0 2.497549379121645 0.87194859075748421 0 2.618589574132375 0.78571428571188628 0 2.6328924043665101 0.90513610409542433 0 2.5714285714285712 1 0 2.497549379121645 0.87194859075748421 0 2.6328924043665101 0.90513610409542433 0 2.3690804396265648 0.78389141510404292 0 2.497549379121645 0.87194859075748421 0 2.4948716593059621 0.71428571428343679 0 2.497549379121645 0.87194859075748421 0 2.618589574132375 0.78571428571188628 0 2.4948716593059621 0.71428571428343679 0 2.618589574132375 0.78571428571188628 0 2.7626087828642452 0.86801764400775083 0 2.744186890149765 0.71331043726850263 0 2.618589574132375 0.78571428571188628 0 2.6328924043665101 0.90513610409542433 0 2.7626087828642452 0.86801764400775083 0 2.6328924043665101 0.90513610409542433 0 2.7626087828642452 0.86801764400775083 0 2.714285714285714 1 0 2.7626087828642452 0.86801764400775083 0 2.874409050805995 0.78018926648514575 0 2.744186890149765 0.71331043726850263 0 2.5714285714285712 1 0 2.642474724251239 1.124923408518995 0 2.714285714285714 1 0 2.642474724251239 1.124923408518995 0 2.714285714285714 1 0 2.7814750862709881 1.1221194143447999 0 2.5714285714285712 1 0 2.6328924043665101 0.90513610409542433 0 2.714285714285714 1 0 2.7626087828642452 0.86801764400775083 0 2.714285714285714 1 0 2.8571428571428572 1 0 2.714285714285714 1 0 2.7814750862709881 1.1221194143447999 0 2.8571428571428572 1 0 2.7814750862709881 1.1221194143447999 0 2.8954213132044462 1.104578686795556 0 2.8571428571428572 1 0 2.8571428571428572 1 0 3 1 0 2.8954213132042099 0.895421313204108 0 2.8954213132044462 1.104578686795556 0 2.8571428571428572 1 0 3 1 0 3 1.142857142857143 0 2.8954213132044462 1.104578686795556 0 3 1 0 2.7626087828642452 0.86801764400775083 0 2.874409050805995 0.78018926648514575 0 2.8954213132042099 0.895421313204108 0 2.7626087828642452 0.86801764400775083 0 2.8571428571428572 1 0 2.8954213132042099 0.895421313204108 0 3 1 0 2.8954213132042099 0.895421313204108 0 3 0.85714285714248095 0 2.874409050805995 0.78018926648514575 0 2.8954213132042099 0.895421313204108 0 3 0.85714285714248095 0 2.874409050805995 0.78018926648514575 0 3 0.85714285714248095 0 3 0.71428571428496201 0 2.874409050805995 0.78018926648514575 0 3 0.71428571428496201 0 2.869717803296802 0.64222861727828529 0 2.874409050805995 0.78018926648514575 0 2.869717803296802 0.64222861727828529 0 2.744186890149765 0.71331043726850263 0 2.869717803296802 0.64222861727828529 0 2.8740599863056251 0.49927531931007729 0 2.7446576805156062 0.57126208756431218 0 2.869717803296802 0.64222861727828529 0 3 0.57142857142744297 0 2.8740599863056251 0.49927531931007729 0 3 0.71428571428496201 0 2.869717803296802 0.64222861727828529 0 3 0.57142857142744297 0 3 0.57142857142744297 0 3 0.42857142857032021 0 2.8740599863056251 0.49927531931007729 0 3 0.42857142857032021 0 2.8740599863056251 0.49927531931007729 0 2.875698076300893 0.35415439180319042 0 2.8740599863056251 0.49927531931007729 0 2.752171560420507 0.42857142856854402 0 2.875698076300893 0.35415439180319042 0 2.8740599863056251 0.49927531931007729 0 2.752171560420507 0.42857142856854402 0 2.7446576805156062 0.57126208756431218 0 2.752171560420507 0.42857142856854402 0 2.6201734641978431 0.35661818314175592 0 2.6198899606611801 0.49948637524748601 0 2.752171560420507 0.42857142856854402 0 2.7446576805156062 0.57126208756431218 0 2.6198899606611801 0.49948637524748601 0 2.7446576805156062 0.57126208756431218 0 2.6187395327714542 0.64269698385323981 0 2.6198899606611801 0.49948637524748601 0 2.744186890149765 0.71331043726850263 0 2.7446576805156062 0.57126208756431218 0 2.6187395327714542 0.64269698385323981 0 2.618589574132375 0.78571428571188628 0 2.744186890149765 0.71331043726850263 0 2.6187395327714542 0.64269698385323981 0 2.869717803296802 0.64222861727828529 0 2.744186890149765 0.71331043726850263 0 2.7446576805156062 0.57126208756431218 0 2.8571428571428572 0 0 2.895979424212793 0.1040205757871324 0 2.7710799917251951 0.12873413335171449 0 2.8571428571428572 0 0 3 0 0 2.895979424212793 0.1040205757871324 0 3 0 0 3 0.14285714285686729 0 2.895979424212793 0.1040205757871324 0 3 0.14285714285686729 0 2.895979424212793 0.1040205757871324 0 2.8828959187492971 0.2161673249238161 0 2.895979424212793 0.1040205757871324 0 2.8828959187492971 0.2161673249238161 0 2.7710799917251951 0.12873413335171449 0 3 0.14285714285686729 0 2.8828959187492971 0.2161673249238161 0 3 0.28571428571359381 0 2.8828959187492971 0.2161673249238161 0 3 0.28571428571359381 0 2.875698076300893 0.35415439180319042 0 3 0.42857142857032021 0 3 0.28571428571359381 0 2.875698076300893 0.35415439180319042 0 2.8828959187492971 0.2161673249238161 0 2.875698076300893 0.35415439180319042 0 2.7546180202569031 0.2815234200303981 0 2.752171560420507 0.42857142856854402 0 2.875698076300893 0.35415439180319042 0 2.7546180202569031 0.2815234200303981 0 2.752171560420507 0.42857142856854402 0 2.7546180202569031 0.2815234200303981 0 2.6201734641978431 0.35661818314175592 0 2.7546180202569031 0.2815234200303981 0 2.6281978226174312 0.2120446233090226 0 2.6201734641978431 0.35661818314175592 0 2.7546180202569031 0.2815234200303981 0 2.6281978226174312 0.2120446233090226 0 2.7710799917251951 0.12873413335171449 0 2.8828959187492971 0.2161673249238161 0 2.7546180202569031 0.2815234200303981 0 2.7710799917251951 0.12873413335171449 0 2.6281978226174312 0.2120446233090226 0 2.7710799917251951 0.12873413335171449 0 2.6366338798727531 0.093464308857798578 0 2.7710799917251951 0.12873413335171449 0 2.714285714285714 0 0 2.6366338798727531 0.093464308857798578 0 2.714285714285714 0 0 2.6366338798727531 0.093464308857798578 0 2.5714285714285712 0 0 2.8571428571428572 0 0 2.7710799917251951 0.12873413335171449 0 2.714285714285714 0 0 2.5714285714285712 0 0 2.4981772993068532 0.12654278762825569 0 2.4285714285714279 0 0 2.6366338798727531 0.093464308857798578 0 2.5714285714285712 0 0 2.4981772993068532 0.12654278762825569 0 2.6281978226174312 0.2120446233090226 0 2.6366338798727531 0.093464308857798578 0 2.4981772993068532 0.12654278762825569 0 2.4981772993068532 0.12654278762825569 0 2.4945915486603032 0.27804612003647211 0 2.3627973047133688 0.2085843731968646 0 2.6281978226174312 0.2120446233090226 0 2.4981772993068532 0.12654278762825569 0 2.4945915486603032 0.27804612003647211 0 2.6281978226174312 0.2120446233090226 0 2.4945915486603032 0.27804612003647211 0 2.6201734641978431 0.35661818314175592 0 2.4945915486603032 0.27804612003647211 0 2.6201734641978431 0.35661818314175592 0 2.4932105417127999 0.42593700932760742 0 2.4945915486603032 0.27804612003647211 0 2.3659139839396568 0.35404229584496971 0 2.4932105417127999 0.42593700932760742 0 2.3659139839396568 0.35404229584496971 0 2.2429924675022042 0.42772459507389499 0 2.239801768054869 0.28318912013054048 0 2.3659139839396568 0.35404229584496971 0 2.3627973047133688 0.2085843731968646 0 2.239801768054869 0.28318912013054048 0 2.3627973047133688 0.2085843731968646 0 2.2304843984160652 0.12817051038898469 0 2.239801768054869 0.28318912013054048 0 2.4945915486603032 0.27804612003647211 0 2.3659139839396568 0.35404229584496971 0 2.3627973047133688 0.2085843731968646 0 2.4981772993068532 0.12654278762825569 0 2.3627973047133688 0.2085843731968646 0 2.3571428571428541 0.088385776599927482 0 2.3627973047133688 0.2085843731968646 0 2.3571428571428541 0.088385776599927482 0 2.2304843984160652 0.12817051038898469 0 2.2857142857142851 0 0 2.3571428571428541 0.088385776599927482 0 2.2304843984160652 0.12817051038898469 0 2.2857142857142851 0 0 2.3571428571428541 0.088385776599927482 0 2.4285714285714279 0 0 2.4981772993068532 0.12654278762825569 0 2.3571428571428541 0.088385776599927482 0 2.4285714285714279 0 0 2.4944710246124502 0.57098124216803003 0 2.4948716593059621 0.71428571428343679 0 2.3707808136040498 0.64248101537579039 0 2.618589574132375 0.78571428571188628 0 2.4948716593059621 0.71428571428343679 0 2.6187395327714542 0.64269698385323981 0 2.4944710246124502 0.57098124216803003 0 2.6187395327714542 0.64269698385323981 0 2.6198899606611801 0.49948637524748601 0 2.4944710246124502 0.57098124216803003 0 2.4948716593059621 0.71428571428343679 0 2.6187395327714542 0.64269698385323981 0 2.4944710246124502 0.57098124216803003 0 2.6198899606611801 0.49948637524748601 0 2.4932105417127999 0.42593700932760742 0 2.6201734641978431 0.35661818314175592 0 2.6198899606611801 0.49948637524748601 0 2.4932105417127999 0.42593700932760742 0 2.4944710246124502 0.57098124216803003 0 2.4932105417127999 0.42593700932760742 0 2.3691228671960749 0.4976921519274754 0 2.3659139839396568 0.35404229584496971 0 2.4932105417127999 0.42593700932760742 0 2.3691228671960749 0.4976921519274754 0 2.3659139839396568 0.35404229584496971 0 2.3691228671960749 0.4976921519274754 0 2.2429924675022042 0.42772459507389499 0 2.3691228671960749 0.4976921519274754 0 2.247229121683481 0.57147965461975947 0 2.2429924675022042 0.42772459507389499 0 2.3707808136040498 0.64248101537579039 0 2.2467020989286488 0.71318645322081209 0 2.247229121683481 0.57147965461975947 0 2.3691228671960749 0.4976921519274754 0 2.3707808136040498 0.64248101537579039 0 2.247229121683481 0.57147965461975947 0 2.4944710246124502 0.57098124216803003 0 2.3691228671960749 0.4976921519274754 0 2.3707808136040498 0.64248101537579039 0 2.3690804396265648 0.78389141510404292 0 2.4948716593059621 0.71428571428343679 0 2.3707808136040498 0.64248101537579039 0 2.3690804396265648 0.78389141510404292 0 2.3707808136040498 0.64248101537579039 0 2.2467020989286488 0.71318645322081209 0 2.2467020989286488 0.71318645322081209 0 2.1230850406616231 0.64211163998861709 0 2.120528043488306 0.78018926648583753 0 2.1230850406616231 0.64211163998861709 0 2 0.71428571428496201 0 2.120528043488306 0.78018926648583753 0 2.1230850406616231 0.64211163998861709 0 2.1231105411754938 0.50105200202130029 0 2 0.57142857142744297 0 2.2467020989286488 0.71318645322081209 0 2.1230850406616231 0.64211163998861709 0 2.247229121683481 0.57147965461975947 0 2.1230850406616231 0.64211163998861709 0 2.247229121683481 0.57147965461975947 0 2.1231105411754938 0.50105200202130029 0 2.247229121683481 0.57147965461975947 0 2.2429924675022042 0.42772459507389499 0 2.1231105411754938 0.50105200202130029 0 2.2429924675022042 0.42772459507389499 0 2.1231105411754938 0.50105200202130029 0 2.1204089262615469 0.35723491808527857 0 2.1231105411754938 0.50105200202130029 0 2 0.42857142857032021 0 2.1204089262615469 0.35723491808527857 0 2.1231105411754938 0.50105200202130029 0 2 0.42857142857032021 0 2 0.57142857142744297 0 2 0.42857142857032021 0 1.8756980763008939 0.35415439180319208 0 1.8740599863056251 0.49927531931007818 0 2 0.42857142857032021 0 2 0.57142857142744297 0 1.8740599863056251 0.49927531931007818 0 2 0.71428571428496201 0 2 0.57142857142744297 0 1.8697178032968009 0.64222861727828584 0 2 0.57142857142744297 0 1.8697178032968009 0.64222861727828584 0 1.8740599863056251 0.49927531931007818 0 2 0.71428571428496201 0 1.8697178032968009 0.64222861727828584 0 1.8744090508059921 0.78018926648514741 0 2.1230850406616231 0.64211163998861709 0 2 0.71428571428496201 0 2 0.57142857142744297 0 2.1428571428571428 0 0 2.1045786867956009 0.1045786867955279 0 2 0 0 2.1428571428571428 0 0 2.2304843984160652 0.12817051038898469 0 2.1045786867956009 0.1045786867955279 0 2.2857142857142851 0 0 2.1428571428571428 0 0 2.2304843984160652 0.12817051038898469 0 2.1045786867956009 0.1045786867955279 0 2.1165487808367178 0.2171580770020218 0 2 0.14285714285686729 0 2.2304843984160652 0.12817051038898469 0 2.1045786867956009 0.1045786867955279 0 2.1165487808367178 0.2171580770020218 0 2.2304843984160652 0.12817051038898469 0 2.1165487808367178 0.2171580770020218 0 2.239801768054869 0.28318912013054048 0 2.2429924675022042 0.42772459507389499 0 2.239801768054869 0.28318912013054048 0 2.1204089262615469 0.35723491808527857 0 2.1165487808367178 0.2171580770020218 0 2.239801768054869 0.28318912013054048 0 2.1204089262615469 0.35723491808527857 0 2.1165487808367178 0.2171580770020218 0 2.1204089262615469 0.35723491808527857 0 2 0.28571428571359381 0 2 0.42857142857032021 0 2.1204089262615469 0.35723491808527857 0 2 0.28571428571359381 0 2 0.28571428571359381 0 1.8756980763008939 0.35415439180319208 0 1.882895918749298 0.21616732492381721 0 2 0.42857142857032021 0 2 0.28571428571359381 0 1.8756980763008939 0.35415439180319208 0 2 0.28571428571359381 0 1.882895918749298 0.21616732492381721 0 2 0.14285714285686729 0 2.1165487808367178 0.2171580770020218 0 2 0.28571428571359381 0 2 0.14285714285686729 0 1.882895918749298 0.21616732492381721 0 2 0.14285714285686729 0 1.8959794242127921 0.10402057578713381 0 2 0.14285714285686729 0 1.8959794242127921 0.10402057578713381 0 2 0 0 1.8959794242127921 0.10402057578713381 0 2 0 0 1.857142857142857 0 0 2.1045786867956009 0.1045786867955279 0 2 0.14285714285686729 0 2 0 0 1.714285714285714 0 0 1.857142857142857 0 0 1.7710799917251949 0.1287341333517158 0 1.714285714285714 0 0 1.7710799917251949 0.1287341333517158 0 1.6366338798727531 0.093464308857799619 0 1.8959794242127921 0.10402057578713381 0 1.857142857142857 0 0 1.7710799917251949 0.1287341333517158 0 1.882895918749298 0.21616732492381721 0 1.8959794242127921 0.10402057578713381 0 1.7710799917251949 0.1287341333517158 0 1.7710799917251949 0.1287341333517158 0 1.7546180202569051 0.28152342003040048 0 1.6281978226174321 0.21204462330902529 0 1.882895918749298 0.21616732492381721 0 1.7710799917251949 0.1287341333517158 0 1.7546180202569051 0.28152342003040048 0 1.8756980763008939 0.35415439180319208 0 1.882895918749298 0.21616732492381721 0 1.7546180202569051 0.28152342003040048 0 1.8756980763008939 0.35415439180319208 0 1.7546180202569051 0.28152342003040048 0 1.752171560420509 0.42857142856854807 0 1.7546180202569051 0.28152342003040048 0 1.620173464197844 0.35661818314175942 0 1.752171560420509 0.42857142856854807 0 1.7546180202569051 0.28152342003040048 0 1.620173464197844 0.35661818314175942 0 1.6281978226174321 0.21204462330902529 0 1.493210541712801 0.42593700932760992 0 1.4945915486603041 0.278046120036475 0 1.620173464197844 0.35661818314175942 0 1.4945915486603041 0.278046120036475 0 1.620173464197844 0.35661818314175942 0 1.6281978226174321 0.21204462330902529 0 1.4945915486603041 0.278046120036475 0 1.4981772993068541 0.1265427876282571 0 1.6281978226174321 0.21204462330902529 0 1.7710799917251949 0.1287341333517158 0 1.6281978226174321 0.21204462330902529 0 1.6366338798727531 0.093464308857799619 0 1.4981772993068541 0.1265427876282571 0 1.6281978226174321 0.21204462330902529 0 1.6366338798727531 0.093464308857799619 0 1.4981772993068541 0.1265427876282571 0 1.571428571428571 0 0 1.6366338798727531 0.093464308857799619 0 1.714285714285714 0 0 1.571428571428571 0 0 1.6366338798727531 0.093464308857799619 0 1.744657680515606 0.57126208756431485 0 1.744186890149763 0.71331043726850496 0 1.618739532771454 0.64269698385324336 0 1.744186890149763 0.71331043726850496 0 1.8697178032968009 0.64222861727828584 0 1.8744090508059921 0.78018926648514741 0 1.744657680515606 0.57126208756431485 0 1.744186890149763 0.71331043726850496 0 1.8697178032968009 0.64222861727828584 0 1.744657680515606 0.57126208756431485 0 1.8697178032968009 0.64222861727828584 0 1.8740599863056251 0.49927531931007818 0 1.744657680515606 0.57126208756431485 0 1.8740599863056251 0.49927531931007818 0 1.752171560420509 0.42857142856854807 0 1.8756980763008939 0.35415439180319208 0 1.8740599863056251 0.49927531931007818 0 1.752171560420509 0.42857142856854807 0 1.744657680515606 0.57126208756431485 0 1.752171560420509 0.42857142856854807 0 1.619889960661181 0.49948637524748901 0 1.620173464197844 0.35661818314175942 0 1.752171560420509 0.42857142856854807 0 1.619889960661181 0.49948637524748901 0 1.493210541712801 0.42593700932760992 0 1.620173464197844 0.35661818314175942 0 1.619889960661181 0.49948637524748901 0 1.49447102461245 0.57098124216803303 0 1.493210541712801 0.42593700932760992 0 1.619889960661181 0.49948637524748901 0 1.49447102461245 0.57098124216803303 0 1.619889960661181 0.49948637524748901 0 1.618739532771454 0.64269698385324336 0 1.49447102461245 0.57098124216803303 0 1.4948716593059641 0.71428571428344279 0 1.618739532771454 0.64269698385324336 0 1.744657680515606 0.57126208756431485 0 1.619889960661181 0.49948637524748901 0 1.618739532771454 0.64269698385324336 0 1.744186890149763 0.71331043726850496 0 1.618739532771454 0.64269698385324336 0 1.618589574132369 0.78571428571188717 0 1.4948716593059641 0.71428571428344279 0 1.618739532771454 0.64269698385324336 0 1.618589574132369 0.78571428571188717 0 1.4948716593059641 0.71428571428344279 0 1.497549379121643 0.87194859075748521 0 1.618589574132369 0.78571428571188717 0 1.497549379121643 0.87194859075748521 0 1.6328924043665081 0.90513610409542489 0 1.618589574132369 0.78571428571188717 0 1.497549379121643 0.87194859075748521 0 1.6328924043665081 0.90513610409542489 0 1.571428571428571 1 0 1.6328924043665081 0.90513610409542489 0 1.618589574132369 0.78571428571188717 0 1.7626087828642421 0.86801764400775128 0 1.744186890149763 0.71331043726850496 0 1.618589574132369 0.78571428571188717 0 1.7626087828642421 0.86801764400775128 0 1.6328924043665081 0.90513610409542489 0 1.7626087828642421 0.86801764400775128 0 1.714285714285714 1 0 1.7626087828642421 0.86801764400775128 0 1.857142857142857 1 0 1.895421313204209 0.89542131320410689 0 1.7626087828642421 0.86801764400775128 0 1.8744090508059921 0.78018926648514741 0 1.895421313204209 0.89542131320410689 0 1.744186890149763 0.71331043726850496 0 1.7626087828642421 0.86801764400775128 0 1.8744090508059921 0.78018926648514741 0 1.857142857142857 1 0 1.780189266486452 1.1255909491945031 0 1.895421313204446 1.104578686795554 0 1.857142857142857 1 0 1.714285714285714 1 0 1.780189266486452 1.1255909491945031 0 1.7626087828642421 0.86801764400775128 0 1.857142857142857 1 0 1.714285714285714 1 0 1.714285714285714 1 0 1.6422816724703979 1.1304620449693199 0 1.780189266486452 1.1255909491945031 0 1.714285714285714 1 0 1.571428571428571 1 0 1.6422816724703979 1.1304620449693199 0 1.6328924043665081 0.90513610409542489 0 1.714285714285714 1 0 1.571428571428571 1 0 1.499999999999998 1.1271398115696349 0 1.571428571428571 1 0 1.6422816724703979 1.1304620449693199 0 1.499999999999998 1.1271398115696349 0 1.571152652531757 1.256105255633247 0 1.6422816724703979 1.1304620449693199 0 1.571152652531757 1.256105255633247 0 1.6428585192410321 1.381411220523866 0 1.713319120662252 1.255965391424904 0 1.571152652531757 1.256105255633247 0 1.6422816724703979 1.1304620449693199 0 1.713319120662252 1.255965391424904 0 1.4999999999999949 1.3814104258682569 0 1.42857911129607 1.505132776317748 0 1.5714368297319321 1.505133108628274 0 1.4999999999999949 1.3814104258682569 0 1.5714368297319321 1.505133108628274 0 1.6428585192410321 1.381411220523866 0 1.4999999999999949 1.3814104258682569 0 1.571152652531757 1.256105255633247 0 1.6428585192410321 1.381411220523866 0 1.5714368297319321 1.505133108628274 0 1.7164690164522749 1.505013992076764 0 1.6428585192410321 1.381411220523866 0 1.7164690164522749 1.505013992076764 0 1.6428585192410321 1.381411220523866 0 1.785714285714282 1.38141042586825 0 1.6428585192410321 1.381411220523866 0 1.785714285714282 1.38141042586825 0 1.713319120662252 1.255965391424904 0 1.785714285714282 1.38141042586825 0 1.8680188844933181 1.2374129716465909 0 1.9051363521932001 1.367111946535875 0 1.871948590758401 1.50245062087882 0 1.785714285714282 1.38141042586825 0 1.9051363521932001 1.367111946535875 0 1.7164690164522749 1.505013992076764 0 1.871948590758401 1.50245062087882 0 1.785714285714282 1.38141042586825 0 1.6422816724703979 1.1304620449693199 0 1.780189266486452 1.1255909491945031 0 1.713319120662252 1.255965391424904 0 1.785714285714282 1.38141042586825 0 1.713319120662252 1.255965391424904 0 1.8680188844933181 1.2374129716465909 0 1.780189266486452 1.1255909491945031 0 1.713319120662252 1.255965391424904 0 1.8680188844933181 1.2374129716465909 0 1.780189266486452 1.1255909491945031 0 1.8680188844933181 1.2374129716465909 0 1.895421313204446 1.104578686795554 0 1.8680188844933181 1.2374129716465909 0 2 1.142857142857143 0 1.895421313204446 1.104578686795554 0 1.8680188844933181 1.2374129716465909 0 2 1.2857142857142849 0 1.9051363521932001 1.367111946535875 0 1.8680188844933181 1.2374129716465909 0 2 1.2857142857142849 0 2 1.142857142857143 0 2 1.2857142857142849 0 2 1.142857142857143 0 2.1319792929118409 1.2374367896472369 0 1.871948590758401 1.50245062087882 0 1.9051363521932001 1.367111946535875 0 2 1.4285714285714279 0 2 1.2857142857142849 0 1.9051363521932001 1.367111946535875 0 2 1.4285714285714279 0 2 1.2857142857142849 0 2 1.4285714285714279 0 2.0946158322405029 1.367237727885342 0 2.1268141540049612 1.5030557096254999 0 2.0946158322405029 1.367237727885342 0 2.214285714285714 1.3814104258682629 0 2.1268141540049612 1.5030557096254999 0 2 1.4285714285714279 0 2.0946158322405029 1.367237727885342 0 2.0946158322405029 1.367237727885342 0 2.214285714285714 1.3814104258682629 0 2.1319792929118409 1.2374367896472369 0 2.1268141540049612 1.5030557096254999 0 2.2857142857142878 1.505128340694611 0 2.214285714285714 1.3814104258682629 0 2 1.142857142857143 0 2.1319792929118409 1.2374367896472369 0 2.1045786867955538 1.1045786867955549 0 2.1319792929118409 1.2374367896472369 0 2.2198107335135431 1.1256563841824909 0 2.1045786867955538 1.1045786867955549 0 2 1.2857142857142849 0 2.0946158322405029 1.367237727885342 0 2.1319792929118409 1.2374367896472369 0 2.2866681211738742 1.256066682441406 0 2.214285714285714 1.3814104258682629 0 2.1319792929118409 1.2374367896472369 0 2.2866681211738742 1.256066682441406 0 2.1319792929118409 1.2374367896472369 0 2.2198107335135431 1.1256563841824909 0 2.2857142857142851 1 0 2.2198107335135431 1.1256563841824909 0 2.1428571428571428 1 0 2.1045786867955538 1.1045786867955549 0 2.1428571428571428 1 0 2 1 0 2.2198107335135431 1.1256563841824909 0 2.1045786867955538 1.1045786867955549 0 2.1428571428571428 1 0 2.1428571428571428 1 0 2.1045786867957932 0.89542131320410567 0 2 1 0 2.2857142857142851 1 0 2.1428571428571428 1 0 2.2323719363650798 0.86814175826561746 0 2.1428571428571428 1 0 2.2323719363650798 0.86814175826561746 0 2.1045786867957932 0.89542131320410567 0 2.2467020989286488 0.71318645322081209 0 2.2323719363650798 0.86814175826561746 0 2.120528043488306 0.78018926648583753 0 2.2323719363650798 0.86814175826561746 0 2.120528043488306 0.78018926648583753 0 2.1045786867957932 0.89542131320410567 0 2.120528043488306 0.78018926648583753 0 2.1045786867957932 0.89542131320410567 0 2 0.85714285714248095 0 2.1045786867957932 0.89542131320410567 0 2 0.85714285714248095 0 2 1 0 2 0.71428571428496201 0 2.120528043488306 0.78018926648583753 0 2 0.85714285714248095 0 2 0.71428571428496201 0 1.8744090508059921 0.78018926648514741 0 2 0.85714285714248095 0 1.8744090508059921 0.78018926648514741 0 2 0.85714285714248095 0 1.895421313204209 0.89542131320410689 0 2 0.85714285714248095 0 1.895421313204209 0.89542131320410689 0 2 1 0 1.857142857142857 1 0 1.895421313204209 0.89542131320410689 0 2 1 0 2 1.142857142857143 0 1.895421313204446 1.104578686795554 0 2 1 0 1.857142857142857 1 0 1.895421313204446 1.104578686795554 0 2 1 0 2 1.142857142857143 0 2.1045786867955538 1.1045786867955549 0 2 1 0 
</DataArray>
</Points>
<Cells>
<DataArray type="UInt32" Name="connectivity" format="ascii">
0 1 2 3 4 5 6 7 8 9 10 11 12 13 14 15 16 17 18 19 20 21 22 23 24 25 26 27 28 29 30 31 32 33 34 35 36 37 38 39 40 41 42 43 44 45 46 47 48 49 50 51 52 53 54 55 56 57 58 59 60 61 62 63 64 65 66 67 68 69 70 71 72 73 74 75 76 77 78 79 80 81 82 83 84 85 86 87 88 89 90 91 92 93 94 95 96 97 98 99 100 101 102 103 104 105 106 107 108 109 110 111 112 113 114 115 116 117 118 119 120 121 122 123 124 125 126 127 128 129 130 131 132 133 134 135 136 137 138 139 140 141 142 143 144 145 146 147 148 149 150 151 152 153 154 155 156 157 158 159 160 161 162 163 164 165 166 167 168 169 170 171 172 173 174 175 176 177 178 179 180 181 182 183 184 185 186 187 188 189 190 191 192 193 194 195 196 197 198 199 200 201 202 203 204 205 206 207 208 209 210 211 212 213 214 215 216 217 218 219 220 221 222 223 224 225 226 227 228 229 230 231 232 233 234 235 236 237 238 239 240 241 242 243 244 245 246 247 248 249 250 251 252 253 254 255 256 257 258 259 260 261 262 263 264 265 266 267 268 269 270 271 272 273 274 275 276 277 278 279 280 281 282 283 284 285 286 287 288 289 290 291 292 293 294 295 296 297 298 299 300 301 302 303 304 305 306 307 308 309 310 311 312 313 314 315 316 317 318 319 320 321 322 323 324 325 326 327 328 329 330 331 332 333 334 335 336 337 338 339 340 341 342 343 344 345 346 347 348 349 350 351 352 353 354 355 356 357 358 359 360 361 362 363 364 365 366 367 368 369 370 371 372 373 374 375 376 377 378 379 380 381 382 383 384 385 386 387 388 389 390 391 392 393 394 395 396 397 398 399 400 401 402 403 404 405 406 407 408 409 410 411 412 413 414 415 416 417 418 419 420 421 422 423 424 425 426 427 428 429 430 431 432 433 434 435 436 437 438 439 440 441 442 443 444 445 446 447 448 449 450 451 452 453 454 455 456 457 458 459 460 461 462 463 464 465 466 467 468 469 470 471 472 473 474 475 476 477 478 479 480 481 482 483 484 485 486 487 488 489 490 491 492 493 494 495 496 497 498 499 500 501 502 503 504 505 506 507 508 509 510 511 512 513 514 515 516 517 518 519 520 521 522 523 524 525 526 527 528 529 530 531 532 533 534 535 536 537 538 539 540 541 542 543 544 545 546 547 548 549 550 551 552 553 554 555 556 557 558 559 560 561 562 563 564 565 566 567 568 569 570 571 572 573 574 575 576 577 578 579 580 581 582 583 584 585 586 587 588 589 590 591 592 593 594 595 596 597 598 599 600 601 602 603 604 605 606 607 608 609 610 611 612 613 614 615 616 617 618 619 620 621 622 623 624 625 626 627 628 629 630 631 632 633 634 635 636 637 638 639 640 641 642 643 644 645 646 647 648 649 650 651 652 653 654 655 656 657 658 659 660 661 662 663 664 665 666 667 668 669 670 671 672 673 674 675 676 677 678 679 680 681 682 683 684 685 686 687 688 689 690 691 692 693 694 695 696 697 698 699 700 701 702 703 704 705 706 707 708 709 710 711 712 713 714 715 716 717 718 719 720 721 722 723 724 725 726 727 728 729 730 731 732 733 734 735 736 737 738 739 740 741 742 743 744 745 746 747 748 749 750 751 752 753 754 755 756 757 758 759 760 761 762 763 764 765 766 767 768 769 770 771 772 773 774 775 776 777 778 779 780 781 782 783 784 785 786 787 788 789 790 791 792 793 794 795 796 797 798 799 800 801 802 803 804 805 806 807 808 809 810 811 812 813 814 815 816 817 818 819 820 821 822 823 824 825 826 827 828 829 830 831 832 833 834 835 836 837 838 839 840 841 842 843 844 845 846 847 848 849 850 851 852 853 854 855 856 857 858 859 860 861 862 863 864 865 866 867 868 869 870 871 872 873 874 875 876 877 878 879 880 881 882 883 884 885 886 887 888 889 890 891 892 893 894 895 896 897 898 899 900 901 902 903 904 905 906 907 908 909 910 911 912 913 914 915 916 917 918 919 920 921 922 923 924 925 926 927 928 929 930 931 932 933 934 935 936 937 938 939 940 941 942 943 944 945 946 947 948 949 950 951 952 953 954 955 956 957 958 959 960 961 962 963 964 965 966 967 968 969 970 971 972 973 974 975 976 977 978 979 980 981 982 983 984 985 986 987 988 989 990 991 992 993 994 995 996 997 998 999 1000 1001 1002 1003 1004 1005 1006 1007 1008 1009 1010 1011 1012 1013 1014 1015 1016 1017 1018 1019 1020 1021 1022 1023 1024 1025 1026 1027 1028 1029 1030 1031 1032 1033 1034 1035 1036 1037 1038 1039 1040 1041 1042 1043 1044 1045 1046 1047 1048 1049 1050 1051 1052 1053 1054 1055 1056 1057 1058 1059 1060 1061 1062 1063 1064 1065 1066 1067 1068 1069 1070 1071 1072 1073 1074 1075 1076 1077 1078 1079 1080 1081 1082 1083 1084 1085 1086 1087 1088 1089 1090 1091 1092 1093 1094 1095 1096 1097 1098 1099 1100 1101 1102 1103 1104 1105 1106 1107 1108 1109 1110 1111 1112 1113 1114 1115 1116 1117 1118 1119 1120 1121 1122 1123 1124 1125 1126 1127 1128 1129 1130 1131 1132 1133 1134 1135 1136 1137 1138 1139 1140 1141 1142 1143 1144 1145 1146 1147 1148 1149 1150 1151 1152 1153 1154 1155 1156 1157 1158 1159 1160 1161 1162 1163 1164 1165 1166 1167 1168 1169 1170 1171 1172 1173 1174 1175 1176 1177 1178 1179 1180 1181 1182 1183 1184 1185 1186 1187 1188 1189 1190 1191 1192 1193 1194 1195 1196 1197 1198 1199 1200 1201 1202 1203 1204 1205 1206 1207 1208 1209 1210 1211 1212 1213 1214 1215 1216 1217 1218 1219 1220 1221 1222 1223 1224 1225 1226 1227 1228 1229 1230 1231 1232 1233 1234 1235 1236 1237 1238 1239 1240 1241 1242 1243 1244 1245 1246 1247 1248 1249 1250 1251 1252 1253 1254 1255 1256 1257 1258 1259 1260 1261 1262 1263 1264 1265 1266 1267 1268 1269 1270 1271 1272 1273 1274 1275 1276 1277 1278 1279 1280 1281 1282 1283 1284 1285 1286 1287 1288 1289 1290 1291 1292 1293 1294 1295 1296 1297 1298 1299 1300 1301 1302 1303 1304 1305 1306 1307 1308 1309 1310 1311 1312 1313 1314 1315 1316 1317 1318 1319 1320 1321 1322 1323 1324 1325 1326 1327 1328 1329 1330 1331 1332 1333 1334 1335 1336 1337 1338 1339 1340 1341 1342 1343 1344 1345 1346 1347 1348 1349 1350 1351 1352 1353 1354 1355 1356 1357 1358 1359 1360 1361 1362 1363 1364 1365 1366 1367 1368 1369 1370 1371 1372 1373 1374 1375 1376 1377 1378 1379 1380 1381 1382 1383 1384 1385 1386 1387 1388 1389 1390 1391 1392 1393 1394 1395 1396 1397 1398 1399 1400 1401 1402 1403 1404 1405 1406 1407 1408 1409 1410 1411 1412 1413 1414 1415 1416 1417 1418 1419 1420 1421 1422 1423 1424 1425 1426 1427 1428 1429 1430 1431 1432 1433 1434 1435 1436 1437 1438 1439 1440 1441 1442 1443 1444 1445 1446 1447 1448 1449 1450 1451 1452 1453 1454 1455 1456 1457 1458 1459 1460 1461 1462 1463 1464 1465 1466 1467 1468 1469 1470 1471 1472 1473 1474 1475 1476 1477 1478 1479 1480 1481 1482 1483 1484 1485 1486 1487 1488 1489 1490 1491 1492 1493 1494 1495 1496 1497 1498 1499 1500 1501 1502 1503 1504 1505 1506 1507 1508 1509 1510 1511 1512 1513 1514 1515 1516 1517 1518 1519 1520 1521 1522 1523 1524 1525 1526 1527 1528 1529 1530 1531 1532 1533 1534 1535 1536 1537 1538 1539 1540 1541 1542 1543 1544 1545 1546 1547 1548 1549 1550 1551 1552 1553 1554 1555 1556 1557 1558 1559 1560 1561 1562 1563 1564 1565 1566 1567 1568 1569 1570 1571 1572 1573 1574 1575 1576 1577 1578 1579 1580 1581 1582 1583 1584 1585 1586 1587 1588 1589 1590 1591 1592 1593 1594 1595 1596 1597 1598 1599 1600 1601 1602 1603 1604 1605 1606 1607 1608 1609 1610 1611 1612 1613 1614 1615 1616 1617 1618 1619 1620 1621 1622 1623 1624 1625 1626 1627 1628 1629 1630 1631 1632 1633 1634 1635 1636 1637 1638 1639 1640 1641 1642 1643 1644 1645 1646 1647 1648 1649 1650 1651 1652 1653 1654 1655 1656 1657 1658 1659 1660 1661 1662 1663 1664 1665 1666 1667 1668 1669 1670 1671 1672 1673 1674 1675 1676 1677 1678 1679 1680 1681 1682 1683 1684 1685 1686 1687 1688 1689 1690 1691 1692 1693 1694 1695 1696 1697 1698 1699 1700 1701 1702 1703 1704 1705 1706 1707 1708 1709 1710 1711 1712 1713 1714 1715 1716 1717 1718 1719 1720 1721 1722 1723 1724 1725 1726 1727 1728 1729 1730 1731 1732 1733 1734 1735 1736 1737 1738 1739 1740 1741 1742 1743 1744 1745 1746 1747 1748 1749 1750 1751 1752 1753 1754 1755 1756 1757 1758 1759 1760 1761 1762 1763 1764 1765 1766 1767 1768 1769 1770 1771 1772 1773 1774 1775 1776 1777 1778 1779 1780 1781 1782 1783 1784 1785 1786 1787 1788 1789 1790 1791 1792 1793 1794 1795 1796 1797 1798 1799 1800 1801 1802 1803 1804 1805 1806 1807 1808 1809 1810 1811 1812 1813 1814 1815 1816 1817 1818 1819 1820 1821 1822 1823 1824 1825 1826 1827 1828 1829 1830 1831 1832 1833 1834 1835 1836 1837 1838 1839 1840 1841 1842 1843 1844 1845 1846 1847 1848 1849 1850 1851 1852 1853 1854 1855 1856 1857 1858 1859 1860 1861 1862 1863 1864 1865 1866 1867 1868 1869 1870 1871 1872 1873 1874 1875 1876 1877 1878 1879 1880 1881 1882 1883 1884 1885 1886 1887 1888 1889 1890 1891 1892 1893 1894 1895 1896 1897 1898 1899 1900 1901 1902 1903 1904 1905 1906 1907 1908 1909 1910 1911 1912 1913 1914 1915 1916 1917 1918 1919 1920 1921 1922 1923 1924 1925 1926 1927 1928 1929 1930 1931 1932 1933 1934 1935 1936 1937 1938 1939 1940 1941 1942 1943 1944 1945 1946 1947 1948 1949 1950 1951 1952 1953 1954 1955 1956 1957 1958 1959 1960 1961 1962 1963 1964 1965 1966 1967 1968 1969 1970 1971 1972 1973 1974 1975 1976 1977 1978 1979 1980 1981 1982 1983 1984 1985 1986 1987 1988 1989 1990 1991 1992 1993 1994 1995 1996 1997 1998 1999 2000 2001 2002 2003 2004 2005 2006 2007 2008 2009 2010 2011 2012 2013 2014 2015 2016 2017 2018 2019 2020 2021 2022 2023 2024 2025 2026 2027 2028 2029 2030 2031 2032 2033 2034 2035 2036 2037 2038 2039 2040 2041 2042 2043 2044 2045 2046 2047 2048 2049 2050 2051 2052 2053 2054 2055 2056 2057 2058 2059 2060 2061 2062 2063 2064 2065 2066 2067 2068 2069 2070 2071 2072 2073 2074 2075 2076 2077 2078 2079 2080 2081 2082 2083 2084 2085 2086 2087 2088 2089 2090 2091 2092 2093 2094 2095 2096 2097 2098 2099 2100 2101 2102 2103 2104 2105 2106 2107 2108 2109 2110 2111 2112 2113 2114 2115 2116 2117 2118 2119 2120 2121 2122 2123 2124 2125 2126 2127 2128 2129 2130 2131 2132 2133 2134 2135 2136 2137 2138 2139 2140 2141 2142 2143 2144 2145 2146 2147 2148 2149 2150 2151 2152 2153 2154 2155 2156 2157 2158 2159 2160 2161 2162 2163 2164 2165 2166 2167 2168 2169 2170 2171 2172 2173 2174 2175 2176 2177 2178 2179 2180 2181 2182 2183 2184 2185 2186 2187 2188 2189 2190 2191 2192 2193 2194 2195 2196 2197 2198 2199 2200 2201 2202 2203 2204 2205 2206 2207 2208 2209 2210 2211 2212 2213 2214 2215 2216 2217 2218 2219 2220 2221 2222 2223 2224 2225 2226 2227 2228 2229 2230 2231 2232 2233 2234 2235 2236 2237 2238 2239 2240 2241 2242 2243 2244 2245 2246 2247 2248 2249 2250 2251 2252 2253 2254 2255 2256 2257 2258 2259 2260 2261 2262 2263 2264 2265 2266 2267 2268 2269 2270 2271 2272 2273 2274 2275 2276 2277 2278 2279 2280 2281 2282 2283 2284 2285 2286 2287 2288 2289 2290 2291 2292 2293 2294 2295 2296 2297 2298 2299 2300 2301 2302 2303 2304 2305 2306 2307 2308 2309 2310 2311 2312 2313 2314 2315 2316 2317 2318 2319 2320 2321 2322 2323 2324 2325 2326 2327 2328 2329 2330 2331 2332 2333 2334 2335 2336 2337 2338 2339 2340 2341 2342 2343 2344 2345 2346 2347 2348 2349 2350 2351 2352 2353 2354 2355 2356 2357 2358 2359 2360 2361 2362 2363 2364 2365 2366 2367 2368 2369 2370 2371 2372 2373 2374 2375 2376 2377 2378 2379 2380 2381 2382 2383 2384 2385 2386 2387 2388 2389 2390 2391 2392 2393 2394 2395 2396 2397 2398 2399 2400 2401 2402 2403 2404 2405 2406 2407 2408 2409 2410 2411 2412 2413 2414 2415 2416 2417 2418 2419 2420 2421 2422 2423 2424 2425 2426 2427 2428 2429 2430 2431 2432 2433 2434 2435 2436 2437 2438 2439 2440 2441 2442 2443 2444 2445 2446 2447 2448 2449 2450 2451 2452 2453 2454 2455 2456 2457 2458 2459 2460 2461 2462 2463 2464 2465 2466 2467 2468 2469 2470 2471 2472 2473 2474 2475 2476 2477 2478 2479 2480 2481 2482 2483 2484 2485 2486 2487 2488 2489 2490 2491 2492 2493 2494 2495 2496 2497 2498 2499 2500 2501 2502 2503 2504 2505 2506 2507 2508 2509 2510 2511 2512 2513 2514 2515 2516 2517 2518 2519 2520 2521 2522 2523 2524 2525 2526 2527 2528 2529 2530 2531 2532 2533 2534 2535 2536 2537 2538 2539 2540 2541 2542 2543 2544 2545 2546 2547 2548 2549 2550 2551 2552 2553 2554 2555 2556 2557 2558 2559 2560 2561 2562 2563 2564 2565 2566 2567 2568 2569 2570 2571 2572 2573 2574 2575 2576 2577 2578 2579 2580 2581 2582 2583 2584 2585 2586 2587 2588 2589 2590 2591 2592 2593 2594 2595 2596 2597 2598 2599 2600 2601 2602 2603 2604 2605 2606 2607 2608 2609 2610 2611 2612 2613 2614 2615 2616 2617 2618 2619 2620 2621 2622 2623 2624 2625 2626 2627 2628 2629 2630 2631 2632 2633 2634 2635 2636 2637 2638 2639 2640 2641 2642 2643 2644 2645 2646 2647 2648 2649 2650 2651 2652 2653 2654 2655 2656 2657 2658 2659 2660 2661 2662 2663 2664 2665 2666 2667 2668 2669 2670 2671 2672 2673 2674 2675 2676 2677 2678 2679 2680 2681 2682 2683 2684 2685 2686 2687 2688 2689 2690 2691 2692 2693 2694 2695 2696 2697 2698 2699 2700 2701 2702 2703 2704 2705 2706 2707 2708 2709 2710 2711 2712 2713 2714 2715 2716 2717 2718 2719 2720 2721 2722 2723 2724 2725 2726 2727 2728 2729 2730 2731 2732 2733 2734 2735 2736 2737 2738 2739 2740 2741 2742 2743 2744 2745 2746 2747 2748 2749 2750 2751 2752 2753 2754 2755 2756 2757 2758 2759 2760 2761 2762 2763 2764 2765 2766 2767 2768 2769 2770 2771 2772 2773 2774 2775 2776 2777 2778 2779 2780 2781 2782 2783 2784 2785 2786 2787 2788 2789 2790 2791 2792 2793 2794 2795 2796 2797 2798 2799 2800 2801 2802 2803 2804 2805 2806 2807 2808 2809 2810 2811 2812 2813 2814 2815 2816 2817 2818 2819 2820 2821 2822 2823 2824 2825 2826 2827 2828 2829 2830 2831 2832 2833 2834 2835 2836 2837 2838 2839 2840 2841 2842 2843 2844 2845 2846 2847 2848 2849 2850 2851 2852 2853 2854 2855 2856 2857 2858 2859 2860 2861 2862 2863 2864 2865 2866 2867 2868 2869 2870 2871 2872 2873 2874 2875 2876 2877 2878 2879 2880 2881 2882 2883 2884 2885 2886 2887 2888 2889 2890 2891 2892 2893 2894 2895 2896 2897 2898 2899 2900 2901 2902 2903 2904 2905 2906 2907 2908 2909 2910 2911 2912 2913 2914 2915 2916 2917 2918 2919 2920 2921 2922 2923 2924 2925 2926 2927 2928 2929 2930 2931 2932 2933 2934 2935 2936 2937 2938 2939 2940 2941 2942 2943 2944 2945 2946 2947 2948 2949 2950 2951 2952 2953 2954 2955 2956 2957 2958 2959 2960 2961 2962 2963 2964 2965 2966 2967 2968 2969 2970 2971 2972 2973 2974 2975 2976 2977 2978 2979 2980 2981 2982 2983 2984 2985 2986 2987 2988 2989 2990 2991 2992 2993 2994 2995 2996 2997 2998 2999 3000 3001 3002 3003 3004 3005 3006 3007 3008 3009 3010 3011 3012 3013 3014 3015 3016 3017 3018 3019 3020 3021 3022 3023 3024 3025 3026 3027 3028 3029 3030 3031 3032 3033 3034 3035 3036 3037 3038 3039 3040 3041 3042 3043 3044 3045 3046 3047 3048 3049 3050 3051 3052 3053 3054 3055 3056 3057 3058 3059 3060 3061 3062 3063 3064 3065 3066 3067 3068 3069 3070 3071 3072 3073 3074 3075 3076 3077 3078 3079 3080 3081 3082 3083 3084 3085 3086 3087 3088 3089 3090 3091 3092 3093 3094 3095 3096 3097 3098 3099 3100 3101 3102 3103 3104 3105 3106 3107 3108 3109 3110 3111 3112 3113 3114 3115 3116 3117 3118 3119 3120 3121 3122 3123 3124 3125 3126 3127 3128 3129 3130 3131 3132 3133 3134 3135 3136 3137 3138 3139 3140 3141 3142 3143 3144 3145 3146 3147 3148 3149 3150 3151 3152 3153 3154 3155 3156 3157 3158 3159 3160 3161 3162 3163 3164 3165 3166 3167 3168 3169 3170 3171 3172 3173 3174 3175 3176 3177 3178 3179 3180 3181 3182 3183 3184 3185 
</DataArray>
<DataArray type="UInt32" Name="offsets" format="ascii">
3 6 9 12 15 18 21 24 27 30 33 36 39 42 45 48 51 54 57 60 63 66 69 72 75 78 81 84 87 90 93 96 99 102 105 108 111 114 117 120 123 126 129 132 135 138 141 144 147 150 153 156 159 162 165 168 171 174 177 180 183 186 189 192 195 198 201 204 207 210 213 216 219 222 225 228 231 234 237 240 243 246 249 252 255 258 261 264 267 270 273 276 279 282 285 288 291 294 297 300 303 306 309 312 315 318 321 324 327 330 333 336 339 342 345 348 351 354 357 360 363 366 369 372 375 378 381 384 387 390 393 396 399 402 405 408 411 414 417 420 423 426 429 432 435 438 441 444 447 450 453 456 459 462 465 468 471 474 477 480 483 486 489 492 495 498 501 504 507 510 513 516 519 522 525 528 531 534 537 540 543 546 549 552 555 558 561 564 567 570 573 576 579 582 585 588 591 594 597 600 603 606 609 612 615 618 621 624 627 630 633 636 639 642 645 648 651 654 657 660 663 666 669 672 675 678 681 684 687 690 693 696 699 702 705 708 711 714 717 720 723 726 729 732 735 738 741 744 747 750 753 756 759 762 765 768 771 774 777 780 783 786 789 792 795 798 801 804 807 810 813 816 819 822 825 828 831 834 837 840 843 846 849 852 855 858 861 864 867 870 873 876 879 882 885 888 891 894 897 900 903 906 909 912 915 918 921 924 927 930 933 936 939 942 945 948 951 954 957 960 963 966 969 972 975 978 981 984 987 990 993 996 999 1002 1005 1008 1011 1014 1017 1020 1023 1026 1029 1032 1035 1038 1041 1044 1047 1050 1053 1056 1059 1062 1065 1068 1071 1074 1077 1080 1083 1086 1089 1092 1095 1098 1101 1104 1107 1110 1113 1116 1119 1122 1125 1128 1131 1134 1137 1140 1143 1146 1149 1152 1155 1158 1161 1164 1167 1170 1173 1176 1179 1182 1185 1188 1191 1194 1197 1200 1203 1206 1209 1212 1215 1218 1221 1224 1227 1230 1233 1236 1239 1242 1245 1248 1251 1254 1257 1260 1263 1266 1269 1272 1275 1278 1281 1284 1287 1290 1293 1296 1299 1302 1305 1308 1311 1314 1317 1320 1323 1326 1329 1332 1335 1338 1341 1344 1347 1350 1353 1356 1359 1362 1365 1368 1371 1374 1377 1380 1383 1386 1389 1392 1395 1398 1401 1404 1407 1410 1413 1416 1419 1422 1425 1428 1431 1434 1437 1440 1443 1446 1449 1452 1455 1458 1461 1464 1467 1470 1473 1476 1479 1482 1485 1488 1491 1494 1497 1500 1503 1506 1509 1512 1515 1518 1521 1524 1527 1530 1533 1536 1539 1542 1545 1548 1551 1554 1557 1560 1563 1566 1569 1572 1575 1578 1581 1584 1587 1590 1593 1596 1599 1602 1605 1608 1611 1614 1617 1620 1623 1626 1629 1632 1635 1638 1641 1644 1647 1650 1653 1656 1659 1662 1665 1668 1671 1674 1677 1680 1683 1686 1689 1692 1695 1698 1701 1704 1707 1710 1713 1716 1719 1722 1725 1728 1731 1734 1737 1740 1743 1746 1749 1752 1755 1758 1761 1764 1767 1770 1773 1776 1779 1782 1785 1788 1791 1794 1797 1800 1803 1806 1809 1812 1815 1818 1821 1824 1827 1830 1833 1836 1839 1842 1845 1848 1851 1854 1857 1860 1863 1866 1869 1872 1875 1878 1881 1884 1887 1890 1893 1896 1899 1902 1905 1908 1911 1914 1917 1920 1923 1926 1929 1932 1935 1938 1941 1944 1947 1950 1953 1956 1959 1962 1965 1968 1971 1974 1977 1980 1983 1986 1989 1992 1995 1998 2001 2004 2007 2010 2013 2016 2019 2022 2025 2028 2031 2034 2037 2040 2043 2046 2049 2052 2055 2058 2061 2064 2067 2070 2073 2076 2079 2082 2085 2088 2091 2094 2097 2100 2103 2106 2109 2112 2115 2118 2121 2124 2127 2130 2133 2136 2139 2142 2145 2148 2151 2154 2157 2160 2163 2166 2169 2172 2175 2178 2181 2184 2187 2190 2193 2196 2199 2202 2205 2208 2211 2214 2217 2220 2223 2226 2229 2232 2235 2238 2241 2244 2247 2250 2253 2256 2259 2262 2265 2268 2271 2274 2277 2280 2283 2286 2289 2292 2295 2298 2301 2304 2307 2310 2313 2316 2319 2322 2325 2328 2331 2334 2337 2340 2343 2346 2349 2352 2355 2358 2361 2364 2367 2370 2373 2376 2379 2382 2385 2388 2391 2394 2397 2400 2403 2406 2409 2412 2415 2418 2421 2424 2427 2430 2433 2436 2439 2442 2445 2448 2451 2454 2457 2460 2463 2466 2469 2472 2475 2478 2481 2484 2487 2490 2493 2496 2499 2502 2505 2508 2511 2514 2517 2520 2523 2526 2529 2532 2535 2538 2541 2544 2547 2550 2553 2556 2559 2562 2565 2568 2571 2574 2577 2580 2583 2586 2589 2592 2595 2598 2601 2604 2607 2610 2613 2616 2619 2622 2625 2628 2631 2634 2637 2640 2643 2646 2649 2652 2655 2658 2661 2664 2667 2670 2673 2676 2679 2682 2685 2688 2691 2694 2697 2700 2703 2706 2709 2712 2715 2718 2721 2724 2727 2730 2733 2736 2739 2742 2745 2748 2751 2754 2757 2760 2763 2766 2769 2772 2775 2778 2781 2784 2787 2790 2793 2796 2799 2802 2805 2808 2811 2814 2817 2820 2823 2826 2829 2832 2835 2838 2841 2844 2847 2850 2853 2856 2859 2862 2865 2868 2871 2874 2877 2880 2883 2886 2889 2892 2895 2898 2901 2904 2907 2910 2913 2916 2919 2922 2925 2928 2931 2934 2937 2940 2943 2946 2949 2952 2955 2958 2961 2964 2967 2970 2973 2976 2979 2982 2985 2988 2991 2994 2997 3000 3003 3006 3009 3012 3015 3018 3021 3024 3027 3030 3033 3036 3039 3042 3045 3048 3051 3054 3057 3060 3063 3066 3069 3072 3075 3078 3081 3084 3087 3090 3093 3096 3099 3102 3105 3108 3111 3114 3117 3120 3123 3126 3129 3132 3135 3138 3141 3144 3147 3150 3153 3156 3159 3162 3165 3168 3171 3174 3177 3180 3183 3186 
</DataArray>
<DataArray type="UInt32" Name="types" format="ascii">
5 5 5 5 5 5 5 5 5 5 5 5 5 5 5 5 5 5 5 5 5 5 5 5 5 5 5 5 5 5 5 5 5 5 5 5 5 5 5 5 5 5 5 5 5 5 5 5 5 5 5 5 5 5 5 5 5 5 5 5 5 5 5 5 5 5 5 5 5 5 5 5 5 5 5 5 5 5 5 5 5 5 5 5 5 5 5 5 5 5 5 5 5 5 5 5 5 5 5 5 5 5 5 5 5 5 5 5 5 5 5 5 5 5 5 5 5 5 5 5 5 5 5 5 5 5 5 5 5 5 5 5 5 5 5 5 5 5 5 5 5 5 5 5 5 5 5 5 5 5 5 5 5 5 5 5 5 5 5 5 5 5 5 5 5 5 5 5 5 5 5 5 5 5 5 5 5 5 5 5 5 5 5 5 5 5 5 5 5 5 5 5 5 5 5 5 5 5 5 5 5 5 5 5 5 5 5 5 5 5 5 5 5 5 5 5 5 5 5 5 5 5 5 5 5 5 5 5 5 5 5 5 5 5 5 5 5 5 5 5 5 5 5 5 5 5 5 5 5 5 5 5 5 5 5 5 5 5 5 5 5 5 5 5 5 5 5 5 5 5 5 5 5 5 5 5 5 5 5 5 5 5 5 5 5 5 5 5 5 5 5 5 5 5 5 5 5 5 5 5 5 5 5 5 5 5 5 5 5 5 5 5 5 5 5 5 5 5 5 5 5 5 5 5 5 5 5 5 5 5 5 5 5 5 5 5 5 5 5 5 5 5 5 5 5 5 5 5 5 5 5 5 5 5 5 5 5 5 5 5 5 5 5 5 5 5 5 5 5 5 5 5 5 5 5 5 5 5 5 5 5 5 5 5 5 5 5 5 5 5 5 5 5 5 5 5 5 5 5 5 5 5 5 5 5 5 5 5 5 5 5 5 5 5 5 5 5 5 5 5 5 5 5 5 5 5 5 5 5 5 5 5 5 5 5 5 5 5 5 5 5 5 5 5 5 5 5 5 5 5 5 5 5 5 5 5 5 5 5 5 5 5 5 5 5 5 5 5 5 5 5 5 5 5 5 5 5 5 5 5 5 5 5 5 5 5 5 5 5 5 5 5 5 5 5 5 5 5 5 5 5 5 5 5 5 5 5 5 5 5 5 5 5 5 5 5 5 5 5 5 5 5 5 5 5 5 5 5 5 5 5 5 5 5 5 5 5 5 5 5 5 5 5 5 5 5 5 5 5 5 5 5 5 5 5 5 5 5 5 5 5 5 5 5 5 5 5 5 5 5 5 5 5 5 5 5 5 5 5 5 5 5 5 5 5 5 5 5 5 5 5 5 5 5 5 5 5 5 5 5 5 5 5 5 5 5 5 5 5 5 5 5 5 5 5 5 5 5 5 5 5 5 5 5 5 5 5 5 5 5 5 5 5 5 5 5 5 5 5 5 5 5 5 5 5 5 5 5 5 5 5 5 5 5 5 5 5 5 5 5 5 5 5 5 5 5 5 5 5 5 5 5 5 5 5 5 5 5 5 5 5 5 5 5 5 5 5 5 5 5 5 5 5 5 5 5 5 5 5 5 5 5 5 5 5 5 5 5 5 5 5 5 5 5 5 5 5 5 5 5 5 5 5 5 5 5 5 5 5 5 5 5 5 5 5 5 5 5 5 5 5 5 5 5 5 5 5 5 5 5 5 5 5 5 5 5 5 5 5 5 5 5 5 5 5 5 5 5 5 5 5 5 5 5 5 5 5 5 5 5 5 5 5 5 5 5 5 5 5 5 5 5 5 5 5 5 5 5 5 5 5 5 5 5 5 5 5 5 5 5 5 5 5 5 5 5 5 5 5 5 5 5 5 5 5 5 5 5 5 5 5 5 5 5 5 5 5 5 5 5 5 5 5 5 5 5 5 5 5 5 5 5 5 5 5 5 5 5 5 5 5 5 5 5 5 5 5 5 5 5 5 5 5 5 5 5 5 5 5 5 5 5 5 5 5 5 5 5 5 5 5 5 5 5 5 5 5 5 5 5 5 5 5 5 5 5 5 5 5 5 5 5 5 5 5 5 5 5 5 5 5 5 5 5 5 5 5 5 5 5 5 5 5 5 5 5 5 5 5 5 5 5 5 5 5 5 5 5 5 5 5 5 5 5 5 5 5 5 5 5 5 5 5 5 5 5 5 5 5 5 5 5 5 5 5 5 5 5 5 5 5 5 5 5 5 5 5 5 5 5 5 5 5 5 5 5 5 5 5 5 5 5 5 5 5 5 5 5 5 5 5 5 5 5 5 5 5 5 5 5 5 5 5 5 5 5 5 5 5 5 5 5 5 5 5 5 5 5 5 5 5 5 5 5 5 5 5 5 5 5 5 5 5 5 5 5 5 5 5 5 5 5 
</DataArray>
</Cells>
<PointData Scalars="" Vectors="displacement," Tensors="">
<DataArray type="Float64" Name="displacement" NumberOfComponents="3" format="ascii">
7.1491454503573297e-05 7.1454538492019717e-05 0 0.00015942422851516878 0.14283361345094567 0 0.10202217414503444 0.10200145733652835 0 7.1491454503573297e-05 7.1454538492019717e-05 0 0.10202217414503444 0.10200145733652835 0 0.14283370565048475 0.00015966116061751388 0 0.00015942422851516878 0.14283361345094567 0 0.10202217414503444 0.10200145733652835 0 0.11294736657446446 0.21224116181984565 0 0.10202217414503444 0.10200145733652835 0 0.22443915813132922 0.12401570133269266 0 0.11294736657446446 0.21224116181984565 0 0.10202217414503444 0.10200145733652835 0 0.14283370565048475 0.00015966116061751388 0 0.22443915813132922 0.12401570133269266 0 0.14283370565048475 0.00015966116061751388 0 0.28571303995429392 0.00013357202749891169 0 0.22443915813132922 0.12401570133269266 0 0.35861012525236657 0.088506348729109646 0 0.28571303995429392 0.00013357202749891169 0 0.42856099280639787 0.00013973030600632295 0 0.35861012525236657 0.088506348729109646 0 0.28571303995429392 0.00013357202749891169 0 0.22443915813132922 0.12401570133269266 0 0.35861012525236657 0.088506348729109646 0 0.22443915813132922 0.12401570133269266 0 0.36160189396026399 0.20290962827847608 0 0.22443915813132922 0.12401570133269266 0 0.23615942799010162 0.27276576675925107 0 0.11294736657446446 0.21224116181984565 0 0.22443915813132922 0.12401570133269266 0 0.36160189396026399 0.20290962827847608 0 0.23615942799010162 0.27276576675925107 0 0.36160189396026399 0.20290962827847608 0 0.23615942799010162 0.27276576675925107 0 0.36411854184599962 0.34186643761499136 0 0.23615942799010162 0.27276576675925107 0 0.36411854184599962 0.34186643761499136 0 0.23483053668802142 0.41542673519942597 0 0.23615942799010162 0.27276576675925107 0 0.11772094274111655 0.3481393992741641 0 0.23483053668802142 0.41542673519942597 0 0.23615942799010162 0.27276576675925107 0 0.11772094274111655 0.3481393992741641 0 0.11294736657446446 0.21224116181984565 0 0.11772094274111655 0.3481393992741641 0 0.000134258679289284 0.2857132210786465 0 0.11294736657446446 0.21224116181984565 0 0.11772094274111655 0.3481393992741641 0 0.000134258679289284 0.2857132210786465 0 0.00013896101474236811 0.42856062444865861 0 0.00015942422851516878 0.14283361345094567 0 0.000134258679289284 0.2857132210786465 0 0.11294736657446446 0.21224116181984565 0 0.62808845608103903 0.082297407588834678 0 0.61062009097577463 0.19506220737313154 0 0.74089911464067049 0.11261306455277843 0 0.71425785985545109 0.00013406545478724706 0 0.62808845608103903 0.082297407588834678 0 0.74089911464067049 0.11261306455277843 0 0.62808845608103903 0.082297407588834678 0 0.57141626141534752 0.00013362393681812238 0 0.49262002668583721 0.11689753268704779 0 0.71425785985545109 0.00013406545478724706 0 0.62808845608103903 0.082297407588834678 0 0.57141626141534752 0.00013362393681812238 0 0.62808845608103903 0.082297407588834678 0 0.49262002668583721 0.11689753268704779 0 0.61062009097577463 0.19506220737313154 0 0.57141626141534752 0.00013362393681812238 0 0.49262002668583721 0.11689753268704779 0 0.42856099280639787 0.00013973030600632295 0 0.35861012525236657 0.088506348729109646 0 0.49262002668583721 0.11689753268704779 0 0.42856099280639787 0.00013973030600632295 0 0.35861012525236657 0.088506348729109646 0 0.36160189396026399 0.20290962827847608 0 0.49262002668583721 0.11689753268704779 0 0.36160189396026399 0.20290962827847608 0 0.49262002668583721 0.11689753268704779 0 0.48684553962897836 0.26943547300945997 0 0.36411854184599962 0.34186643761499136 0 0.48684553962897836 0.26943547300945997 0 0.48165359740752201 0.40768387700184355 0 0.36160189396026399 0.20290962827847608 0 0.36411854184599962 0.34186643761499136 0 0.48684553962897836 0.26943547300945997 0 0.48684553962897836 0.26943547300945997 0 0.59733877279004477 0.33617002037839899 0 0.48165359740752201 0.40768387700184355 0 0.49262002668583721 0.11689753268704779 0 0.48684553962897836 0.26943547300945997 0 0.61062009097577463 0.19506220737313154 0 0.48684553962897836 0.26943547300945997 0 0.61062009097577463 0.19506220737313154 0 0.59733877279004477 0.33617002037839899 0 0.59733877279004477 0.33617002037839899 0 0.69486068266449674 0.40702086343110999 0 0.70654130942850579 0.26453956519419908 0 0.61062009097577463 0.19506220737313154 0 0.59733877279004477 0.33617002037839899 0 0.70654130942850579 0.26453956519419908 0 0.61062009097577463 0.19506220737313154 0 0.70654130942850579 0.26453956519419908 0 0.74089911464067049 0.11261306455277843 0 0.59236398180897798 0.47506769777125579 0 0.69476865134717358 0.54489658057314094 0 0.69486068266449674 0.40702086343110999 0 0.59733877279004477 0.33617002037839899 0 0.59236398180897798 0.47506769777125579 0 0.69486068266449674 0.40702086343110999 0 0.59733877279004477 0.33617002037839899 0 0.59236398180897798 0.47506769777125579 0 0.48165359740752201 0.40768387700184355 0 0.59236398180897798 0.47506769777125579 0 0.48165359740752201 0.40768387700184355 0 0.47964286010066043 0.54165074398330759 0 0.36411854184599962 0.34186643761499136 0 0.48165359740752201 0.40768387700184355 0 0.36075350001878953 0.47848224533763051 0 0.48165359740752201 0.40768387700184355 0 0.36075350001878953 0.47848224533763051 0 0.47964286010066043 0.54165074398330759 0 0.36006322108913613 0.60785821303245724 0 0.48123006203467378 0.66613062085693764 0 0.47964286010066043 0.54165074398330759 0 0.36075350001878953 0.47848224533763051 0 0.36006322108913613 0.60785821303245724 0 0.47964286010066043 0.54165074398330759 0 0.36006322108913613 0.60785821303245724 0 0.48123006203467378 0.66613062085693764 0 0.3605757192641833 0.72129784519560269 0 0.48123006203467378 0.66613062085693764 0 0.47964286010066043 0.54165074398330759 0 0.59419798201331608 0.60638468821772573 0 0.59236398180897798 0.47506769777125579 0 0.47964286010066043 0.54165074398330759 0 0.59419798201331608 0.60638468821772573 0 0.48123006203467378 0.66613062085693764 0 0.59419798201331608 0.60638468821772573 0 0.60572045795676621 0.72345140234717076 0 0.59419798201331608 0.60638468821772573 0 0.60572045795676621 0.72345140234717076 0 0.70761063098107846 0.67651765505752492 0 0.59236398180897798 0.47506769777125579 0 0.59419798201331608 0.60638468821772573 0 0.69476865134717358 0.54489658057314094 0 0.59419798201331608 0.60638468821772573 0 0.69476865134717358 0.54489658057314094 0 0.70761063098107846 0.67651765505752492 0 0.11664261570689435 0.49024778675104291 0 0.00013896101474236811 0.42856062444865861 0 0.00013503295855187223 0.57141717486340893 0 0.11772094274111655 0.3481393992741641 0 0.11664261570689435 0.49024778675104291 0 0.00013896101474236811 0.42856062444865861 0 0.11772094274111655 0.3481393992741641 0 0.11664261570689435 0.49024778675104291 0 0.23483053668802142 0.41542673519942597 0 0.36411854184599962 0.34186643761499136 0 0.36075350001878953 0.47848224533763051 0 0.23483053668802142 0.41542673519942597 0 0.36075350001878953 0.47848224533763051 0 0.23483053668802142 0.41542673519942597 0 0.23862001301591956 0.55061903367496601 0 0.11664261570689435 0.49024778675104291 0 0.23483053668802142 0.41542673519942597 0 0.23862001301591956 0.55061903367496601 0 0.23862001301591956 0.55061903367496601 0 0.23660495244359267 0.67712157914158189 0 0.11749027042799838 0.62688639624379927 0 0.36006322108913613 0.60785821303245724 0 0.23862001301591956 0.55061903367496601 0 0.23660495244359267 0.67712157914158189 0 0.36075350001878953 0.47848224533763051 0 0.36006322108913613 0.60785821303245724 0 0.23862001301591956 0.55061903367496601 0 0.36006322108913613 0.60785821303245724 0 0.23660495244359267 0.67712157914158189 0 0.3605757192641833 0.72129784519560269 0 0.23660495244359267 0.67712157914158189 0 0.11749027042799838 0.62688639624379927 0 0.10981565334514064 0.75319412579356948 0 0.11664261570689435 0.49024778675104291 0 0.23862001301591956 0.55061903367496601 0 0.11749027042799838 0.62688639624379927 0 0.11749027042799838 0.62688639624379927 0 0.00013503295855187223 0.57141717486340893 0 0.00013205910331799114 0.71425620259523093 0 0.11664261570689435 0.49024778675104291 0 0.11749027042799838 0.62688639624379927 0 0.00013503295855187223 0.57141717486340893 0 0.11749027042799838 0.62688639624379927 0 0.00013205910331799114 0.71425620259523093 0 0.10981565334514064 0.75319412579356948 0 0.00013205910331799114 0.71425620259523093 0 0.10981565334514064 0.75319412579356948 0 0.00012627323629332618 0.85712255694646611 0 0.10981565334514064 0.75319412579356948 0 0.089820854958254204 0.85491393182985631 0 0.21873211835085901 0.79884269901813365 0 0.089820854958254204 0.85491393182985631 0 0.13257130081010843 0.90206776141346734 0 0.21873211835085901 0.79884269901813365 0 0.089820854958254204 0.85491393182985631 0 0.00012627323629332618 0.85712255694646611 0 0.00012997042738179852 0.9998268636661497 0 0.10981565334514064 0.75319412579356948 0 0.089820854958254204 0.85491393182985631 0 0.00012627323629332618 0.85712255694646611 0 0.089820854958254204 0.85491393182985631 0 0.00012997042738179852 0.9998268636661497 0 0.13257130081010843 0.90206776141346734 0 0.13257130081010843 0.90206776141346734 0 0.10883200005042896 1.0660662668987013 0 0.21738210598501345 1.0490204942651733 0 0.00012997042738179852 0.9998268636661497 0 0.13257130081010843 0.90206776141346734 0 0.10883200005042896 1.0660662668987013 0 0.00012997042738179852 0.9998268636661497 0 0.10883200005042896 1.0660662668987013 0 0.00015802328225345859 1.1428408958333276 0 0.35163346443726951 1.0305180221955947 0 0.27212340326966777 0.85604866910764987 0 0.413369509917483 0.83654007411716758 0 0.35163346443726951 1.0305180221955947 0 0.21738210598501345 1.0490204942651733 0 0.27212340326966777 0.85604866910764987 0 0.13257130081010843 0.90206776141346734 0 0.21738210598501345 1.0490204942651733 0 0.27212340326966777 0.85604866910764987 0 0.13257130081010843 0.90206776141346734 0 0.27212340326966777 0.85604866910764987 0 0.21873211835085901 0.79884269901813365 0 0.27212340326966777 0.85604866910764987 0 0.34936249703075023 0.79892216552773965 0 0.413369509917483 0.83654007411716758 0 0.27212340326966777 0.85604866910764987 0 0.34936249703075023 0.79892216552773965 0 0.21873211835085901 0.79884269901813365 0 0.34936249703075023 0.79892216552773965 0 0.21873211835085901 0.79884269901813365 0 0.3605757192641833 0.72129784519560269 0 0.23660495244359267 0.67712157914158189 0 0.10981565334514064 0.75319412579356948 0 0.21873211835085901 0.79884269901813365 0 0.23660495244359267 0.67712157914158189 0 0.21873211835085901 0.79884269901813365 0 0.3605757192641833 0.72129784519560269 0 0.48123006203467378 0.66613062085693764 0 0.3605757192641833 0.72129784519560269 0 0.48173797721807882 0.77470627607802611 0 0.48123006203467378 0.66613062085693764 0 0.48173797721807882 0.77470627607802611 0 0.60572045795676621 0.72345140234717076 0 0.34936249703075023 0.79892216552773965 0 0.48173797721807882 0.77470627607802611 0 0.413369509917483 0.83654007411716758 0 0.34936249703075023 0.79892216552773965 0 0.3605757192641833 0.72129784519560269 0 0.48173797721807882 0.77470627607802611 0 0.60572045795676621 0.72345140234717076 0 0.73840932660503911 0.80349384833005988 0 0.70761063098107846 0.67651765505752492 0 0.48173797721807882 0.77470627607802611 0 0.61524937878575681 0.80177171957140903 0 0.55267063921189807 0.83822902048274084 0 0.48173797721807882 0.77470627607802611 0 0.60572045795676621 0.72345140234717076 0 0.61524937878575681 0.80177171957140903 0 0.61524937878575681 0.80177171957140903 0 0.69305107013673961 0.85956812668760696 0 0.73840932660503911 0.80349384833005988 0 0.60572045795676621 0.72345140234717076 0 0.61524937878575681 0.80177171957140903 0 0.73840932660503911 0.80349384833005988 0 0.61524937878575681 0.80177171957140903 0 0.69305107013673961 0.85956812668760696 0 0.55267063921189807 0.83822902048274084 0 0.55267063921189807 0.83822902048274084 0 0.63141190588078411 1.0393949494419323 0 0.49124783265763833 1.0285926177145488 0 0.69305107013673961 0.85956812668760696 0 0.55267063921189807 0.83822902048274084 0 0.63141190588078411 1.0393949494419323 0 0.69305107013673961 0.85956812668760696 0 0.63141190588078411 1.0393949494419323 0 0.77566711152400858 1.0617516332219921 0 0.48173797721807882 0.77470627607802611 0 0.55267063921189807 0.83822902048274084 0 0.413369509917483 0.83654007411716758 0 0.55267063921189807 0.83822902048274084 0 0.413369509917483 0.83654007411716758 0 0.49124783265763833 1.0285926177145488 0 0.35163346443726951 1.0305180221955947 0 0.413369509917483 0.83654007411716758 0 0.49124783265763833 1.0285926177145488 0 0.35163346443726951 1.0305180221955947 0 0.49124783265763833 1.0285926177145488 0 0.42548246741905776 1.1929671822409489 0 0.49124783265763833 1.0285926177145488 0 0.42548246741905776 1.1929671822409489 0 0.5674161579082645 1.2006393986704407 0 0.42548246741905776 1.1929671822409489 0 0.5674161579082645 1.2006393986704407 0 0.49768638765909368 1.3480557923902696 0 0.63141190588078411 1.0393949494419323 0 0.71670419851829748 1.2118104344635812 0 0.77566711152400858 1.0617516332219921 0 0.63141190588078411 1.0393949494419323 0 0.49124783265763833 1.0285926177145488 0 0.5674161579082645 1.2006393986704407 0 0.63141190588078411 1.0393949494419323 0 0.5674161579082645 1.2006393986704407 0 0.71670419851829748 1.2118104344635812 0 0.5674161579082645 1.2006393986704407 0 0.71670419851829748 1.2118104344635812 0 0.64718236334828216 1.3536078172862596 0 0.71670419851829748 1.2118104344635812 0 0.64718236334828216 1.3536078172862596 0 0.81209871552192037 1.358576037025377 0 0.5674161579082645 1.2006393986704407 0 0.64718236334828216 1.3536078172862596 0 0.49768638765909368 1.3480557923902696 0 0.64718236334828216 1.3536078172862596 0 0.5736072089899793 1.4936912416106425 0 0.731180123042804 1.4943477367643041 0 0.64718236334828216 1.3536078172862596 0 0.5736072089899793 1.4936912416106425 0 0.49768638765909368 1.3480557923902696 0 0.64718236334828216 1.3536078172862596 0 0.731180123042804 1.4943477367643041 0 0.81209871552192037 1.358576037025377 0 0.42548246741905776 1.1929671822409489 0 0.49768638765909368 1.3480557923902696 0 0.35784412261474502 1.3457290742165628 0 0.5736072089899793 1.4936912416106425 0 0.49768638765909368 1.3480557923902696 0 0.42851158310453824 1.4921659865147601 0 0.49768638765909368 1.3480557923902696 0 0.42851158310453824 1.4921659865147601 0 0.35784412261474502 1.3457290742165628 0 0.42851158310453824 1.4921659865147601 0 0.35784412261474502 1.3457290742165628 0 0.28535304844337317 1.4939443920988489 0 0.35784412261474502 1.3457290742165628 0 0.21694717782489642 1.3487111373438534 0 0.28674267846656465 1.1979751013519024 0 0.21694717782489642 1.3487111373438534 0 0.28535304844337317 1.4939443920988489 0 0.13477757303762655 1.4980923240967421 0 0.35784412261474502 1.3457290742165628 0 0.21694717782489642 1.3487111373438534 0 0.28535304844337317 1.4939443920988489 0 0.13477757303762655 1.4980923240967421 0 0.00015000904499728437 1.428567717207802 0 0.094813065542435321 1.3504371140086171 0 0.13477757303762655 1.4980923240967421 0 0.00015000904499728437 1.428567717207802 0 0.00014975594366081792 1.5714321331917001 0 0.00015000904499728437 1.428567717207802 0 0.094813065542435321 1.3504371140086171 0 0.00014843607236962304 1.285691753523132 0 0.21694717782489642 1.3487111373438534 0 0.094813065542435321 1.3504371140086171 0 0.13641339006076073 1.2078890855334641 0 0.21694717782489642 1.3487111373438534 0 0.13477757303762655 1.4980923240967421 0 0.094813065542435321 1.3504371140086171 0 0.13641339006076073 1.2078890855334641 0 0.00014843607236962304 1.285691753523132 0 0.00015802328225345859 1.1428408958333276 0 0.094813065542435321 1.3504371140086171 0 0.13641339006076073 1.2078890855334641 0 0.00014843607236962304 1.285691753523132 0 0.10883200005042896 1.0660662668987013 0 0.13641339006076073 1.2078890855334641 0 0.00015802328225345859 1.1428408958333276 0 0.10883200005042896 1.0660662668987013 0 0.21738210598501345 1.0490204942651733 0 0.13641339006076073 1.2078890855334641 0 0.21738210598501345 1.0490204942651733 0 0.13641339006076073 1.2078890855334641 0 0.28674267846656465 1.1979751013519024 0 0.35163346443726951 1.0305180221955947 0 0.42548246741905776 1.1929671822409489 0 0.28674267846656465 1.1979751013519024 0 0.35163346443726951 1.0305180221955947 0 0.21738210598501345 1.0490204942651733 0 0.28674267846656465 1.1979751013519024 0 0.42548246741905776 1.1929671822409489 0 0.35784412261474502 1.3457290742165628 0 0.28674267846656465 1.1979751013519024 0 0.21694717782489642 1.3487111373438534 0 0.13641339006076073 1.2078890855334641 0 0.28674267846656465 1.1979751013519024 0 1.2752531837104086 1.3003400050741922 0 1.1919445007770904 1.3608373552130058 0 1.1646727482906754 1.228696365435149 0 1.2752531837104086 1.3003400050741922 0 1.2459464604666977 1.1743246381732848 0 1.1646727482906754 1.228696365435149 0 1.2459464604666977 1.1743246381732848 0 1.1646727482906754 1.228696365435149 0 1.1250815374138519 1.1253266574514409 0 1.2752531837104086 1.3003400050741922 0 1.2459464604666977 1.1743246381732848 0 1.3871006947751436 1.2532187679334514 0 1.2459464604666977 1.1743246381732848 0 1.3871006947751436 1.2532187679334514 0 1.3603962132757259 1.1728923440216337 0 1.3871006947751436 1.2532187679334514 0 1.5017671255228515 1.1970991993070232 0 1.5048162969062224 1.3113587934626012 0 1.3871006947751436 1.2532187679334514 0 1.3603962132757259 1.1728923440216337 0 1.5017671255228515 1.1970991993070232 0 1.3871006947751436 1.2532187679334514 0 1.3905943857064791 1.3688936163083194 0 1.5048162969062224 1.3113587934626012 0 1.2752531837104086 1.3003400050741922 0 1.3871006947751436 1.2532187679334514 0 1.3905943857064791 1.3688936163083194 0 1.3905943857064791 1.3688936163083194 0 1.5048162969062224 1.3113587934626012 0 1.5046792299256384 1.4350147009894065 0 1.3905943857064791 1.3688936163083194 0 1.3932288976754261 1.4999874510472959 0 1.5046792299256384 1.4350147009894065 0 1.3905943857064791 1.3688936163083194 0 1.3932288976754261 1.4999874510472959 0 1.2865186507342687 1.4309257838920562 0 1.3932288976754261 1.4999874510472959 0 1.2865186507342687 1.4309257838920562 0 1.2871509282320317 1.5672073714017485 0 1.2752531837104086 1.3003400050741922 0 1.3905943857064791 1.3688936163083194 0 1.2865186507342687 1.4309257838920562 0 1.2752531837104086 1.3003400050741922 0 1.2865186507342687 1.4309257838920562 0 1.1919445007770904 1.3608373552130058 0 1.2865186507342687 1.4309257838920562 0 1.1980173999006756 1.4999873746627157 0 1.2871509282320317 1.5672073714017485 0 1.2865186507342687 1.4309257838920562 0 1.1919445007770904 1.3608373552130058 0 1.1980173999006756 1.4999873746627157 0 1.1980173999006756 1.4999873746627157 0 1.1342819927959611 1.4284040774737481 0 1.1342850836147962 1.5715982631001455 0 1.1919445007770904 1.3608373552130058 0 1.1980173999006756 1.4999873746627157 0 1.1342819927959611 1.4284040774737481 0 1.1342819927959611 1.4284040774737481 0 0.93492988110037079 1.4974605897579345 0 1.1342850836147962 1.5715982631001455 0 1.1342819927959611 1.4284040774737481 0 0.97550700792481704 1.3541808576185383 0 1.1150751328303357 1.2867115608489401 0 1.1919445007770904 1.3608373552130058 0 1.1342819927959611 1.4284040774737481 0 1.1150751328303357 1.2867115608489401 0 0.731180123042804 1.4943477367643041 0 0.93492988110037079 1.4974605897579345 0 0.81209871552192037 1.358576037025377 0 0.93492988110037079 1.4974605897579345 0 0.97550700792481704 1.3541808576185383 0 0.81209871552192037 1.358576037025377 0 1.1342819927959611 1.4284040774737481 0 0.93492988110037079 1.4974605897579345 0 0.97550700792481704 1.3541808576185383 0 0.97550700792481704 1.3541808576185383 0 0.81209871552192037 1.358576037025377 0 0.90089704611961674 1.2151448217990235 0 0.71670419851829748 1.2118104344635812 0 0.81209871552192037 1.358576037025377 0 0.90089704611961674 1.2151448217990235 0 0.97550700792481704 1.3541808576185383 0 0.90089704611961674 1.2151448217990235 0 1.1150751328303357 1.2867115608489401 0 0.90089704611961674 1.2151448217990235 0 1.0734845799927466 1.1435185285796534 0 0.90523558506366109 1.0715761832999708 0 0.90089704611961674 1.2151448217990235 0 0.77566711152400858 1.0617516332219921 0 0.90523558506366109 1.0715761832999708 0 0.71670419851829748 1.2118104344635812 0 0.90089704611961674 1.2151448217990235 0 0.77566711152400858 1.0617516332219921 0 1.1919445007770904 1.3608373552130058 0 1.1150751328303357 1.2867115608489401 0 1.1646727482906754 1.228696365435149 0 0.90089704611961674 1.2151448217990235 0 1.1150751328303357 1.2867115608489401 0 1.0734845799927466 1.1435185285796534 0 1.0734845799927466 1.1435185285796534 0 1.1646727482906754 1.228696365435149 0 1.1250815374138519 1.1253266574514409 0 1.1150751328303357 1.2867115608489401 0 1.0734845799927466 1.1435185285796534 0 1.1646727482906754 1.228696365435149 0 1.1250815374138519 1.1253266574514409 0 0.98795615087362709 0.98788510318719713 0 1.1434290941082288 1.0733022358138657 0 1.0734845799927466 1.1435185285796534 0 1.1250815374138519 1.1253266574514409 0 0.98795615087362709 0.98788510318719713 0 1.0734845799927466 1.1435185285796534 0 0.98795615087362709 0.98788510318719713 0 0.90523558506366109 1.0715761832999708 0 0.98795615087362709 0.98788510318719713 0 1.0714795446188419 0.90506538980717599 0 1.1434290941082288 1.0733022358138657 0 0.69305107013673961 0.85956812668760696 0 0.77566711152400858 1.0617516332219921 0 0.83310621536848517 0.90213694061312666 0 0.98795615087362709 0.98788510318719713 0 0.90523558506366109 1.0715761832999708 0 0.83310621536848517 0.90213694061312666 0 0.77566711152400858 1.0617516332219921 0 0.90523558506366109 1.0715761832999708 0 0.83310621536848517 0.90213694061312666 0 0.98795615087362709 0.98788510318719713 0 0.83310621536848517 0.90213694061312666 0 0.85082706475905379 0.85054795059700128 0 0.69305107013673961 0.85956812668760696 0 0.83310621536848517 0.90213694061312666 0 0.73840932660503911 0.80349384833005988 0 0.83310621536848517 0.90213694061312666 0 0.73840932660503911 0.80349384833005988 0 0.85082706475905379 0.85054795059700128 0 0.85082706475905379 0.85054795059700128 0 0.81344594313240348 0.74740078252227449 0 0.90214378264352379 0.83299465877786683 0 0.73840932660503911 0.80349384833005988 0 0.85082706475905379 0.85054795059700128 0 0.81344594313240348 0.74740078252227449 0 0.73840932660503911 0.80349384833005988 0 0.81344594313240348 0.74740078252227449 0 0.70761063098107846 0.67651765505752492 0 1.0714795446188419 0.90506538980717599 0 0.90214378264352379 0.83299465877786683 0 1.0615834045689392 0.77531499657670921 0 0.98795615087362709 0.98788510318719713 0 1.0714795446188419 0.90506538980717599 0 0.90214378264352379 0.83299465877786683 0 0.98795615087362709 0.98788510318719713 0 0.85082706475905379 0.85054795059700128 0 0.90214378264352379 0.83299465877786683 0 0.81344594313240348 0.74740078252227449 0 0.90214378264352379 0.83299465877786683 0 0.85932920420172976 0.69228525902387616 0 0.90214378264352379 0.83299465877786683 0 1.0615834045689392 0.77531499657670921 0 0.85932920420172976 0.69228525902387616 0 1.0615834045689392 0.77531499657670921 0 1.2148919619416414 0.9007011080277868 0 1.2117066849930276 0.71652468596085162 0 1.2148919619416414 0.9007011080277868 0 1.358500891391746 0.81200228386912943 0 1.2117066849930276 0.71652468596085162 0 1.2148919619416414 0.9007011080277868 0 1.2860449663411015 1.1149056142616511 0 1.3540826563362587 0.97549819904376589 0 1.0714795446188419 0.90506538980717599 0 1.0615834045689392 0.77531499657670921 0 1.2148919619416414 0.9007011080277868 0 1.0714795446188419 0.90506538980717599 0 1.2148919619416414 0.9007011080277868 0 1.1434290941082288 1.0733022358138657 0 1.2148919619416414 0.9007011080277868 0 1.1434290941082288 1.0733022358138657 0 1.2860449663411015 1.1149056142616511 0 1.2459464604666977 1.1743246381732848 0 1.2860449663411015 1.1149056142616511 0 1.3603962132757259 1.1728923440216337 0 1.2459464604666977 1.1743246381732848 0 1.1434290941082288 1.0733022358138657 0 1.2860449663411015 1.1149056142616511 0 1.2459464604666977 1.1743246381732848 0 1.1250815374138519 1.1253266574514409 0 1.1434290941082288 1.0733022358138657 0 1.3603962132757259 1.1728923440216337 0 1.4287705973624794 1.1343201292741865 0 1.5017671255228515 1.1970991993070232 0 1.2860449663411015 1.1149056142616511 0 1.3603962132757259 1.1728923440216337 0 1.4287705973624794 1.1343201292741865 0 1.2860449663411015 1.1149056142616511 0 1.4287705973624794 1.1343201292741865 0 1.3540826563362587 0.97549819904376589 0 1.4287705973624794 1.1343201292741865 0 1.4974544585403862 0.93485844390175965 0 1.5711939134228949 1.134408798248556 0 1.4974544585403862 0.93485844390175965 0 1.3540826563362587 0.97549819904376589 0 1.358500891391746 0.81200228386912943 0 1.4287705973624794 1.1343201292741865 0 1.4974544585403862 0.93485844390175965 0 1.3540826563362587 0.97549819904376589 0 1.2148919619416414 0.9007011080277868 0 1.3540826563362587 0.97549819904376589 0 1.358500891391746 0.81200228386912943 0 1.4974544585403862 0.93485844390175965 0 1.358500891391746 0.81200228386912943 0 1.4943353921601201 0.7311084688854752 0 1.358500891391746 0.81200228386912943 0 1.4943353921601201 0.7311084688854752 0 1.3535594891690383 0.64706672009719435 0 1.4943353921601201 0.7311084688854752 0 1.493683887214649 0.57353323109436827 0 1.3535594891690383 0.64706672009719435 0 1.493683887214649 0.57353323109436827 0 1.3535594891690383 0.64706672009719435 0 1.3480257325102076 0.49758617825738316 0 1.3535594891690383 0.64706672009719435 0 1.2005713026488249 0.56725627955849134 0 1.3480257325102076 0.49758617825738316 0 1.358500891391746 0.81200228386912943 0 1.3535594891690383 0.64706672009719435 0 1.2117066849930276 0.71652468596085162 0 1.0615834045689392 0.77531499657670921 0 1.2117066849930276 0.71652468596085162 0 1.0393670956695547 0.63120698993440294 0 1.2117066849930276 0.71652468596085162 0 1.2005713026488249 0.56725627955849134 0 1.0393670956695547 0.63120698993440294 0 1.2005713026488249 0.56725627955849134 0 1.0393670956695547 0.63120698993440294 0 1.0284776002785001 0.4910694709516078 0 1.3535594891690383 0.64706672009719435 0 1.2117066849930276 0.71652468596085162 0 1.2005713026488249 0.56725627955849134 0 1.2005713026488249 0.56725627955849134 0 1.1929096691766516 0.42535926048272793 0 1.3480257325102076 0.49758617825738316 0 1.2005713026488249 0.56725627955849134 0 1.1929096691766516 0.42535926048272793 0 1.0284776002785001 0.4910694709516078 0 1.1929096691766516 0.42535926048272793 0 1.0284776002785001 0.4910694709516078 0 1.0304371042249592 0.35145699385804996 0 1.1929096691766516 0.42535926048272793 0 1.3480257325102076 0.49758617825738316 0 1.3457155824915059 0.3577894038024656 0 1.4921654427139834 0.42845763353490141 0 1.3480257325102076 0.49758617825738316 0 1.3457155824915059 0.3577894038024656 0 1.493683887214649 0.57353323109436827 0 1.4921654427139834 0.42845763353490141 0 1.3480257325102076 0.49758617825738316 0 0.69476865134717358 0.54489658057314094 0 0.70761063098107846 0.67651765505752492 0 0.78585206443535216 0.61732949663786574 0 0.69476865134717358 0.54489658057314094 0 0.78585206443535216 0.61732949663786574 0 0.77681636160779921 0.47934461743525519 0 0.81344594313240348 0.74740078252227449 0 0.70761063098107846 0.67651765505752492 0 0.78585206443535216 0.61732949663786574 0 0.81344594313240348 0.74740078252227449 0 0.78585206443535216 0.61732949663786574 0 0.85932920420172976 0.69228525902387616 0 0.78585206443535216 0.61732949663786574 0 0.83830475280359928 0.55284894336262003 0 0.77681636160779921 0.47934461743525519 0 0.78585206443535216 0.61732949663786574 0 0.83830475280359928 0.55284894336262003 0 0.85932920420172976 0.69228525902387616 0 1.0615834045689392 0.77531499657670921 0 0.85932920420172976 0.69228525902387616 0 1.0393670956695547 0.63120698993440294 0 0.83830475280359928 0.55284894336262003 0 0.85932920420172976 0.69228525902387616 0 1.0393670956695547 0.63120698993440294 0 0.83830475280359928 0.55284894336262003 0 1.0393670956695547 0.63120698993440294 0 1.0284776002785001 0.4910694709516078 0 0.83830475280359928 0.55284894336262003 0 1.0284776002785001 0.4910694709516078 0 0.83647660129762591 0.41282748434797023 0 1.0284776002785001 0.4910694709516078 0 0.83647660129762591 0.41282748434797023 0 1.0304371042249592 0.35145699385804996 0 0.83830475280359928 0.55284894336262003 0 0.83647660129762591 0.41282748434797023 0 0.77681636160779921 0.47934461743525519 0 0.83647660129762591 0.41282748434797023 0 0.77681636160779921 0.47934461743525519 0 0.78450329394504148 0.33951655029661226 0 0.77681636160779921 0.47934461743525519 0 0.69486068266449674 0.40702086343110999 0 0.78450329394504148 0.33951655029661226 0 0.69476865134717358 0.54489658057314094 0 0.77681636160779921 0.47934461743525519 0 0.69486068266449674 0.40702086343110999 0 0.70654130942850579 0.26453956519419908 0 0.81084041883842206 0.20217972852689708 0 0.74089911464067049 0.11261306455277843 0 0.70654130942850579 0.26453956519419908 0 0.78450329394504148 0.33951655029661226 0 0.81084041883842206 0.20217972852689708 0 0.69486068266449674 0.40702086343110999 0 0.70654130942850579 0.26453956519419908 0 0.78450329394504148 0.33951655029661226 0 0.78450329394504148 0.33951655029661226 0 0.81084041883842206 0.20217972852689708 0 0.85549954676784468 0.27227845087565089 0 0.81084041883842206 0.20217972852689708 0 0.85549954676784468 0.27227845087565089 0 0.90206774745521257 0.13272799729326076 0 0.83647660129762591 0.41282748434797023 0 0.78450329394504148 0.33951655029661226 0 0.85549954676784468 0.27227845087565089 0 0.83647660129762591 0.41282748434797023 0 0.85549954676784468 0.27227845087565089 0 1.0304371042249592 0.35145699385804996 0 0.85549954676784468 0.27227845087565089 0 1.0304371042249592 0.35145699385804996 0 1.0489026473190759 0.21750010431591962 0 0.85549954676784468 0.27227845087565089 0 1.0489026473190759 0.21750010431591962 0 0.90206774745521257 0.13272799729326076 0 1.0489026473190759 0.21750010431591962 0 1.0660183655527984 0.10890209506263762 0 0.90206774745521257 0.13272799729326076 0 1.0660183655527984 0.10890209506263762 0 0.99982717774173335 0.00013049279941511964 0 1.1428407185895735 0.00015795432333081706 0 1.0660183655527984 0.10890209506263762 0 0.99982717774173335 0.00013049279941511964 0 0.90206774745521257 0.13272799729326076 0 0.99982717774173335 0.00013049279941511964 0 0.90206774745521257 0.13272799729326076 0 0.85502431842181803 0.090107258640828275 0 0.81084041883842206 0.20217972852689708 0 0.85502431842181803 0.090107258640828275 0 0.74089911464067049 0.11261306455277843 0 0.81084041883842206 0.20217972852689708 0 0.90206774745521257 0.13272799729326076 0 0.85502431842181803 0.090107258640828275 0 0.99982717774173335 0.00013049279941511964 0 0.85502431842181803 0.090107258640828275 0 0.85712143402922014 0.00012513321742372541 0 0.85502431842181803 0.090107258640828275 0 0.85712143402922014 0.00012513321742372541 0 0.74089911464067049 0.11261306455277843 0 0.71425785985545109 0.00013406545478724706 0 0.85712143402922014 0.00012513321742372541 0 0.74089911464067049 0.11261306455277843 0 1.3487044088549669 0.21694041155676 0 1.4939474205257002 0.28533005259646532 0 1.4980936942772063 0.13477751267285171 0 1.3487044088549669 0.21694041155676 0 1.4939474205257002 0.28533005259646532 0 1.3457155824915059 0.3577894038024656 0 1.4921654427139834 0.42845763353490141 0 1.4939474205257002 0.28533005259646532 0 1.3457155824915059 0.3577894038024656 0 1.3487044088549669 0.21694041155676 0 1.3457155824915059 0.3577894038024656 0 1.1979484957507549 0.28671172252816979 0 1.1929096691766516 0.42535926048272793 0 1.3457155824915059 0.3577894038024656 0 1.1979484957507549 0.28671172252816979 0 1.1929096691766516 0.42535926048272793 0 1.0304371042249592 0.35145699385804996 0 1.1979484957507549 0.28671172252816979 0 1.0304371042249592 0.35145699385804996 0 1.0489026473190759 0.21750010431591962 0 1.1979484957507549 0.28671172252816979 0 1.0489026473190759 0.21750010431591962 0 1.1979484957507549 0.28671172252816979 0 1.2078526742531075 0.1364623976238693 0 1.3487044088549669 0.21694041155676 0 1.1979484957507549 0.28671172252816979 0 1.2078526742531075 0.1364623976238693 0 1.0489026473190759 0.21750010431591962 0 1.0660183655527984 0.10890209506263762 0 1.2078526742531075 0.1364623976238693 0 1.0660183655527984 0.10890209506263762 0 1.2078526742531075 0.1364623976238693 0 1.1428407185895735 0.00015795432333081706 0 1.2078526742531075 0.1364623976238693 0 1.2856917516065198 0.00014848580168171029 0 1.3504291515267528 0.094826804927226893 0 1.2078526742531075 0.1364623976238693 0 1.1428407185895735 0.00015795432333081706 0 1.2856917516065198 0.00014848580168171029 0 1.2856917516065198 0.00014848580168171029 0 1.3504291515267528 0.094826804927226893 0 1.4285677002364185 0.00015001114505288254 0 1.3487044088549669 0.21694041155676 0 1.3504291515267528 0.094826804927226893 0 1.4980936942772063 0.13477751267285171 0 1.3487044088549669 0.21694041155676 0 1.2078526742531075 0.1364623976238693 0 1.3504291515267528 0.094826804927226893 0 1.4980936942772063 0.13477751267285171 0 1.4285677002364185 0.00015001114505288254 0 1.5714321450058868 0.00014975658399235366 0 1.3504291515267528 0.094826804927226893 0 1.4980936942772063 0.13477751267285171 0 1.4285677002364185 0.00015001114505288254 0 1.4980936942772063 0.13477751267285171 0 1.5714321450058868 0.00014975658399235366 0 1.6432829763814718 0.10009868513643844 0 1.5714321450058868 0.00014975658399235366 0 1.6432829763814718 0.10009868513643844 0 1.7143084824541912 0.00014877084718771714 0 1.6432829763814718 0.10009868513643844 0 1.6414922046294067 0.22037521603777033 0 1.7940054011366069 0.13698031878326719 0 1.4980936942772063 0.13477751267285171 0 1.6432829763814718 0.10009868513643844 0 1.6414922046294067 0.22037521603777033 0 1.4939474205257002 0.28533005259646532 0 1.4980936942772063 0.13477751267285171 0 1.6414922046294067 0.22037521603777033 0 1.6414922046294067 0.22037521603777033 0 1.6380513645922117 0.3605416068783755 0 1.7948915118434856 0.28528994634122118 0 1.4939474205257002 0.28533005259646532 0 1.6414922046294067 0.22037521603777033 0 1.6380513645922117 0.3605416068783755 0 1.4921654427139834 0.42845763353490141 0 1.4939474205257002 0.28533005259646532 0 1.6380513645922117 0.3605416068783755 0 1.7948915118434856 0.28528994634122118 0 1.9635351006102431 0.3487909430951675 0 1.800809992985245 0.42645040163864434 0 1.7948915118434856 0.28528994634122118 0 1.9501296991177877 0.21658136965613772 0 1.9635351006102431 0.3487909430951675 0 1.6380513645922117 0.3605416068783755 0 1.7948915118434856 0.28528994634122118 0 1.800809992985245 0.42645040163864434 0 1.6414922046294067 0.22037521603777033 0 1.7948915118434856 0.28528994634122118 0 1.7940054011366069 0.13698031878326719 0 1.7948915118434856 0.28528994634122118 0 1.7940054011366069 0.13698031878326719 0 1.9501296991177877 0.21658136965613772 0 1.7940054011366069 0.13698031878326719 0 1.9344507651255223 0.10836128833486872 0 1.9501296991177877 0.21658136965613772 0 1.6432829763814718 0.10009868513643844 0 1.7940054011366069 0.13698031878326719 0 1.7143084824541912 0.00014877084718771714 0 1.7940054011366069 0.13698031878326719 0 1.7143084824541912 0.00014877084718771714 0 1.857159314527332 0.00015788473093192385 0 1.7940054011366069 0.13698031878326719 0 1.857159314527332 0.00015788473093192385 0 1.9344507651255223 0.10836128833486872 0 2.0001726684990282 0.00013047591329021175 0 2.0980285573368254 0.13269566451366743 0 1.9344507651255223 0.10836128833486872 0 1.857159314527332 0.00015788473093192385 0 2.0001726684990282 0.00013047591329021175 0 1.9344507651255223 0.10836128833486872 0 2.0001726684990282 0.00013047591329021175 0 2.0980285573368254 0.13269566451366743 0 2.1443617290838639 0.089543990998903547 0 2.0980285573368254 0.13269566451366743 0 1.9344507651255223 0.10836128833486872 0 1.9501296991177877 0.21658136965613772 0 2.1428784276727186 0.00012528578148113704 0 2.2554806928367177 0.11263969979782819 0 2.2857425193950109 0.00013376878336877771 0 2.1428784276727186 0.00012528578148113704 0 2.1443617290838639 0.089543990998903547 0 2.2554806928367177 0.11263969979782819 0 2.0001726684990282 0.00013047591329021175 0 2.1428784276727186 0.00012528578148113704 0 2.1443617290838639 0.089543990998903547 0 2.1443617290838639 0.089543990998903547 0 2.2554806928367177 0.11263969979782819 0 2.1868260490389466 0.19819029815728895 0 2.0980285573368254 0.13269566451366743 0 2.1443617290838639 0.089543990998903547 0 2.1868260490389466 0.19819029815728895 0 2.2554806928367177 0.11263969979782819 0 2.1868260490389466 0.19819029815728895 0 2.2922247477180449 0.26159996669147645 0 2.1868260490389466 0.19819029815728895 0 2.2157317509461194 0.33535735232480035 0 2.1445468045735172 0.27229919779400191 0 2.1868260490389466 0.19819029815728895 0 2.2157317509461194 0.33535735232480035 0 2.2922247477180449 0.26159996669147645 0 2.2157317509461194 0.33535735232480035 0 2.2922247477180449 0.26159996669147645 0 2.3054252335908636 0.40675770548603191 0 2.0980285573368254 0.13269566451366743 0 1.9501296991177877 0.21658136965613772 0 2.1445468045735172 0.27229919779400191 0 2.0980285573368254 0.13269566451366743 0 2.1868260490389466 0.19819029815728895 0 2.1445468045735172 0.27229919779400191 0 2.2157317509461194 0.33535735232480035 0 2.1445468045735172 0.27229919779400191 0 2.1634366082527596 0.41286443288897345 0 2.1445468045735172 0.27229919779400191 0 1.9635351006102431 0.3487909430951675 0 2.1634366082527596 0.41286443288897345 0 1.9501296991177877 0.21658136965613772 0 2.1445468045735172 0.27229919779400191 0 1.9635351006102431 0.3487909430951675 0 1.9635351006102431 0.3487909430951675 0 2.1634366082527596 0.41286443288897345 0 1.9673810034218588 0.48952204394233784 0 2.1634366082527596 0.41286443288897345 0 2.2244429303452358 0.47858899957144091 0 2.1615515137270616 0.55290156415215164 0 2.1634366082527596 0.41286443288897345 0 2.1615515137270616 0.55290156415215164 0 1.9673810034218588 0.48952204394233784 0 2.2157317509461194 0.33535735232480035 0 2.3054252335908636 0.40675770548603191 0 2.2244429303452358 0.47858899957144091 0 2.2157317509461194 0.33535735232480035 0 2.1634366082527596 0.41286443288897345 0 2.2244429303452358 0.47858899957144091 0 2.3054252335908636 0.40675770548603191 0 2.2244429303452358 0.47858899957144091 0 2.311247438434108 0.54443724263572357 0 2.2244429303452358 0.47858899957144091 0 2.2181623619204065 0.6163975129287822 0 2.311247438434108 0.54443724263572357 0 2.2181623619204065 0.6163975129287822 0 2.311247438434108 0.54443724263572357 0 2.3025946053886255 0.67381317393805762 0 2.2244429303452358 0.47858899957144091 0 2.2181623619204065 0.6163975129287822 0 2.1615515137270616 0.55290156415215164 0 2.2181623619204065 0.6163975129287822 0 2.1405336336753189 0.69232055185720598 0 2.1923249595593584 0.74529940811438966 0 2.2181623619204065 0.6163975129287822 0 2.3025946053886255 0.67381317393805762 0 2.1923249595593584 0.74529940811438966 0 2.1615515137270616 0.55290156415215164 0 2.1405336336753189 0.69232055185720598 0 1.9501842016252471 0.63192901563705461 0 2.1615515137270616 0.55290156415215164 0 1.9501842016252471 0.63192901563705461 0 1.9673810034218588 0.48952204394233784 0 2.2181623619204065 0.6163975129287822 0 2.1615515137270616 0.55290156415215164 0 2.1405336336753189 0.69232055185720598 0 2.1405336336753189 0.69232055185720598 0 1.9501842016252471 0.63192901563705461 0 1.9314146354397936 0.77603586765828336 0 1.9501842016252471 0.63192901563705461 0 1.7770976287467355 0.7175273217159126 0 1.9314146354397936 0.77603586765828336 0 1.9501842016252471 0.63192901563705461 0 1.7890154645219307 0.56743652193904892 0 1.7770976287467355 0.7175273217159126 0 1.9501842016252471 0.63192901563705461 0 1.7890154645219307 0.56743652193904892 0 1.9673810034218588 0.48952204394233784 0 1.7890154645219307 0.56743652193904892 0 1.7770976287467355 0.7175273217159126 0 1.634320769139687 0.64770766671195212 0 1.7770976287467355 0.7175273217159126 0 1.634320769139687 0.64770766671195212 0 1.6278627571529563 0.81528151408879057 0 1.4943353921601201 0.7311084688854752 0 1.634320769139687 0.64770766671195212 0 1.6278627571529563 0.81528151408879057 0 1.4943353921601201 0.7311084688854752 0 1.493683887214649 0.57353323109436827 0 1.634320769139687 0.64770766671195212 0 1.493683887214649 0.57353323109436827 0 1.634320769139687 0.64770766671195212 0 1.6389515657661355 0.49960965000714813 0 1.7890154645219307 0.56743652193904892 0 1.634320769139687 0.64770766671195212 0 1.6389515657661355 0.49960965000714813 0 1.493683887214649 0.57353323109436827 0 1.4921654427139834 0.42845763353490141 0 1.6389515657661355 0.49960965000714813 0 1.4921654427139834 0.42845763353490141 0 1.6380513645922117 0.3605416068783755 0 1.6389515657661355 0.49960965000714813 0 1.6380513645922117 0.3605416068783755 0 1.6389515657661355 0.49960965000714813 0 1.800809992985245 0.42645040163864434 0 1.9635351006102431 0.3487909430951675 0 1.800809992985245 0.42645040163864434 0 1.9673810034218588 0.48952204394233784 0 1.7890154645219307 0.56743652193904892 0 1.800809992985245 0.42645040163864434 0 1.9673810034218588 0.48952204394233784 0 1.7890154645219307 0.56743652193904892 0 1.6389515657661355 0.49960965000714813 0 1.800809992985245 0.42645040163864434 0 2.9998657918246283 0.28571320360723163 0 2.8860102897028566 0.35133132125948829 0 2.9998609890196581 0.42856066056791631 0 2.9998657918246283 0.28571320360723163 0 2.8860102897028566 0.35133132125948829 0 2.8875828983111531 0.21318701068746237 0 2.8860102897028566 0.35133132125948829 0 2.8875828983111531 0.21318701068746237 0 2.7692157490337346 0.27426643402033701 0 2.9998657918246283 0.28571320360723163 0 2.8875828983111531 0.21318701068746237 0 2.9998405715515046 0.14283362322671719 0 2.8875828983111531 0.21318701068746237 0 2.9998405715515046 0.14283362322671719 0 2.8974273403636888 0.1025504775124621 0 2.9999284958526418 7.146636087575545e-05 0 2.857166307384845 0.00015964646810794419 0 2.8974273403636888 0.1025504775124621 0 2.9998405715515046 0.14283362322671719 0 2.9999284958526418 7.146636087575545e-05 0 2.8974273403636888 0.1025504775124621 0 2.857166307384845 0.00015964646810794419 0 2.8974273403636888 0.1025504775124621 0 2.7740048956779884 0.12344587247982562 0 2.8875828983111531 0.21318701068746237 0 2.8974273403636888 0.1025504775124621 0 2.7740048956779884 0.12344587247982562 0 2.857166307384845 0.00015964646810794419 0 2.7740048956779884 0.12344587247982562 0 2.7142869191041128 0.00013356029183989713 0 2.7740048956779884 0.12344587247982562 0 2.7142869191041128 0.00013356029183989713 0 2.6472659976284048 0.083507719781828305 0 2.7142869191041128 0.00013356029183989713 0 2.6472659976284048 0.083507719781828305 0 2.5714390579569288 0.00013974771824465821 0 2.7740048956779884 0.12344587247982562 0 2.6472659976284048 0.083507719781828305 0 2.6469051946559832 0.19846491004821698 0 2.8875828983111531 0.21318701068746237 0 2.7740048956779884 0.12344587247982562 0 2.7692157490337346 0.27426643402033701 0 2.7740048956779884 0.12344587247982562 0 2.6469051946559832 0.19846491004821698 0 2.7692157490337346 0.27426643402033701 0 2.8860102897028566 0.35133132125948829 0 2.7692157490337346 0.27426643402033701 0 2.7697864025195722 0.41483832106330926 0 2.7692157490337346 0.27426643402033701 0 2.6488749266445444 0.33928048987860399 0 2.7697864025195722 0.41483832106330926 0 2.6469051946559832 0.19846491004821698 0 2.7692157490337346 0.27426643402033701 0 2.6488749266445444 0.33928048987860399 0 2.6488749266445444 0.33928048987860399 0 2.5227552988314517 0.26228078833437901 0 2.529419230750158 0.40539469780883253 0 2.5227552988314517 0.26228078833437901 0 2.4110662417865809 0.33628938396853919 0 2.529419230750158 0.40539469780883253 0 2.5227552988314517 0.26228078833437901 0 2.5109254092655409 0.11696774470814603 0 2.3939970210681083 0.19539006823560046 0 2.6469051946559832 0.19846491004821698 0 2.5227552988314517 0.26228078833437901 0 2.5109254092655409 0.11696774470814603 0 2.6469051946559832 0.19846491004821698 0 2.6488749266445444 0.33928048987860399 0 2.5227552988314517 0.26228078833437901 0 2.6472659976284048 0.083507719781828305 0 2.6469051946559832 0.19846491004821698 0 2.5109254092655409 0.11696774470814603 0 2.6472659976284048 0.083507719781828305 0 2.5714390579569288 0.00013974771824465821 0 2.5109254092655409 0.11696774470814603 0 2.5714390579569288 0.00013974771824465821 0 2.5109254092655409 0.11696774470814603 0 2.4285835342768434 0.00013376204105109481 0 2.5109254092655409 0.11696774470814603 0 2.374334631403439 0.083733595463730326 0 2.3939970210681083 0.19539006823560046 0 2.5109254092655409 0.11696774470814603 0 2.374334631403439 0.083733595463730326 0 2.4285835342768434 0.00013376204105109481 0 2.374334631403439 0.083733595463730326 0 2.4285835342768434 0.00013376204105109481 0 2.2857425193950109 0.00013376878336877771 0 2.2554806928367177 0.11263969979782819 0 2.374334631403439 0.083733595463730326 0 2.2857425193950109 0.00013376878336877771 0 2.2554806928367177 0.11263969979782819 0 2.374334631403439 0.083733595463730326 0 2.3939970210681083 0.19539006823560046 0 2.2554806928367177 0.11263969979782819 0 2.2922247477180449 0.26159996669147645 0 2.3939970210681083 0.19539006823560046 0 2.5227552988314517 0.26228078833437901 0 2.3939970210681083 0.19539006823560046 0 2.4110662417865809 0.33628938396853919 0 2.2922247477180449 0.26159996669147645 0 2.3939970210681083 0.19539006823560046 0 2.4110662417865809 0.33628938396853919 0 2.2922247477180449 0.26159996669147645 0 2.3054252335908636 0.40675770548603191 0 2.4110662417865809 0.33628938396853919 0 2.3054252335908636 0.40675770548603191 0 2.4110662417865809 0.33628938396853919 0 2.4154288448274852 0.47454077340247885 0 2.4110662417865809 0.33628938396853919 0 2.4154288448274852 0.47454077340247885 0 2.529419230750158 0.40539469780883253 0 2.3054252335908636 0.40675770548603191 0 2.4154288448274852 0.47454077340247885 0 2.311247438434108 0.54443724263572357 0 2.4154288448274852 0.47454077340247885 0 2.311247438434108 0.54443724263572357 0 2.4148084656293962 0.60600272260149968 0 2.311247438434108 0.54443724263572357 0 2.3025946053886255 0.67381317393805762 0 2.4148084656293962 0.60600272260149968 0 2.3025946053886255 0.67381317393805762 0 2.4148084656293962 0.60600272260149968 0 2.409297676995882 0.72154268425691692 0 2.4148084656293962 0.60600272260149968 0 2.5291450705018605 0.66416066497257475 0 2.409297676995882 0.72154268425691692 0 2.4154288448274852 0.47454077340247885 0 2.4148084656293962 0.60600272260149968 0 2.5303893130424808 0.54137582928613981 0 2.4148084656293962 0.60600272260149968 0 2.5303893130424808 0.54137582928613981 0 2.5291450705018605 0.66416066497257475 0 2.5291450705018605 0.66416066497257475 0 2.6500070287220505 0.60806818402324747 0 2.6515772036417991 0.72088804169359089 0 2.5303893130424808 0.54137582928613981 0 2.6494606870766186 0.47669169193159555 0 2.6500070287220505 0.60806818402324747 0 2.5303893130424808 0.54137582928613981 0 2.5291450705018605 0.66416066497257475 0 2.6500070287220505 0.60806818402324747 0 2.5303893130424808 0.54137582928613981 0 2.529419230750158 0.40539469780883253 0 2.6494606870766186 0.47669169193159555 0 2.4154288448274852 0.47454077340247885 0 2.5303893130424808 0.54137582928613981 0 2.529419230750158 0.40539469780883253 0 2.6488749266445444 0.33928048987860399 0 2.529419230750158 0.40539469780883253 0 2.6494606870766186 0.47669169193159555 0 2.6488749266445444 0.33928048987860399 0 2.7697864025195722 0.41483832106330926 0 2.6494606870766186 0.47669169193159555 0 2.7697864025195722 0.41483832106330926 0 2.769141592802963 0.55127074947054122 0 2.8860398841573227 0.49216860319442501 0 2.7697864025195722 0.41483832106330926 0 2.6494606870766186 0.47669169193159555 0 2.769141592802963 0.55127074947054122 0 2.6494606870766186 0.47669169193159555 0 2.6500070287220505 0.60806818402324747 0 2.769141592802963 0.55127074947054122 0 2.6500070287220505 0.60806818402324747 0 2.7722532337594368 0.67799595720358263 0 2.769141592802963 0.55127074947054122 0 2.6500070287220505 0.60806818402324747 0 2.7722532337594368 0.67799595720358263 0 2.6515772036417991 0.72088804169359089 0 2.7722532337594368 0.67799595720358263 0 2.769141592802963 0.55127074947054122 0 2.8891903024423344 0.62756504784184641 0 2.769141592802963 0.55127074947054122 0 2.8891903024423344 0.62756504784184641 0 2.8860398841573227 0.49216860319442501 0 2.7722532337594368 0.67799595720358263 0 2.8891903024423344 0.62756504784184641 0 2.8949151174805121 0.75417399290827303 0 2.8891903024423344 0.62756504784184641 0 2.9998679532943968 0.71425607499772426 0 2.8949151174805121 0.75417399290827303 0 2.8891903024423344 0.62756504784184641 0 2.9998679532943968 0.71425607499772426 0 2.9998650456765588 0.57141713665847615 0 2.8891903024423344 0.62756504784184641 0 2.9998650456765588 0.57141713665847615 0 2.8860398841573227 0.49216860319442501 0 2.9998650456765588 0.57141713665847615 0 2.8860398841573227 0.49216860319442501 0 2.9998609890196581 0.42856066056791631 0 2.8860102897028566 0.35133132125948829 0 2.7697864025195722 0.41483832106330926 0 2.8860398841573227 0.49216860319442501 0 2.8860102897028566 0.35133132125948829 0 2.8860398841573227 0.49216860319442501 0 2.9998609890196581 0.42856066056791631 0 2.8911736675786082 1.0661479983103919 0 2.9998701381873487 0.99982682398859768 0 2.9998418379368443 1.1428406253299586 0 2.8911736675786082 1.0661479983103919 0 2.8674654047327 0.90199395089719603 0 2.9998701381873487 0.99982682398859768 0 2.8911736675786082 1.0661479983103919 0 2.8674654047327 0.90199395089719603 0 2.7797942084370573 1.0537949062119889 0 2.8674654047327 0.90199395089719603 0 2.9998701381873487 0.99982682398859768 0 2.9102889060548018 0.85486664784237665 0 2.9998701381873487 0.99982682398859768 0 2.9998735794249956 0.85712277006414173 0 2.9102889060548018 0.85486664784237665 0 2.9998735794249956 0.85712277006414173 0 2.8949151174805121 0.75417399290827303 0 2.9102889060548018 0.85486664784237665 0 2.9998679532943968 0.71425607499772426 0 2.9998735794249956 0.85712277006414173 0 2.8949151174805121 0.75417399290827303 0 2.8674654047327 0.90199395089719603 0 2.9102889060548018 0.85486664784237665 0 2.7862510239611167 0.800055922406951 0 2.8949151174805121 0.75417399290827303 0 2.9102889060548018 0.85486664784237665 0 2.7862510239611167 0.800055922406951 0 2.7722532337594368 0.67799595720358263 0 2.8949151174805121 0.75417399290827303 0 2.7862510239611167 0.800055922406951 0 2.7722532337594368 0.67799595720358263 0 2.7862510239611167 0.800055922406951 0 2.6515772036417991 0.72088804169359089 0 2.7862510239611167 0.800055922406951 0 2.6515772036417991 0.72088804169359089 0 2.6584968199060657 0.79946128285133478 0 2.7862510239611167 0.800055922406951 0 2.6584968199060657 0.79946128285133478 0 2.7278998055610888 0.85597160398766392 0 2.6584968199060657 0.79946128285133478 0 2.7278998055610888 0.85597160398766392 0 2.5866137991416873 0.83654974097914725 0 2.8674654047327 0.90199395089719603 0 2.7862510239611167 0.800055922406951 0 2.7278998055610888 0.85597160398766392 0 2.8674654047327 0.90199395089719603 0 2.7278998055610888 0.85597160398766392 0 2.7797942084370573 1.0537949062119889 0 2.7278998055610888 0.85597160398766392 0 2.6474042932774409 1.0344051359789093 0 2.5866137991416873 0.83654974097914725 0 2.7278998055610888 0.85597160398766392 0 2.7797942084370573 1.0537949062119889 0 2.6474042932774409 1.0344051359789093 0 2.6474042932774409 1.0344051359789093 0 2.5097043196830309 1.0293681778234438 0 2.5866137991416873 0.83654974097914725 0 2.5097043196830309 1.0293681778234438 0 2.5866137991416873 0.83654974097914725 0 2.4472619228433623 0.83824080738350493 0 2.5866137991416873 0.83654974097914725 0 2.5229833540053033 0.774672576107172 0 2.4472619228433623 0.83824080738350493 0 2.6515772036417991 0.72088804169359089 0 2.6584968199060657 0.79946128285133478 0 2.5229833540053033 0.774672576107172 0 2.6584968199060657 0.79946128285133478 0 2.5866137991416873 0.83654974097914725 0 2.5229833540053033 0.774672576107172 0 2.5291450705018605 0.66416066497257475 0 2.6515772036417991 0.72088804169359089 0 2.5229833540053033 0.774672576107172 0 2.5291450705018605 0.66416066497257475 0 2.5229833540053033 0.774672576107172 0 2.409297676995882 0.72154268425691692 0 2.5229833540053033 0.774672576107172 0 2.3906891736616656 0.80068118331723126 0 2.409297676995882 0.72154268425691692 0 2.5229833540053033 0.774672576107172 0 2.3906891736616656 0.80068118331723126 0 2.4472619228433623 0.83824080738350493 0 2.3025946053886255 0.67381317393805762 0 2.409297676995882 0.72154268425691692 0 2.2709710698496011 0.79959880768625446 0 2.3906891736616656 0.80068118331723126 0 2.409297676995882 0.72154268425691692 0 2.2709710698496011 0.79959880768625446 0 2.3906891736616656 0.80068118331723126 0 2.3069212457326005 0.85961698045066737 0 2.2709710698496011 0.79959880768625446 0 2.3906891736616656 0.80068118331723126 0 2.3069212457326005 0.85961698045066737 0 2.4472619228433623 0.83824080738350493 0 2.5097043196830309 1.0293681778234438 0 2.4472619228433623 0.83824080738350493 0 2.3639348518886751 1.0418220855884528 0 2.3069212457326005 0.85961698045066737 0 2.4472619228433623 0.83824080738350493 0 2.3639348518886751 1.0418220855884528 0 2.3069212457326005 0.85961698045066737 0 2.3639348518886751 1.0418220855884528 0 2.2178425265838273 1.0674504822464703 0 2.3639348518886751 1.0418220855884528 0 2.2749614790538475 1.2090879757970214 0 2.2178425265838273 1.0674504822464703 0 2.5097043196830309 1.0293681778234438 0 2.3639348518886751 1.0418220855884528 0 2.4326007864950037 1.2008966607767726 0 2.3639348518886751 1.0418220855884528 0 2.4326007864950037 1.2008966607767726 0 2.2749614790538475 1.2090879757970214 0 2.4326007864950037 1.2008966607767726 0 2.2749614790538475 1.2090879757970214 0 2.3413590645020785 1.3500058419240994 0 2.2749614790538475 1.2090879757970214 0 2.3413590645020785 1.3500058419240994 0 2.1722089815787222 1.3583466916690585 0 2.2594188715365426 1.4939356070907368 0 2.3413590645020785 1.3500058419240994 0 2.1722089815787222 1.3583466916690585 0 2.4231099141686867 1.4924385564653484 0 2.3413590645020785 1.3500058419240994 0 2.4978087093549757 1.3489405101481426 0 2.2594188715365426 1.4939356070907368 0 2.4231099141686867 1.4924385564653484 0 2.3413590645020785 1.3500058419240994 0 2.4326007864950037 1.2008966607767726 0 2.3413590645020785 1.3500058419240994 0 2.4978087093549757 1.3489405101481426 0 2.4231099141686867 1.4924385564653484 0 2.4978087093549757 1.3489405101481426 0 2.5684247097029553 1.4938105427359007 0 2.4978087093549757 1.3489405101481426 0 2.5684247097029553 1.4938105427359007 0 2.6386719042703501 1.3514715650679732 0 2.4978087093549757 1.3489405101481426 0 2.5733494311011573 1.1985131381111946 0 2.6386719042703501 1.3514715650679732 0 2.4326007864950037 1.2008966607767726 0 2.4978087093549757 1.3489405101481426 0 2.5733494311011573 1.1985131381111946 0 2.5097043196830309 1.0293681778234438 0 2.4326007864950037 1.2008966607767726 0 2.5733494311011573 1.1985131381111946 0 2.6474042932774409 1.0344051359789093 0 2.5097043196830309 1.0293681778234438 0 2.5733494311011573 1.1985131381111946 0 2.7797942084370573 1.0537949062119889 0 2.6474042932774409 1.0344051359789093 0 2.7094400132142038 1.20629397189901 0 2.6474042932774409 1.0344051359789093 0 2.5733494311011573 1.1985131381111946 0 2.7094400132142038 1.20629397189901 0 2.7797942084370573 1.0537949062119889 0 2.7094400132142038 1.20629397189901 0 2.8598537614028157 1.2093759685223289 0 2.7094400132142038 1.20629397189901 0 2.7755956298064621 1.3553270647764595 0 2.8598537614028157 1.2093759685223289 0 2.5733494311011573 1.1985131381111946 0 2.7094400132142038 1.20629397189901 0 2.6386719042703501 1.3514715650679732 0 2.7094400132142038 1.20629397189901 0 2.6386719042703501 1.3514715650679732 0 2.7755956298064621 1.3553270647764595 0 2.6386719042703501 1.3514715650679732 0 2.7071381724933872 1.4942046484454601 0 2.7755956298064621 1.3553270647764595 0 2.5684247097029553 1.4938105427359007 0 2.6386719042703501 1.3514715650679732 0 2.7071381724933872 1.4942046484454601 0 2.7071381724933872 1.4942046484454601 0 2.7755956298064621 1.3553270647764595 0 2.8636484025896598 1.4974299096103216 0 2.7755956298064621 1.3553270647764595 0 2.8977334268448143 1.3520643028299228 0 2.8598537614028157 1.2093759685223289 0 2.7755956298064621 1.3553270647764595 0 2.8977334268448143 1.3520643028299228 0 2.8636484025896598 1.4974299096103216 0 2.8977334268448143 1.3520643028299228 0 2.8636484025896598 1.4974299096103216 0 2.9998500877991772 1.428567668062763 0 2.8636484025896598 1.4974299096103216 0 2.9998500877991772 1.428567668062763 0 2.9998501215027096 1.5714323268767518 0 2.8977334268448143 1.3520643028299228 0 2.9998500877991772 1.428567668062763 0 2.9998515667459835 1.2856919794990225 0 2.8977334268448143 1.3520643028299228 0 2.9998515667459835 1.2856919794990225 0 2.8598537614028157 1.2093759685223289 0 2.9998515667459835 1.2856919794990225 0 2.8598537614028157 1.2093759685223289 0 2.9998418379368443 1.1428406253299586 0 2.8911736675786082 1.0661479983103919 0 2.7797942084370573 1.0537949062119889 0 2.8598537614028157 1.2093759685223289 0 2.8911736675786082 1.0661479983103919 0 2.8598537614028157 1.2093759685223289 0 2.9998418379368443 1.1428406253299586 0 1.7139959763209651 1.1148429284483923 0 1.8566772067270281 1.0732027269173263 0 1.7795762783503926 0.9016518119243222 0 1.8566772067270281 1.0732027269173263 0 1.874831240597272 1.1253657448724075 0 1.75626908111577 1.1722130062190412 0 1.7139959763209651 1.1148429284483923 0 1.6361708327079187 1.1707569333337446 0 1.75626908111577 1.1722130062190412 0 1.7139959763209651 1.1148429284483923 0 1.8566772067270281 1.0732027269173263 0 1.75626908111577 1.1722130062190412 0 1.6361708327079187 1.1707569333337446 0 1.5711939134228949 1.134408798248556 0 1.5017671255228515 1.1970991993070232 0 1.4287705973624794 1.1343201292741865 0 1.5711939134228949 1.134408798248556 0 1.5017671255228515 1.1970991993070232 0 1.7139959763209651 1.1148429284483923 0 1.6361708327079187 1.1707569333337446 0 1.5711939134228949 1.134408798248556 0 1.7139959763209651 1.1148429284483923 0 1.5711939134228949 1.134408798248556 0 1.6374847951659899 0.9773908256288979 0 1.6374847951659899 0.9773908256288979 0 1.6278627571529563 0.81528151408879057 0 1.7795762783503926 0.9016518119243222 0 1.4974544585403862 0.93485844390175965 0 1.5711939134228949 1.134408798248556 0 1.6374847951659899 0.9773908256288979 0 1.4974544585403862 0.93485844390175965 0 1.6374847951659899 0.9773908256288979 0 1.6278627571529563 0.81528151408879057 0 1.4974544585403862 0.93485844390175965 0 1.4943353921601201 0.7311084688854752 0 1.6278627571529563 0.81528151408879057 0 1.7770976287467355 0.7175273217159126 0 1.6278627571529563 0.81528151408879057 0 1.7795762783503926 0.9016518119243222 0 1.7139959763209651 1.1148429284483923 0 1.6374847951659899 0.9773908256288979 0 1.7795762783503926 0.9016518119243222 0 1.8566772067270281 1.0732027269173263 0 1.7795762783503926 0.9016518119243222 0 1.9285635807712593 0.90494676983915612 0 1.7795762783503926 0.9016518119243222 0 1.9314146354397936 0.77603586765828336 0 1.9285635807712593 0.90494676983915612 0 1.7770976287467355 0.7175273217159126 0 1.7795762783503926 0.9016518119243222 0 1.9314146354397936 0.77603586765828336 0 2.1405336336753189 0.69232055185720598 0 1.9314146354397936 0.77603586765828336 0 2.0978940398350754 0.83286028287193814 0 2.1405336336753189 0.69232055185720598 0 2.0978940398350754 0.83286028287193814 0 2.1923249595593584 0.74529940811438966 0 2.0978940398350754 0.83286028287193814 0 2.149151546341646 0.85053301556868877 0 2.012051571511293 0.98787808094960383 0 1.9314146354397936 0.77603586765828336 0 2.0978940398350754 0.83286028287193814 0 1.9285635807712593 0.90494676983915612 0 2.0978940398350754 0.83286028287193814 0 1.9285635807712593 0.90494676983915612 0 2.012051571511293 0.98787808094960383 0 2.3025946053886255 0.67381317393805762 0 2.1923249595593584 0.74529940811438966 0 2.2709710698496011 0.79959880768625446 0 2.1923249595593584 0.74529940811438966 0 2.149151546341646 0.85053301556868877 0 2.2709710698496011 0.79959880768625446 0 2.0978940398350754 0.83286028287193814 0 2.1923249595593584 0.74529940811438966 0 2.149151546341646 0.85053301556868877 0 2.149151546341646 0.85053301556868877 0 2.2709710698496011 0.79959880768625446 0 2.1669587970996291 0.90215121262264553 0 2.3069212457326005 0.85961698045066737 0 2.2709710698496011 0.79959880768625446 0 2.1669587970996291 0.90215121262264553 0 2.149151546341646 0.85053301556868877 0 2.1669587970996291 0.90215121262264553 0 2.012051571511293 0.98787808094960383 0 2.1669587970996291 0.90215121262264553 0 2.094922696375201 1.0715206695048112 0 2.2178425265838273 1.0674504822464703 0 2.1669587970996291 0.90215121262264553 0 2.094922696375201 1.0715206695048112 0 2.012051571511293 0.98787808094960383 0 2.3069212457326005 0.85961698045066737 0 2.1669587970996291 0.90215121262264553 0 2.2178425265838273 1.0674504822464703 0 1.8566772067270281 1.0732027269173263 0 1.9285635807712593 0.90494676983915612 0 2.012051571511293 0.98787808094960383 0 2.094922696375201 1.0715206695048112 0 2.012051571511293 0.98787808094960383 0 1.9265554275853729 1.1434848935127053 0 2.012051571511293 0.98787808094960383 0 1.874831240597272 1.1253657448724075 0 1.9265554275853729 1.1434848935127053 0 1.8566772067270281 1.0732027269173263 0 2.012051571511293 0.98787808094960383 0 1.874831240597272 1.1253657448724075 0 1.874831240597272 1.1253657448724075 0 1.9265554275853729 1.1434848935127053 0 1.8366347854089056 1.2313242076486108 0 1.9265554275853729 1.1434848935127053 0 1.8848383321064126 1.2866187170454246 0 1.8366347854089056 1.2313242076486108 0 1.9265554275853729 1.1434848935127053 0 1.8848383321064126 1.2866187170454246 0 2.0929986339535143 1.2145570196193298 0 1.8848383321064126 1.2866187170454246 0 1.8366347854089056 1.2313242076486108 0 1.8120502590906589 1.3623039665631742 0 2.2749614790538475 1.2090879757970214 0 2.2178425265838273 1.0674504822464703 0 2.0929986339535143 1.2145570196193298 0 2.094922696375201 1.0715206695048112 0 2.2178425265838273 1.0674504822464703 0 2.0929986339535143 1.2145570196193298 0 2.094922696375201 1.0715206695048112 0 1.9265554275853729 1.1434848935127053 0 2.0929986339535143 1.2145570196193298 0 1.8848383321064126 1.2866187170454246 0 2.0929986339535143 1.2145570196193298 0 2.0138991322485986 1.3525366161600152 0 2.2749614790538475 1.2090879757970214 0 2.0929986339535143 1.2145570196193298 0 2.1722089815787222 1.3583466916690585 0 2.0929986339535143 1.2145570196193298 0 2.1722089815787222 1.3583466916690585 0 2.0138991322485986 1.3525366161600152 0 2.0138991322485986 1.3525366161600152 0 2.0627172964432874 1.4981229007447721 0 1.8656309387272487 1.4284332243362903 0 2.1722089815787222 1.3583466916690585 0 2.0138991322485986 1.3525366161600152 0 2.0627172964432874 1.4981229007447721 0 2.2594188715365426 1.4939356070907368 0 2.1722089815787222 1.3583466916690585 0 2.0627172964432874 1.4981229007447721 0 1.8848383321064126 1.2866187170454246 0 1.8120502590906589 1.3623039665631742 0 1.8656309387272487 1.4284332243362903 0 1.8848383321064126 1.2866187170454246 0 2.0138991322485986 1.3525366161600152 0 1.8656309387272487 1.4284332243362903 0 2.0627172964432874 1.4981229007447721 0 1.8656309387272487 1.4284332243362903 0 1.8656665707047158 1.571548051444958 0 1.8656309387272487 1.4284332243362903 0 1.8040311953236441 1.4999876234343748 0 1.8656665707047158 1.571548051444958 0 1.8120502590906589 1.3623039665631742 0 1.8656309387272487 1.4284332243362903 0 1.8040311953236441 1.4999876234343748 0 1.8120502590906589 1.3623039665631742 0 1.8040311953236441 1.4999876234343748 0 1.7196392013213102 1.4325837101029104 0 1.7196392013213102 1.4325837101029104 0 1.7291243407023897 1.300234304360016 0 1.6185442538881141 1.3693464340213697 0 1.8120502590906589 1.3623039665631742 0 1.7196392013213102 1.4325837101029104 0 1.7291243407023897 1.300234304360016 0 1.8366347854089056 1.2313242076486108 0 1.8120502590906589 1.3623039665631742 0 1.7291243407023897 1.300234304360016 0 1.7291243407023897 1.300234304360016 0 1.75626908111577 1.1722130062190412 0 1.6266847747447437 1.2503641016880949 0 1.8366347854089056 1.2313242076486108 0 1.7291243407023897 1.300234304360016 0 1.75626908111577 1.1722130062190412 0 1.874831240597272 1.1253657448724075 0 1.8366347854089056 1.2313242076486108 0 1.75626908111577 1.1722130062190412 0 1.6361708327079187 1.1707569333337446 0 1.5017671255228515 1.1970991993070232 0 1.6266847747447437 1.2503641016880949 0 1.5017671255228515 1.1970991993070232 0 1.6266847747447437 1.2503641016880949 0 1.5048162969062224 1.3113587934626012 0 1.6361708327079187 1.1707569333337446 0 1.75626908111577 1.1722130062190412 0 1.6266847747447437 1.2503641016880949 0 1.7291243407023897 1.300234304360016 0 1.6266847747447437 1.2503641016880949 0 1.6185442538881141 1.3693464340213697 0 1.6266847747447437 1.2503641016880949 0 1.5048162969062224 1.3113587934626012 0 1.6185442538881141 1.3693464340213697 0 1.5048162969062224 1.3113587934626012 0 1.6185442538881141 1.3693464340213697 0 1.5046792299256384 1.4350147009894065 0 1.7196392013213102 1.4325837101029104 0 1.6185442538881141 1.3693464340213697 0 1.6157488522804109 1.5000229088799408 0 1.6185442538881141 1.3693464340213697 0 1.5046792299256384 1.4350147009894065 0 1.6157488522804109 1.5000229088799408 0 1.5046792299256384 1.4350147009894065 0 1.5046678841078873 1.5650058177108301 0 1.6157488522804109 1.5000229088799408 0 1.5046678841078873 1.5650058177108301 0 1.6157488522804109 1.5000229088799408 0 1.6177349185942227 1.6300743719122694 0 1.6157488522804109 1.5000229088799408 0 1.6177349185942227 1.6300743719122694 0 1.7195984950989474 1.5675902175275125 0 1.5046678841078873 1.5650058177108301 0 1.6177349185942227 1.6300743719122694 0 1.5046893410715478 1.6903654716962957 0 1.6177349185942227 1.6300743719122694 0 1.5046893410715478 1.6903654716962957 0 1.6243082915555451 1.746316391670224 0 1.6177349185942227 1.6300743719122694 0 1.6243082915555451 1.746316391670224 0 1.728607654895324 1.6979445239219695 0 1.6243082915555451 1.746316391670224 0 1.7564708698941203 1.8256204634144382 0 1.6377312982611774 1.8273340090454897 0 1.6243082915555451 1.746316391670224 0 1.5023890574925649 1.8018805998085796 0 1.6377312982611774 1.8273340090454897 0 1.5046893410715478 1.6903654716962957 0 1.6243082915555451 1.746316391670224 0 1.5023890574925649 1.8018805998085796 0 1.7564708698941203 1.8256204634144382 0 1.728607654895324 1.6979445239219695 0 1.8357888657196728 1.7689362345527095 0 1.7564708698941203 1.8256204634144382 0 1.8357888657196728 1.7689362345527095 0 1.874904546436295 1.8746325079407782 0 1.6243082915555451 1.746316391670224 0 1.7564708698941203 1.8256204634144382 0 1.728607654895324 1.6979445239219695 0 1.728607654895324 1.6979445239219695 0 1.8119918497222394 1.6377681604662149 0 1.8357888657196728 1.7689362345527095 0 1.728607654895324 1.6979445239219695 0 1.7195984950989474 1.5675902175275125 0 1.8119918497222394 1.6377681604662149 0 1.6177349185942227 1.6300743719122694 0 1.728607654895324 1.6979445239219695 0 1.7195984950989474 1.5675902175275125 0 1.7196392013213102 1.4325837101029104 0 1.6157488522804109 1.5000229088799408 0 1.7195984950989474 1.5675902175275125 0 1.8040311953236441 1.4999876234343748 0 1.7195984950989474 1.5675902175275125 0 1.8119918497222394 1.6377681604662149 0 1.8040311953236441 1.4999876234343748 0 1.7196392013213102 1.4325837101029104 0 1.7195984950989474 1.5675902175275125 0 1.8040311953236441 1.4999876234343748 0 1.8656665707047158 1.571548051444958 0 1.8119918497222394 1.6377681604662149 0 1.8656665707047158 1.571548051444958 0 2.0264459098985306 1.6480477021138056 0 1.8848904241128372 1.7133886485352898 0 1.8656665707047158 1.571548051444958 0 1.8119918497222394 1.6377681604662149 0 1.8848904241128372 1.7133886485352898 0 2.2594188715365426 1.4939356070907368 0 2.0627172964432874 1.4981229007447721 0 2.1847881181955744 1.6278518894748555 0 2.0627172964432874 1.4981229007447721 0 1.8656665707047158 1.571548051444958 0 2.0264459098985306 1.6480477021138056 0 2.0627172964432874 1.4981229007447721 0 2.0264459098985306 1.6480477021138056 0 2.1847881181955744 1.6278518894748555 0 2.0264459098985306 1.6480477021138056 0 2.1847881181955744 1.6278518894748555 0 2.0974028811215106 1.7818056659307011 0 2.1847881181955744 1.6278518894748555 0 2.0974028811215106 1.7818056659307011 0 2.2800267823215505 1.7815478806218203 0 2.0264459098985306 1.6480477021138056 0 2.0974028811215106 1.7818056659307011 0 1.8848904241128372 1.7133886485352898 0 2.0974028811215106 1.7818056659307011 0 2.2215397760423832 1.9356086065819555 0 2.0949144191689109 1.9284613845266669 0 2.0974028811215106 1.7818056659307011 0 1.9266091158306446 1.856525016936786 0 2.0949144191689109 1.9284613845266669 0 2.0974028811215106 1.7818056659307011 0 2.2215397760423832 1.9356086065819555 0 2.2800267823215505 1.7815478806218203 0 1.8119918497222394 1.6377681604662149 0 1.8357888657196728 1.7689362345527095 0 1.8848904241128372 1.7133886485352898 0 2.0974028811215106 1.7818056659307011 0 1.8848904241128372 1.7133886485352898 0 1.9266091158306446 1.856525016936786 0 1.8357888657196728 1.7689362345527095 0 1.8848904241128372 1.7133886485352898 0 1.9266091158306446 1.856525016936786 0 1.8357888657196728 1.7689362345527095 0 1.9266091158306446 1.856525016936786 0 1.874904546436295 1.8746325079407782 0 1.874904546436295 1.8746325079407782 0 2.0120698531427554 2.0120340440430917 0 1.8565224184451277 1.926589404352173 0 1.9266091158306446 1.856525016936786 0 1.874904546436295 1.8746325079407782 0 2.0120698531427554 2.0120340440430917 0 1.9266091158306446 1.856525016936786 0 2.0120698531427554 2.0120340440430917 0 2.0949144191689109 1.9284613845266669 0 2.0120698531427554 2.0120340440430917 0 1.9285926360751364 2.0947285680851206 0 1.8565224184451277 1.926589404352173 0 2.2215397760423832 1.9356086065819555 0 2.1670971607878808 2.0979339263397287 0 2.3075563042878704 2.140499723267288 0 2.0120698531427554 2.0120340440430917 0 2.0949144191689109 1.9284613845266669 0 2.1670971607878808 2.0979339263397287 0 2.2215397760423832 1.9356086065819555 0 2.0949144191689109 1.9284613845266669 0 2.1670971607878808 2.0979339263397287 0 2.0120698531427554 2.0120340440430917 0 2.1670971607878808 2.0979339263397287 0 2.1493542716342624 2.1490851893857488 0 2.1670971607878808 2.0979339263397287 0 2.249436868366347 2.1898379563573003 0 2.3075563042878704 2.140499723267288 0 2.1670971607878808 2.0979339263397287 0 2.249436868366347 2.1898379563573003 0 2.1493542716342624 2.1490851893857488 0 2.249436868366347 2.1898379563573003 0 2.1493542716342624 2.1490851893857488 0 2.1959953319177137 2.2649832221969368 0 2.1493542716342624 2.1490851893857488 0 2.1959953319177137 2.2649832221969368 0 2.0978321294495679 2.1668452930909075 0 2.249436868366347 2.1898379563573003 0 2.1959953319177137 2.2649832221969368 0 2.318510101475515 2.2920300420748343 0 2.0120698531427554 2.0120340440430917 0 1.9285926360751364 2.0947285680851206 0 2.0978321294495679 2.1668452930909075 0 1.9285926360751364 2.0947285680851206 0 2.0978321294495679 2.1668452930909075 0 1.940262164039682 2.2250573856809441 0 2.0120698531427554 2.0120340440430917 0 2.1493542716342624 2.1490851893857488 0 2.0978321294495679 2.1668452930909075 0 2.1959953319177137 2.2649832221969368 0 2.0978321294495679 2.1668452930909075 0 2.1405488846381893 2.3069053629833429 0 2.0978321294495679 2.1668452930909075 0 1.940262164039682 2.2250573856809441 0 2.1405488846381893 2.3069053629833429 0 1.940262164039682 2.2250573856809441 0 1.78387896249199 2.0946792705489865 0 1.7884408604528053 2.2806505633999965 0 1.9285926360751364 2.0947285680851206 0 1.940262164039682 2.2250573856809441 0 1.78387896249199 2.0946792705489865 0 1.9285926360751364 2.0947285680851206 0 1.78387896249199 2.0946792705489865 0 1.8565224184451277 1.926589404352173 0 1.78387896249199 2.0946792705489865 0 1.6439973033516631 2.0189621054563807 0 1.7139839079292887 1.8850244596015118 0 1.78387896249199 2.0946792705489865 0 1.6439999409039572 2.1826452646733365 0 1.7884408604528053 2.2806505633999965 0 1.6439999409039572 2.1826452646733365 0 1.5031541395953079 2.0632254854159049 0 1.5056408409505266 2.2686520972587552 0 1.5031541395953079 2.0632254854159049 0 1.6439973033516631 2.0189621054563807 0 1.5712133294670934 1.8654619886447001 0 1.6439999409039572 2.1826452646733365 0 1.5031541395953079 2.0632254854159049 0 1.6439973033516631 2.0189621054563807 0 1.78387896249199 2.0946792705489865 0 1.6439999409039572 2.1826452646733365 0 1.6439973033516631 2.0189621054563807 0 1.6439973033516631 2.0189621054563807 0 1.5712133294670934 1.8654619886447001 0 1.7139839079292887 1.8850244596015118 0 1.5031541395953079 2.0632254854159049 0 1.5712133294670934 1.8654619886447001 0 1.4287882089778765 1.8654277463498465 0 1.5023890574925649 1.8018805998085796 0 1.5712133294670934 1.8654619886447001 0 1.6377312982611774 1.8273340090454897 0 1.5023890574925649 1.8018805998085796 0 1.5712133294670934 1.8654619886447001 0 1.4287882089778765 1.8654277463498465 0 1.5712133294670934 1.8654619886447001 0 1.6377312982611774 1.8273340090454897 0 1.7139839079292887 1.8850244596015118 0 1.7564708698941203 1.8256204634144382 0 1.8565224184451277 1.926589404352173 0 1.7139839079292887 1.8850244596015118 0 1.7564708698941203 1.8256204634144382 0 1.6377312982611774 1.8273340090454897 0 1.7139839079292887 1.8850244596015118 0 1.7564708698941203 1.8256204634144382 0 1.874904546436295 1.8746325079407782 0 1.8565224184451277 1.926589404352173 0 1.78387896249199 2.0946792705489865 0 1.8565224184451277 1.926589404352173 0 1.7139839079292887 1.8850244596015118 0 2.9998417045768742 1.8571598251697454 0 2.8596698110130729 1.7849917609568646 0 2.8910754445382532 1.9337675414268916 0 2.8596698110130729 1.7849917609568646 0 2.7792547297423988 1.9392781245901247 0 2.8910754445382532 1.9337675414268916 0 2.9998417045768742 1.8571598251697454 0 2.8596698110130729 1.7849917609568646 0 2.9998516269063575 1.7143078343169427 0 2.8596698110130729 1.7849917609568646 0 2.9998516269063575 1.7143078343169427 0 2.898377309186301 1.6394181739483051 0 2.9998516269063575 1.7143078343169427 0 2.9998501215027096 1.5714323268767518 0 2.898377309186301 1.6394181739483051 0 2.8636484025896598 1.4974299096103216 0 2.9998501215027096 1.5714323268767518 0 2.898377309186301 1.6394181739483051 0 2.8636484025896598 1.4974299096103216 0 2.898377309186301 1.6394181739483051 0 2.7773537071809957 1.630853227246271 0 2.8596698110130729 1.7849917609568646 0 2.898377309186301 1.6394181739483051 0 2.7773537071809957 1.630853227246271 0 2.7071381724933872 1.4942046484454601 0 2.8636484025896598 1.4974299096103216 0 2.7773537071809957 1.630853227246271 0 2.7071381724933872 1.4942046484454601 0 2.7773537071809957 1.630853227246271 0 2.6387430741122717 1.6361426962092167 0 2.5684247097029553 1.4938105427359007 0 2.7071381724933872 1.4942046484454601 0 2.6387430741122717 1.6361426962092167 0 2.7773537071809957 1.630853227246271 0 2.6387430741122717 1.6361426962092167 0 2.7092636410806397 1.782201055155948 0 2.6387430741122717 1.6361426962092167 0 2.7092636410806397 1.782201055155948 0 2.5728142944073404 1.790132890847107 0 2.8596698110130729 1.7849917609568646 0 2.7773537071809957 1.630853227246271 0 2.7092636410806397 1.782201055155948 0 2.8596698110130729 1.7849917609568646 0 2.7092636410806397 1.782201055155948 0 2.7792547297423988 1.9392781245901247 0 2.7092636410806397 1.782201055155948 0 2.7792547297423988 1.9392781245901247 0 2.6474180701919159 1.9550399058363293 0 2.7092636410806397 1.782201055155948 0 2.6474180701919159 1.9550399058363293 0 2.5728142944073404 1.790132890847107 0 2.6474180701919159 1.9550399058363293 0 2.5097015067867718 1.9656009187453474 0 2.5728142944073404 1.790132890847107 0 2.5097015067867718 1.9656009187453474 0 2.5728142944073404 1.790132890847107 0 2.4305247843855335 1.7887201119025116 0 2.5728142944073404 1.790132890847107 0 2.4992066500165264 1.6370544523706994 0 2.4305247843855335 1.7887201119025116 0 2.6387430741122717 1.6361426962092167 0 2.5728142944073404 1.790132890847107 0 2.4992066500165264 1.6370544523706994 0 2.5684247097029553 1.4938105427359007 0 2.6387430741122717 1.6361426962092167 0 2.4992066500165264 1.6370544523706994 0 2.4231099141686867 1.4924385564653484 0 2.5684247097029553 1.4938105427359007 0 2.4992066500165264 1.6370544523706994 0 2.4992066500165264 1.6370544523706994 0 2.3498254640000944 1.6348204593946563 0 2.4305247843855335 1.7887201119025116 0 2.4231099141686867 1.4924385564653484 0 2.4992066500165264 1.6370544523706994 0 2.3498254640000944 1.6348204593946563 0 2.2594188715365426 1.4939356070907368 0 2.4231099141686867 1.4924385564653484 0 2.3498254640000944 1.6348204593946563 0 2.2594188715365426 1.4939356070907368 0 2.1847881181955744 1.6278518894748555 0 2.3498254640000944 1.6348204593946563 0 2.1847881181955744 1.6278518894748555 0 2.3498254640000944 1.6348204593946563 0 2.2800267823215505 1.7815478806218203 0 2.3498254640000944 1.6348204593946563 0 2.2800267823215505 1.7815478806218203 0 2.4305247843855335 1.7887201119025116 0 2.5097015067867718 1.9656009187453474 0 2.4305247843855335 1.7887201119025116 0 2.3668324372040161 1.9507485485568294 0 2.2800267823215505 1.7815478806218203 0 2.4305247843855335 1.7887201119025116 0 2.3668324372040161 1.9507485485568294 0 2.2215397760423832 1.9356086065819555 0 2.2800267823215505 1.7815478806218203 0 2.3668324372040161 1.9507485485568294 0 2.2215397760423832 1.9356086065819555 0 2.3668324372040161 1.9507485485568294 0 2.3075563042878704 2.140499723267288 0 2.3668324372040161 1.9507485485568294 0 2.4471613626183606 2.1615318790450608 0 2.3075563042878704 2.140499723267288 0 2.5097015067867718 1.9656009187453474 0 2.3668324372040161 1.9507485485568294 0 2.4471613626183606 2.1615318790450608 0 2.4471613626183606 2.1615318790450608 0 2.3075563042878704 2.140499723267288 0 2.3793610457366228 2.2141778814345838 0 2.249436868366347 2.1898379563573003 0 2.3075563042878704 2.140499723267288 0 2.3793610457366228 2.2141778814345838 0 2.249436868366347 2.1898379563573003 0 2.318510101475515 2.2920300420748343 0 2.3793610457366228 2.2141778814345838 0 2.318510101475515 2.2920300420748343 0 2.4551733502542183 2.3051754585649658 0 2.3793610457366228 2.2141778814345838 0 2.4551733502542183 2.3051754585649658 0 2.3793610457366228 2.2141778814345838 0 2.5206619595057616 2.2231744343396374 0 2.4471613626183606 2.1615318790450608 0 2.3793610457366228 2.2141778814345838 0 2.5206619595057616 2.2231744343396374 0 2.4551733502542183 2.3051754585649658 0 2.5206619595057616 2.2231744343396374 0 2.5930333875776097 2.3050968422130484 0 2.5206619595057616 2.2231744343396374 0 2.5930333875776097 2.3050968422130484 0 2.660703167244221 2.2155318447197532 0 2.5206619595057616 2.2231744343396374 0 2.5871250544450355 2.1634008555231254 0 2.660703167244221 2.2155318447197532 0 2.4471613626183606 2.1615318790450608 0 2.5206619595057616 2.2231744343396374 0 2.5871250544450355 2.1634008555231254 0 2.5097015067867718 1.9656009187453474 0 2.4471613626183606 2.1615318790450608 0 2.5871250544450355 2.1634008555231254 0 2.6474180701919159 1.9550399058363293 0 2.5097015067867718 1.9656009187453474 0 2.5871250544450355 2.1634008555231254 0 2.7792547297423988 1.9392781245901247 0 2.6474180701919159 1.9550399058363293 0 2.7277464834040157 2.1443941424724775 0 2.6474180701919159 1.9550399058363293 0 2.5871250544450355 2.1634008555231254 0 2.7277464834040157 2.1443941424724775 0 2.7792547297423988 1.9392781245901247 0 2.7277464834040157 2.1443941424724775 0 2.8672871092746322 2.0979500172667653 0 2.7277464834040157 2.1443941424724775 0 2.7983249158731698 2.1899001446680408 0 2.8672871092746322 2.0979500172667653 0 2.5871250544450355 2.1634008555231254 0 2.7277464834040157 2.1443941424724775 0 2.660703167244221 2.2155318447197532 0 2.7277464834040157 2.1443941424724775 0 2.660703167244221 2.2155318447197532 0 2.7983249158731698 2.1899001446680408 0 2.660703167244221 2.2155318447197532 0 2.7331847048786844 2.2939125660607274 0 2.7983249158731698 2.1899001446680408 0 2.5930333875776097 2.3050968422130484 0 2.660703167244221 2.2155318447197532 0 2.7331847048786844 2.2939125660607274 0 2.7331847048786844 2.2939125660607274 0 2.7983249158731698 2.1899001446680408 0 2.8844181523429486 2.2591651511661164 0 2.7983249158731698 2.1899001446680408 0 2.9098998808134153 2.1449074762592342 0 2.8844181523429486 2.2591651511661164 0 2.7983249158731698 2.1899001446680408 0 2.9098998808134153 2.1449074762592342 0 2.8672871092746322 2.0979500172667653 0 2.8844181523429486 2.2591651511661164 0 2.9998749623688359 2.1428787096112885 0 2.9998659187278029 2.2857420566784974 0 2.9098998808134153 2.1449074762592342 0 2.8844181523429486 2.2591651511661164 0 2.9998749623688359 2.1428787096112885 0 2.9098998808134153 2.1449074762592342 0 2.9998749623688359 2.1428787096112885 0 2.9998695159209117 2.0001725938376711 0 2.9098998808134153 2.1449074762592342 0 2.9998695159209117 2.0001725938376711 0 2.8672871092746322 2.0979500172667653 0 2.7792547297423988 1.9392781245901247 0 2.8672871092746322 2.0979500172667653 0 2.8910754445382532 1.9337675414268916 0 2.9998695159209117 2.0001725938376711 0 2.8672871092746322 2.0979500172667653 0 2.8910754445382532 1.9337675414268916 0 2.9998417045768742 1.8571598251697454 0 2.9998695159209117 2.0001725938376711 0 2.8910754445382532 1.9337675414268916 0 2.9998602789906559 2.571439052468862 0 2.8826831327685798 2.5077304097256783 0 2.9115742432725029 2.6460425015342643 0 2.8826831327685798 2.5077304097256783 0 2.7963225433665051 2.6345874151289084 0 2.9115742432725029 2.6460425015342643 0 2.9998602789906559 2.571439052468862 0 2.8826831327685798 2.5077304097256783 0 2.9998663261635161 2.4285836996909902 0 2.9998663261635161 2.4285836996909902 0 2.9998659187278029 2.2857420566784974 0 2.9147689100399057 2.3725683692463546 0 2.8826831327685798 2.5077304097256783 0 2.9998663261635161 2.4285836996909902 0 2.9147689100399057 2.3725683692463546 0 2.8844181523429486 2.2591651511661164 0 2.9998659187278029 2.2857420566784974 0 2.9147689100399057 2.3725683692463546 0 2.8844181523429486 2.2591651511661164 0 2.9147689100399057 2.3725683692463546 0 2.8009204406853061 2.3919981706983484 0 2.8826831327685798 2.5077304097256783 0 2.9147689100399057 2.3725683692463546 0 2.8009204406853061 2.3919981706983484 0 2.7331847048786844 2.2939125660607274 0 2.8844181523429486 2.2591651511661164 0 2.8009204406853061 2.3919981706983484 0 2.7331847048786844 2.2939125660607274 0 2.8009204406853061 2.3919981706983484 0 2.6628868906590282 2.4033050210568891 0 2.5930333875776097 2.3050968422130484 0 2.7331847048786844 2.2939125660607274 0 2.6628868906590282 2.4033050210568891 0 2.8009204406853061 2.3919981706983484 0 2.6628868906590282 2.4033050210568891 0 2.7337759202406149 2.5136945630942762 0 2.6628868906590282 2.4033050210568891 0 2.7337759202406149 2.5136945630942762 0 2.5919053366804499 2.5181070760341973 0 2.8826831327685798 2.5077304097256783 0 2.8009204406853061 2.3919981706983484 0 2.7337759202406149 2.5136945630942762 0 2.8826831327685798 2.5077304097256783 0 2.7337759202406149 2.5136945630942762 0 2.7963225433665051 2.6345874151289084 0 2.7337759202406149 2.5136945630942762 0 2.7963225433665051 2.6345874151289084 0 2.6591249949238911 2.6346126803698313 0 2.7337759202406149 2.5136945630942762 0 2.6591249949238911 2.6346126803698313 0 2.5919053366804499 2.5181070760341973 0 2.6591249949238911 2.6346126803698313 0 2.5211840217696864 2.6374666524769821 0 2.5919053366804499 2.5181070760341973 0 2.5211840217696864 2.6374666524769821 0 2.5919053366804499 2.5181070760341973 0 2.4560446870022412 2.51889804378439 0 2.5919053366804499 2.5181070760341973 0 2.5228316953422993 2.4065668539260829 0 2.4560446870022412 2.51889804378439 0 2.6628868906590282 2.4033050210568891 0 2.5919053366804499 2.5181070760341973 0 2.5228316953422993 2.4065668539260829 0 2.5930333875776097 2.3050968422130484 0 2.6628868906590282 2.4033050210568891 0 2.5228316953422993 2.4065668539260829 0 2.4551733502542183 2.3051754585649658 0 2.5930333875776097 2.3050968422130484 0 2.5228316953422993 2.4065668539260829 0 2.5228316953422993 2.4065668539260829 0 2.3845446469946521 2.4020405775615425 0 2.4560446870022412 2.51889804378439 0 2.4551733502542183 2.3051754585649658 0 2.5228316953422993 2.4065668539260829 0 2.3845446469946521 2.4020405775615425 0 2.318510101475515 2.2920300420748343 0 2.4551733502542183 2.3051754585649658 0 2.3845446469946521 2.4020405775615425 0 2.318510101475515 2.2920300420748343 0 2.3845446469946521 2.4020405775615425 0 2.2695009881151949 2.3966155488023562 0 2.3845446469946521 2.4020405775615425 0 2.3296724991764619 2.5187085385387338 0 2.2695009881151949 2.3966155488023562 0 2.3845446469946521 2.4020405775615425 0 2.3296724991764619 2.5187085385387338 0 2.4560446870022412 2.51889804378439 0 2.5211840217696864 2.6374666524769821 0 2.4560446870022412 2.51889804378439 0 2.3905253005959617 2.6402698904890958 0 2.3296724991764619 2.5187085385387338 0 2.4560446870022412 2.51889804378439 0 2.3905253005959617 2.6402698904890958 0 2.3296724991764619 2.5187085385387338 0 2.3905253005959617 2.6402698904890958 0 2.2786412311081765 2.6393184878347511 0 2.3905253005959617 2.6402698904890958 0 2.320450116640989 2.767061076775184 0 2.2786412311081765 2.6393184878347511 0 2.5211840217696864 2.6374666524769821 0 2.3905253005959617 2.6402698904890958 0 2.4481900176069322 2.7606596145001663 0 2.3905253005959617 2.6402698904890958 0 2.4481900176069322 2.7606596145001663 0 2.320450116640989 2.767061076775184 0 2.4481900176069322 2.7606596145001663 0 2.320450116640989 2.767061076775184 0 2.3719011736900986 2.8829246652374398 0 2.320450116640989 2.767061076775184 0 2.3719011736900986 2.8829246652374398 0 2.2437227771391264 2.8935211704637647 0 2.285744072062625 2.9998681817708612 0 2.3719011736900986 2.8829246652374398 0 2.2437227771391264 2.8935211704637647 0 2.4285827638306765 2.9998649035123788 0 2.3719011736900986 2.8829246652374398 0 2.5091545859832807 2.8823302207037522 0 2.285744072062625 2.9998681817708612 0 2.4285827638306765 2.9998649035123788 0 2.3719011736900986 2.8829246652374398 0 2.4481900176069322 2.7606596145001663 0 2.3719011736900986 2.8829246652374398 0 2.5091545859832807 2.8823302207037522 0 2.4285827638306765 2.9998649035123788 0 2.5091545859832807 2.8823302207037522 0 2.571439384004174 2.9998610793363962 0 2.5091545859832807 2.8823302207037522 0 2.571439384004174 2.9998610793363962 0 2.6486945625503999 2.8771411777377653 0 2.5091545859832807 2.8823302207037522 0 2.5847131986302494 2.7579042600021295 0 2.6486945625503999 2.8771411777377653 0 2.4481900176069322 2.7606596145001663 0 2.5091545859832807 2.8823302207037522 0 2.5847131986302494 2.7579042600021295 0 2.5211840217696864 2.6374666524769821 0 2.4481900176069322 2.7606596145001663 0 2.5847131986302494 2.7579042600021295 0 2.6591249949238911 2.6346126803698313 0 2.5211840217696864 2.6374666524769821 0 2.5847131986302494 2.7579042600021295 0 2.6591249949238911 2.6346126803698313 0 2.5847131986302494 2.7579042600021295 0 2.723256607133099 2.7556939784769989 0 2.7963225433665051 2.6345874151289084 0 2.6591249949238911 2.6346126803698313 0 2.723256607133099 2.7556939784769989 0 2.7963225433665051 2.6345874151289084 0 2.723256607133099 2.7556939784769989 0 2.8737286724846749 2.7695473804702577 0 2.723256607133099 2.7556939784769989 0 2.7847356797724392 2.8800671757529841 0 2.8737286724846749 2.7695473804702577 0 2.5847131986302494 2.7579042600021295 0 2.723256607133099 2.7556939784769989 0 2.6486945625503999 2.8771411777377653 0 2.723256607133099 2.7556939784769989 0 2.6486945625503999 2.8771411777377653 0 2.7847356797724392 2.8800671757529841 0 2.571439384004174 2.9998610793363962 0 2.6486945625503999 2.8771411777377653 0 2.7142867754008018 2.9998657454790885 0 2.6486945625503999 2.8771411777377653 0 2.7142867754008018 2.9998657454790885 0 2.7847356797724392 2.8800671757529841 0 2.7142867754008018 2.9998657454790885 0 2.7847356797724392 2.8800671757529841 0 2.8571663705768491 2.9998405148403573 0 2.7847356797724392 2.8800671757529841 0 2.8974655091750017 2.8974487814948602 0 2.8737286724846749 2.7695473804702577 0 2.7847356797724392 2.8800671757529841 0 2.8974655091750017 2.8974487814948602 0 2.8571663705768491 2.9998405148403573 0 2.8974655091750017 2.8974487814948602 0 2.9999285543926715 2.9999285222194221 0 2.9998403351403367 2.8571663177287125 0 2.8974655091750017 2.8974487814948602 0 2.8571663705768491 2.9998405148403573 0 2.9999285543926715 2.9999285222194221 0 2.8974655091750017 2.8974487814948602 0 2.9998403351403367 2.8571663177287125 0 2.8737286724846749 2.7695473804702577 0 2.9998403351403367 2.8571663177287125 0 2.8737286724846749 2.7695473804702577 0 2.9998664234091046 2.7142869101798692 0 2.7963225433665051 2.6345874151289084 0 2.8737286724846749 2.7695473804702577 0 2.9115742432725029 2.6460425015342643 0 2.9998602789906559 2.571439052468862 0 2.9115742432725029 2.6460425015342643 0 2.9998664234091046 2.7142869101798692 0 2.8737286724846749 2.7695473804702577 0 2.9115742432725029 2.6460425015342643 0 2.9998664234091046 2.7142869101798692 0 1.8013523442939205 2.5734806864247641 0 1.6495793417818578 2.4998965046211392 0 1.7993437060668298 2.4327941858744233 0 1.8013523442939205 2.5734806864247641 0 1.7993437060668298 2.4327941858744233 0 1.9705523844338055 2.5097294265233354 0 1.8013523442939205 2.5734806864247641 0 1.9705523844338055 2.5097294265233354 0 1.9646989302403655 2.6482266426985479 0 1.8013523442939205 2.5734806864247641 0 1.6495793417818578 2.4998965046211392 0 1.6483457707671838 2.6388654594637315 0 1.5060227225843725 2.5686246573173523 0 1.6495793417818578 2.4998965046211392 0 1.6483457707671838 2.6388654594637315 0 1.5060227225843725 2.5686246573173523 0 1.6495793417818578 2.4998965046211392 0 1.5058686405104922 2.4257573482057184 0 1.6495793417818578 2.4998965046211392 0 1.6470823329097062 2.3517389006719869 0 1.7993437060668298 2.4327941858744233 0 1.6495793417818578 2.4998965046211392 0 1.6470823329097062 2.3517389006719869 0 1.5058686405104922 2.4257573482057184 0 1.6470823329097062 2.3517389006719869 0 1.5058686405104922 2.4257573482057184 0 1.5056408409505266 2.2686520972587552 0 1.6439999409039572 2.1826452646733365 0 1.6470823329097062 2.3517389006719869 0 1.5056408409505266 2.2686520972587552 0 1.6439999409039572 2.1826452646733365 0 1.6470823329097062 2.3517389006719869 0 1.7884408604528053 2.2806505633999965 0 1.6470823329097062 2.3517389006719869 0 1.7884408604528053 2.2806505633999965 0 1.7993437060668298 2.4327941858744233 0 1.7884408604528053 2.2806505633999965 0 1.7993437060668298 2.4327941858744233 0 1.9607430359432343 2.3689864341022857 0 1.7993437060668298 2.4327941858744233 0 1.9607430359432343 2.3689864341022857 0 1.9705523844338055 2.5097294265233354 0 1.940262164039682 2.2250573856809441 0 1.7884408604528053 2.2806505633999965 0 1.9607430359432343 2.3689864341022857 0 1.940262164039682 2.2250573856809441 0 2.1405488846381893 2.3069053629833429 0 1.9607430359432343 2.3689864341022857 0 2.1405488846381893 2.3069053629833429 0 2.1617644340521096 2.4473468188536289 0 2.1947181571568661 2.3808458037573801 0 2.1617644340521096 2.4473468188536289 0 1.9607430359432343 2.3689864341022857 0 1.9705523844338055 2.5097294265233354 0 2.1405488846381893 2.3069053629833429 0 2.1617644340521096 2.4473468188536289 0 1.9607430359432343 2.3689864341022857 0 2.1959953319177137 2.2649832221969368 0 2.318510101475515 2.2920300420748343 0 2.2695009881151949 2.3966155488023562 0 2.1959953319177137 2.2649832221969368 0 2.1405488846381893 2.3069053629833429 0 2.1947181571568661 2.3808458037573801 0 2.1959953319177137 2.2649832221969368 0 2.1947181571568661 2.3808458037573801 0 2.2695009881151949 2.3966155488023562 0 2.1617644340521096 2.4473468188536289 0 2.1947181571568661 2.3808458037573801 0 2.2245152093816731 2.5188017360466435 0 2.1947181571568661 2.3808458037573801 0 2.2695009881151949 2.3966155488023562 0 2.2245152093816731 2.5188017360466435 0 2.3296724991764619 2.5187085385387338 0 2.2695009881151949 2.3966155488023562 0 2.2245152093816731 2.5188017360466435 0 2.2245152093816731 2.5188017360466435 0 2.1634002077830559 2.5865957118699869 0 2.2008697342082173 2.6603830615193949 0 2.2245152093816731 2.5188017360466435 0 2.2786412311081765 2.6393184878347511 0 2.2008697342082173 2.6603830615193949 0 2.3296724991764619 2.5187085385387338 0 2.2245152093816731 2.5188017360466435 0 2.2786412311081765 2.6393184878347511 0 2.1617644340521096 2.4473468188536289 0 1.9705523844338055 2.5097294265233354 0 2.1634002077830559 2.5865957118699869 0 2.1617644340521096 2.4473468188536289 0 2.2245152093816731 2.5188017360466435 0 2.1634002077830559 2.5865957118699869 0 1.9705523844338055 2.5097294265233354 0 2.1634002077830559 2.5865957118699869 0 1.9646989302403655 2.6482266426985479 0 2.1634002077830559 2.5865957118699869 0 1.9646989302403655 2.6482266426985479 0 2.1441186776910683 2.727802906966315 0 1.9646989302403655 2.6482266426985479 0 2.1441186776910683 2.727802906966315 0 1.950201764268531 2.7812452024150742 0 2.1634002077830559 2.5865957118699869 0 2.1441186776910683 2.727802906966315 0 2.2008697342082173 2.6603830615193949 0 2.1441186776910683 2.727802906966315 0 2.1999910649219458 2.7835352654777736 0 2.0980096575757572 2.8674659729132346 0 2.1441186776910683 2.727802906966315 0 1.950201764268531 2.7812452024150742 0 2.0980096575757572 2.8674659729132346 0 2.320450116640989 2.767061076775184 0 2.2786412311081765 2.6393184878347511 0 2.1999910649219458 2.7835352654777736 0 2.1441186776910683 2.727802906966315 0 2.2008697342082173 2.6603830615193949 0 2.1999910649219458 2.7835352654777736 0 2.2786412311081765 2.6393184878347511 0 2.2008697342082173 2.6603830615193949 0 2.1999910649219458 2.7835352654777736 0 2.320450116640989 2.767061076775184 0 2.1999910649219458 2.7835352654777736 0 2.2437227771391264 2.8935211704637647 0 2.1999910649219458 2.7835352654777736 0 2.1451541912237748 2.910264716589535 0 2.0980096575757572 2.8674659729132346 0 2.1999910649219458 2.7835352654777736 0 2.2437227771391264 2.8935211704637647 0 2.1451541912237748 2.910264716589535 0 2.1451541912237748 2.910264716589535 0 2.1428771064107202 2.9998734691511921 0 2.0001733359678742 2.9998701154353986 0 2.2437227771391264 2.8935211704637647 0 2.1451541912237748 2.910264716589535 0 2.1428771064107202 2.9998734691511921 0 2.285744072062625 2.9998681817708612 0 2.2437227771391264 2.8935211704637647 0 2.1428771064107202 2.9998734691511921 0 1.950201764268531 2.7812452024150742 0 1.9339407981078485 2.8911298892903132 0 2.0980096575757572 2.8674659729132346 0 2.1451541912237748 2.910264716589535 0 2.0980096575757572 2.8674659729132346 0 2.0001733359678742 2.9998701154353986 0 1.9339407981078485 2.8911298892903132 0 2.0980096575757572 2.8674659729132346 0 2.0001733359678742 2.9998701154353986 0 1.9339407981078485 2.8911298892903132 0 2.0001733359678742 2.9998701154353986 0 1.8571589004094768 2.9998421187443687 0 1.9339407981078485 2.8911298892903132 0 1.8571589004094768 2.9998421187443687 0 1.7957833733036981 2.8623907768622492 0 1.8571589004094768 2.9998421187443687 0 1.7143085230649528 2.9998512183094004 0 1.7957833733036981 2.8623907768622492 0 1.7143085230649528 2.9998512183094004 0 1.7957833733036981 2.8623907768622492 0 1.6460856883921169 2.8987517607065292 0 1.950201764268531 2.7812452024150742 0 1.9339407981078485 2.8911298892903132 0 1.7957833733036981 2.8623907768622492 0 1.950201764268531 2.7812452024150742 0 1.7957833733036981 2.8623907768622492 0 1.7976460091612017 2.711693850460807 0 1.7957833733036981 2.8623907768622492 0 1.7976460091612017 2.711693850460807 0 1.6490730961341507 2.7778353181083566 0 1.8013523442939205 2.5734806864247641 0 1.7976460091612017 2.711693850460807 0 1.6483457707671838 2.6388654594637315 0 1.8013523442939205 2.5734806864247641 0 1.9646989302403655 2.6482266426985479 0 1.7976460091612017 2.711693850460807 0 1.9646989302403655 2.6482266426985479 0 1.950201764268531 2.7812452024150742 0 1.7976460091612017 2.711693850460807 0 1.5060227225843725 2.5686246573173523 0 1.5067597808166946 2.7094701354629631 0 1.6483457707671838 2.6388654594637315 0 1.5067597808166946 2.7094701354629631 0 1.6483457707671838 2.6388654594637315 0 1.6490730961341507 2.7778353181083566 0 1.7976460091612017 2.711693850460807 0 1.6483457707671838 2.6388654594637315 0 1.6490730961341507 2.7778353181083566 0 1.5067597808166946 2.7094701354629631 0 1.6490730961341507 2.7778353181083566 0 1.5028546975072139 2.862060607056935 0 1.6490730961341507 2.7778353181083566 0 1.5028546975072139 2.862060607056935 0 1.6460856883921169 2.8987517607065292 0 1.7957833733036981 2.8623907768622492 0 1.6490730961341507 2.7778353181083566 0 1.6460856883921169 2.8987517607065292 0 1.7143085230649528 2.9998512183094004 0 1.6460856883921169 2.8987517607065292 0 1.5714321525224728 2.9998502792832906 0 1.5028546975072139 2.862060607056935 0 1.5714321525224728 2.9998502792832906 0 1.4285676113080128 2.99984994519337 0 1.5028546975072139 2.862060607056935 0 1.6460856883921169 2.8987517607065292 0 1.5714321525224728 2.9998502792832906 0 1.5028546975072139 2.862060607056935 0 1.4285676113080128 2.99984994519337 0 1.3513276655878044 2.8962159111999854 0 1.4285676113080128 2.99984994519337 0 1.3513276655878044 2.8962159111999854 0 1.2856922395440022 2.9998516676069262 0 1.3513276655878044 2.8962159111999854 0 1.2129194688799922 2.8604196276871607 0 1.3717653095128299 2.7776907088953728 0 1.5028546975072139 2.862060607056935 0 1.3513276655878044 2.8962159111999854 0 1.3717653095128299 2.7776907088953728 0 1.1428403633317588 2.999841771395853 0 1.2129194688799922 2.8604196276871607 0 1.0661950550430705 2.8911825019924557 0 1.1428403633317588 2.999841771395853 0 1.2856922395440022 2.9998516676069262 0 1.2129194688799922 2.8604196276871607 0 1.3513276655878044 2.8962159111999854 0 1.2856922395440022 2.9998516676069262 0 1.2129194688799922 2.8604196276871607 0 1.2129194688799922 2.8604196276871607 0 1.0563257844092884 2.7808703515888458 0 1.0661950550430705 2.8911825019924557 0 1.2129194688799922 2.8604196276871607 0 1.2121550711058373 2.7107705908447257 0 1.0563257844092884 2.7808703515888458 0 1.2129194688799922 2.8604196276871607 0 1.2121550711058373 2.7107705908447257 0 1.3717653095128299 2.7776907088953728 0 1.2121550711058373 2.7107705908447257 0 1.362312534770761 2.6396843234350573 0 1.2038074428223231 2.5746280052226469 0 1.2121550711058373 2.7107705908447257 0 1.0370467653576343 2.6477758151266801 0 1.0563257844092884 2.7808703515888458 0 1.2121550711058373 2.7107705908447257 0 1.2038074428223231 2.5746280052226469 0 1.0370467653576343 2.6477758151266801 0 1.5067597808166946 2.7094701354629631 0 1.5028546975072139 2.862060607056935 0 1.3717653095128299 2.7776907088953728 0 1.2121550711058373 2.7107705908447257 0 1.3717653095128299 2.7776907088953728 0 1.362312534770761 2.6396843234350573 0 1.5060227225843725 2.5686246573173523 0 1.5067597808166946 2.7094701354629631 0 1.362312534770761 2.6396843234350573 0 1.5067597808166946 2.7094701354629631 0 1.3717653095128299 2.7776907088953728 0 1.362312534770761 2.6396843234350573 0 1.5060227225843725 2.5686246573173523 0 1.362312534770761 2.6396843234350573 0 1.3608496281589166 2.5000008214019966 0 1.5060227225843725 2.5686246573173523 0 1.5058686405104922 2.4257573482057184 0 1.3608496281589166 2.5000008214019966 0 1.362312534770761 2.6396843234350573 0 1.3608496281589166 2.5000008214019966 0 1.2038074428223231 2.5746280052226469 0 1.2038074428223231 2.5746280052226469 0 1.0308833844874168 2.5097093086701801 0 1.0370467653576343 2.6477758151266801 0 1.2038074428223231 2.5746280052226469 0 1.2124095974361819 2.4323140179367129 0 1.0308833844874168 2.5097093086701801 0 1.3608496281589166 2.5000008214019966 0 1.2038074428223231 2.5746280052226469 0 1.2124095974361819 2.4323140179367129 0 1.2124095974361819 2.4323140179367129 0 1.2231930281885455 2.282182283944155 0 1.3655543709142575 2.3519541470974752 0 1.2124095974361819 2.4323140179367129 0 1.0500721693051889 2.3677524260341358 0 1.2231930281885455 2.282182283944155 0 1.2124095974361819 2.4323140179367129 0 1.0500721693051889 2.3677524260341358 0 1.0308833844874168 2.5097093086701801 0 1.0500721693051889 2.3677524260341358 0 1.2231930281885455 2.282182283944155 0 1.0687409523631828 2.2235748891339755 0 1.2231930281885455 2.282182283944155 0 1.3655543709142575 2.3519541470974752 0 1.3721224287383698 2.184490006847668 0 1.5056408409505266 2.2686520972587552 0 1.3655543709142575 2.3519541470974752 0 1.3721224287383698 2.184490006847668 0 1.5058686405104922 2.4257573482057184 0 1.5056408409505266 2.2686520972587552 0 1.3655543709142575 2.3519541470974752 0 1.5058686405104922 2.4257573482057184 0 1.3608496281589166 2.5000008214019966 0 1.3655543709142575 2.3519541470974752 0 1.3608496281589166 2.5000008214019966 0 1.2124095974361819 2.4323140179367129 0 1.3655543709142575 2.3519541470974752 0 0.80128733442901001 2.3831533875065269 0 0.72118135119211546 2.3979157137745504 0 0.77474079979444999 2.5182334353450782 0 0.80128733442901001 2.3831533875065269 0 0.83830441952210299 2.44734070175664 0 0.77474079979444999 2.5182334353450782 0 0.72118135119211546 2.3979157137745504 0 0.67445581793327014 2.295177846395442 0 0.80083009416603368 2.2663132880938957 0 0.80128733442901001 2.3831533875065269 0 0.72118135119211546 2.3979157137745504 0 0.80083009416603368 2.2663132880938957 0 0.80128733442901001 2.3831533875065269 0 0.85959632252585316 2.3068952518666173 0 0.80083009416603368 2.2663132880938957 0 1.0500721693051889 2.3677524260341358 0 0.85959632252585316 2.3068952518666173 0 1.0687409523631828 2.2235748891339755 0 1.0500721693051889 2.3677524260341358 0 0.85959632252585316 2.3068952518666173 0 0.83830441952210299 2.44734070175664 0 1.0500721693051889 2.3677524260341358 0 0.83830441952210299 2.44734070175664 0 1.0308833844874168 2.5097093086701801 0 0.80128733442901001 2.3831533875065269 0 0.85959632252585316 2.3068952518666173 0 0.83830441952210299 2.44734070175664 0 0.83830441952210299 2.44734070175664 0 0.83659578182490935 2.5865869856801762 0 0.77474079979444999 2.5182334353450782 0 0.83830441952210299 2.44734070175664 0 1.0308833844874168 2.5097093086701801 0 0.83659578182490935 2.5865869856801762 0 1.0308833844874168 2.5097093086701801 0 0.83659578182490935 2.5865869856801762 0 1.0370467653576343 2.6477758151266801 0 0.77474079979444999 2.5182334353450782 0 0.7212877303682852 2.6394076275689957 0 0.79895281883068814 2.6506124265811515 0 0.83659578182490935 2.5865869856801762 0 0.77474079979444999 2.5182334353450782 0 0.79895281883068814 2.6506124265811515 0 0.72118135119211546 2.3979157137745504 0 0.77474079979444999 2.5182334353450782 0 0.66414631924565148 2.5192752709059265 0 0.77474079979444999 2.5182334353450782 0 0.7212877303682852 2.6394076275689957 0 0.66414631924565148 2.5192752709059265 0 0.7212877303682852 2.6394076275689957 0 0.79885605912356994 2.7812558009538257 0 0.67710330754704251 2.763365535127567 0 0.7212877303682852 2.6394076275689957 0 0.79895281883068814 2.6506124265811515 0 0.79885605912356994 2.7812558009538257 0 0.79895281883068814 2.6506124265811515 0 0.79885605912356994 2.7812558009538257 0 0.85609242136088448 2.7278617738812452 0 0.79885605912356994 2.7812558009538257 0 0.7532032651163717 2.8901891446410843 0 0.67710330754704251 2.763365535127567 0 0.83659578182490935 2.5865869856801762 0 1.0370467653576343 2.6477758151266801 0 0.85609242136088448 2.7278617738812452 0 1.0370467653576343 2.6477758151266801 0 0.85609242136088448 2.7278617738812452 0 1.0563257844092884 2.7808703515888458 0 0.83659578182490935 2.5865869856801762 0 0.79895281883068814 2.6506124265811515 0 0.85609242136088448 2.7278617738812452 0 0.79885605912356994 2.7812558009538257 0 0.85609242136088448 2.7278617738812452 0 0.90205351213386353 2.8674726646953119 0 0.85609242136088448 2.7278617738812452 0 1.0563257844092884 2.7808703515888458 0 0.90205351213386353 2.8674726646953119 0 1.0563257844092884 2.7808703515888458 0 1.0661950550430705 2.8911825019924557 0 0.90205351213386353 2.8674726646953119 0 0.90205351213386353 2.8674726646953119 0 0.99982699575945899 2.9998700495443251 0 0.85491326877305152 2.910196924013285 0 1.0661950550430705 2.8911825019924557 0 0.90205351213386353 2.8674726646953119 0 0.99982699575945899 2.9998700495443251 0 1.1428403633317588 2.999841771395853 0 1.0661950550430705 2.8911825019924557 0 0.99982699575945899 2.9998700495443251 0 0.79885605912356994 2.7812558009538257 0 0.7532032651163717 2.8901891446410843 0 0.85491326877305152 2.910196924013285 0 0.79885605912356994 2.7812558009538257 0 0.90205351213386353 2.8674726646953119 0 0.85491326877305152 2.910196924013285 0 0.99982699575945899 2.9998700495443251 0 0.85491326877305152 2.910196924013285 0 0.8571225172015613 2.9998737401442113 0 0.7532032651163717 2.8901891446410843 0 0.85491326877305152 2.910196924013285 0 0.8571225172015613 2.9998737401442113 0 0.7532032651163717 2.8901891446410843 0 0.8571225172015613 2.9998737401442113 0 0.71425622449549686 2.999867940945466 0 0.7532032651163717 2.8901891446410843 0 0.71425622449549686 2.999867940945466 0 0.62688662050343114 2.8825026210731792 0 0.7532032651163717 2.8901891446410843 0 0.62688662050343114 2.8825026210731792 0 0.67710330754704251 2.763365535127567 0 0.62688662050343114 2.8825026210731792 0 0.49025886117541911 2.8833523862976249 0 0.55056918403838939 2.7613146705810059 0 0.62688662050343114 2.8825026210731792 0 0.5714171834247922 2.9998649658555538 0 0.49025886117541911 2.8833523862976249 0 0.71425622449549686 2.999867940945466 0 0.62688662050343114 2.8825026210731792 0 0.5714171834247922 2.9998649658555538 0 0.5714171834247922 2.9998649658555538 0 0.42856063529573263 2.9998610342049568 0 0.49025886117541911 2.8833523862976249 0 0.42856063529573263 2.9998610342049568 0 0.49025886117541911 2.8833523862976249 0 0.34810801191979218 2.8822654868891608 0 0.49025886117541911 2.8833523862976249 0 0.41544241719573871 2.7651591595149516 0 0.34810801191979218 2.8822654868891608 0 0.49025886117541911 2.8833523862976249 0 0.41544241719573871 2.7651591595149516 0 0.55056918403838939 2.7613146705810059 0 0.41544241719573871 2.7651591595149516 0 0.34136157430769892 2.6355276566331316 0 0.47801768473591205 2.6388946553807293 0 0.41544241719573871 2.7651591595149516 0 0.55056918403838939 2.7613146705810059 0 0.47801768473591205 2.6388946553807293 0 0.55056918403838939 2.7613146705810059 0 0.60778508485355831 2.6397990903106092 0 0.47801768473591205 2.6388946553807293 0 0.67710330754704251 2.763365535127567 0 0.55056918403838939 2.7613146705810059 0 0.60778508485355831 2.6397990903106092 0 0.7212877303682852 2.6394076275689957 0 0.67710330754704251 2.763365535127567 0 0.60778508485355831 2.6397990903106092 0 0.62688662050343114 2.8825026210731792 0 0.67710330754704251 2.763365535127567 0 0.55056918403838939 2.7613146705810059 0 0.00015966606452887593 2.8571662885924884 0 0.1020031221063923 2.8979762965407412 0 0.12401972436248573 2.7755578838046651 0 0.00015966606452887593 2.8571662885924884 0 7.1453407547937342e-05 2.9999285094295041 0 0.1020031221063923 2.8979762965407412 0 7.1453407547937342e-05 2.9999285094295041 0 0.14283361817595286 2.9998405729181905 0 0.1020031221063923 2.8979762965407412 0 0.14283361817595286 2.9998405729181905 0 0.1020031221063923 2.8979762965407412 0 0.21218658970975482 2.8870350814584032 0 0.1020031221063923 2.8979762965407412 0 0.21218658970975482 2.8870350814584032 0 0.12401972436248573 2.7755578838046651 0 0.14283361817595286 2.9998405729181905 0 0.21218658970975482 2.8870350814584032 0 0.28571322624536827 2.9998657390123582 0 0.21218658970975482 2.8870350814584032 0 0.28571322624536827 2.9998657390123582 0 0.34810801191979218 2.8822654868891608 0 0.42856063529573263 2.9998610342049568 0 0.28571322624536827 2.9998657390123582 0 0.34810801191979218 2.8822654868891608 0 0.21218658970975482 2.8870350814584032 0 0.34810801191979218 2.8822654868891608 0 0.27246420266415688 2.7637543172564101 0 0.41544241719573871 2.7651591595149516 0 0.34810801191979218 2.8822654868891608 0 0.27246420266415688 2.7637543172564101 0 0.41544241719573871 2.7651591595149516 0 0.27246420266415688 2.7637543172564101 0 0.34136157430769892 2.6355276566331316 0 0.27246420266415688 2.7637543172564101 0 0.20159388504238596 2.6382406883872167 0 0.34136157430769892 2.6355276566331316 0 0.27246420266415688 2.7637543172564101 0 0.20159388504238596 2.6382406883872167 0 0.12401972436248573 2.7755578838046651 0 0.21218658970975482 2.8870350814584032 0 0.27246420266415688 2.7637543172564101 0 0.12401972436248573 2.7755578838046651 0 0.20159388504238596 2.6382406883872167 0 0.12401972436248573 2.7755578838046651 0 0.088255407645942058 2.6413541637610121 0 0.12401972436248573 2.7755578838046651 0 0.00013356306828140251 2.7142869646582795 0 0.088255407645942058 2.6413541637610121 0 0.00013356306828140251 2.7142869646582795 0 0.088255407645942058 2.6413541637610121 0 0.00013978224009195819 2.5714389638087964 0 0.00015966606452887593 2.8571662885924884 0 0.12401972436248573 2.7755578838046651 0 0.00013356306828140251 2.7142869646582795 0 0.00013978224009195819 2.5714389638087964 0 0.11692262092294967 2.5073524673156231 0 0.0001335193216173708 2.4285837875155565 0 0.088255407645942058 2.6413541637610121 0 0.00013978224009195819 2.5714389638087964 0 0.11692262092294967 2.5073524673156231 0 0.20159388504238596 2.6382406883872167 0 0.088255407645942058 2.6413541637610121 0 0.11692262092294967 2.5073524673156231 0 0.11692262092294967 2.5073524673156231 0 0.26202228508052733 2.512508731291327 0 0.19184487522925933 2.3854065284314037 0 0.20159388504238596 2.6382406883872167 0 0.11692262092294967 2.5073524673156231 0 0.26202228508052733 2.512508731291327 0 0.20159388504238596 2.6382406883872167 0 0.26202228508052733 2.512508731291327 0 0.34136157430769892 2.6355276566331316 0 0.26202228508052733 2.512508731291327 0 0.34136157430769892 2.6355276566331316 0 0.40517758691319156 2.5167375686702664 0 0.26202228508052733 2.512508731291327 0 0.33367042635710858 2.3987234045738752 0 0.40517758691319156 2.5167375686702664 0 0.33367042635710858 2.3987234045738752 0 0.40606428973503922 2.3017914415280862 0 0.26321229776282873 2.2880606742534946 0 0.33367042635710858 2.3987234045738752 0 0.19184487522925933 2.3854065284314037 0 0.26321229776282873 2.2880606742534946 0 0.19184487522925933 2.3854065284314037 0 0.11209483119745527 2.2567808636535447 0 0.26321229776282873 2.2880606742534946 0 0.26202228508052733 2.512508731291327 0 0.33367042635710858 2.3987234045738752 0 0.19184487522925933 2.3854065284314037 0 0.11692262092294967 2.5073524673156231 0 0.19184487522925933 2.3854065284314037 0 0.078965187554248903 2.3678672291161451 0 0.19184487522925933 2.3854065284314037 0 0.078965187554248903 2.3678672291161451 0 0.11209483119745527 2.2567808636535447 0 0.00013405734557006774 2.2857422140800598 0 0.078965187554248903 2.3678672291161451 0 0.11209483119745527 2.2567808636535447 0 0.00013405734557006774 2.2857422140800598 0 0.078965187554248903 2.3678672291161451 0 0.0001335193216173708 2.4285837875155565 0 0.11692262092294967 2.5073524673156231 0 0.078965187554248903 2.3678672291161451 0 0.0001335193216173708 2.4285837875155565 0 0.54126449925837716 2.5199621275673749 0 0.66414631924565148 2.5192752709059265 0 0.60612716633938035 2.4054542345517147 0 0.7212877303682852 2.6394076275689957 0 0.66414631924565148 2.5192752709059265 0 0.60778508485355831 2.6397990903106092 0 0.54126449925837716 2.5199621275673749 0 0.60778508485355831 2.6397990903106092 0 0.47801768473591205 2.6388946553807293 0 0.54126449925837716 2.5199621275673749 0 0.66414631924565148 2.5192752709059265 0 0.60778508485355831 2.6397990903106092 0 0.54126449925837716 2.5199621275673749 0 0.47801768473591205 2.6388946553807293 0 0.40517758691319156 2.5167375686702664 0 0.34136157430769892 2.6355276566331316 0 0.47801768473591205 2.6388946553807293 0 0.40517758691319156 2.5167375686702664 0 0.54126449925837716 2.5199621275673749 0 0.40517758691319156 2.5167375686702664 0 0.47288045891148878 2.4058367174490369 0 0.33367042635710858 2.3987234045738752 0 0.40517758691319156 2.5167375686702664 0 0.47288045891148878 2.4058367174490369 0 0.33367042635710858 2.3987234045738752 0 0.47288045891148878 2.4058367174490369 0 0.40606428973503922 2.3017914415280862 0 0.47288045891148878 2.4058367174490369 0 0.54489632926182707 2.305052396632655 0 0.40606428973503922 2.3017914415280862 0 0.60612716633938035 2.4054542345517147 0 0.67445581793327014 2.295177846395442 0 0.54489632926182707 2.305052396632655 0 0.47288045891148878 2.4058367174490369 0 0.60612716633938035 2.4054542345517147 0 0.54489632926182707 2.305052396632655 0 0.54126449925837716 2.5199621275673749 0 0.47288045891148878 2.4058367174490369 0 0.60612716633938035 2.4054542345517147 0 0.72118135119211546 2.3979157137745504 0 0.66414631924565148 2.5192752709059265 0 0.60612716633938035 2.4054542345517147 0 0.72118135119211546 2.3979157137745504 0 0.60612716633938035 2.4054542345517147 0 0.67445581793327014 2.295177846395442 0 0.67445581793327014 2.295177846395442 0 0.61669827525444598 2.2137871074764148 0 0.74592553742614898 2.1888539968872105 0 0.61669827525444598 2.2137871074764148 0 0.6924203029545567 2.140551225633486 0 0.74592553742614898 2.1888539968872105 0 0.61669827525444598 2.2137871074764148 0 0.4804212290556612 2.2227838043003847 0 0.55286682485459204 2.1616305611369673 0 0.67445581793327014 2.295177846395442 0 0.61669827525444598 2.2137871074764148 0 0.54489632926182707 2.305052396632655 0 0.61669827525444598 2.2137871074764148 0 0.54489632926182707 2.305052396632655 0 0.4804212290556612 2.2227838043003847 0 0.54489632926182707 2.305052396632655 0 0.40606428973503922 2.3017914415280862 0 0.4804212290556612 2.2227838043003847 0 0.40606428973503922 2.3017914415280862 0 0.4804212290556612 2.2227838043003847 0 0.3385467036519958 2.213849813649472 0 0.4804212290556612 2.2227838043003847 0 0.41288757214532079 2.1634860941860743 0 0.3385467036519958 2.213849813649472 0 0.4804212290556612 2.2227838043003847 0 0.41288757214532079 2.1634860941860743 0 0.55286682485459204 2.1616305611369673 0 0.41288757214532079 2.1634860941860743 0 0.34879770630043572 1.9635350761765069 0 0.48954094664368986 1.9673767159967683 0 0.41288757214532079 2.1634860941860743 0 0.55286682485459204 2.1616305611369673 0 0.48954094664368986 1.9673767159967683 0 0.6924203029545567 2.140551225633486 0 0.55286682485459204 2.1616305611369673 0 0.63197057263120304 1.9501618475240157 0 0.55286682485459204 2.1616305611369673 0 0.63197057263120304 1.9501618475240157 0 0.48954094664368986 1.9673767159967683 0 0.6924203029545567 2.140551225633486 0 0.63197057263120304 1.9501618475240157 0 0.77614638865959007 1.9313181726829607 0 0.61669827525444598 2.2137871074764148 0 0.6924203029545567 2.140551225633486 0 0.55286682485459204 2.1616305611369673 0 0.00012524808739092645 2.1428784360812125 0 0.090074647367810096 2.1450207581465253 0 0.00013044794648122343 2.0001728010079649 0 0.00012524808739092645 2.1428784360812125 0 0.11209483119745527 2.2567808636535447 0 0.090074647367810096 2.1450207581465253 0 0.00013405734557006774 2.2857422140800598 0 0.00012524808739092645 2.1428784360812125 0 0.11209483119745527 2.2567808636535447 0 0.090074647367810096 2.1450207581465253 0 0.19914189281668424 2.1866937731340497 0 0.13268182796912073 2.0979552466254168 0 0.11209483119745527 2.2567808636535447 0 0.090074647367810096 2.1450207581465253 0 0.19914189281668424 2.1866937731340497 0 0.11209483119745527 2.2567808636535447 0 0.19914189281668424 2.1866937731340497 0 0.26321229776282873 2.2880606742534946 0 0.40606428973503922 2.3017914415280862 0 0.26321229776282873 2.2880606742534946 0 0.3385467036519958 2.213849813649472 0 0.19914189281668424 2.1866937731340497 0 0.26321229776282873 2.2880606742534946 0 0.3385467036519958 2.213849813649472 0 0.19914189281668424 2.1866937731340497 0 0.3385467036519958 2.213849813649472 0 0.27224016681003294 2.1445319837388852 0 0.41288757214532079 2.1634860941860743 0 0.3385467036519958 2.213849813649472 0 0.27224016681003294 2.1445319837388852 0 0.27224016681003294 2.1445319837388852 0 0.34879770630043572 1.9635350761765069 0 0.21657153442841046 1.9501086390252582 0 0.41288757214532079 2.1634860941860743 0 0.27224016681003294 2.1445319837388852 0 0.34879770630043572 1.9635350761765069 0 0.27224016681003294 2.1445319837388852 0 0.21657153442841046 1.9501086390252582 0 0.13268182796912073 2.0979552466254168 0 0.19914189281668424 2.1866937731340497 0 0.27224016681003294 2.1445319837388852 0 0.13268182796912073 2.0979552466254168 0 0.21657153442841046 1.9501086390252582 0 0.13268182796912073 2.0979552466254168 0 0.10834957605055096 1.9344306058726148 0 0.13268182796912073 2.0979552466254168 0 0.10834957605055096 1.9344306058726148 0 0.00013044794648122343 2.0001728010079649 0 0.10834957605055096 1.9344306058726148 0 0.00013044794648122343 2.0001728010079649 0 0.00015787619118815045 1.8571592426611234 0 0.090074647367810096 2.1450207581465253 0 0.13268182796912073 2.0979552466254168 0 0.00013044794648122343 2.0001728010079649 0 0.00014877035638183496 1.7143084890423013 0 0.00015787619118815045 1.8571592426611234 0 0.13697628797584566 1.7939956134122823 0 0.00014877035638183496 1.7143084890423013 0 0.13697628797584566 1.7939956134122823 0 0.10009864003726018 1.6432790467135754 0 0.10834957605055096 1.9344306058726148 0 0.00015787619118815045 1.8571592426611234 0 0.13697628797584566 1.7939956134122823 0 0.21657153442841046 1.9501086390252582 0 0.10834957605055096 1.9344306058726148 0 0.13697628797584566 1.7939956134122823 0 0.13697628797584566 1.7939956134122823 0 0.28530040065004486 1.7948798660583665 0 0.22038458888857787 1.641484456766396 0 0.21657153442841046 1.9501086390252582 0 0.13697628797584566 1.7939956134122823 0 0.28530040065004486 1.7948798660583665 0 0.34879770630043572 1.9635350761765069 0 0.21657153442841046 1.9501086390252582 0 0.28530040065004486 1.7948798660583665 0 0.34879770630043572 1.9635350761765069 0 0.28530040065004486 1.7948798660583665 0 0.42647464402288721 1.8007932999224545 0 0.28530040065004486 1.7948798660583665 0 0.36056929517678593 1.638040026033974 0 0.42647464402288721 1.8007932999224545 0 0.28530040065004486 1.7948798660583665 0 0.36056929517678593 1.638040026033974 0 0.22038458888857787 1.641484456766396 0 0.42851158310453824 1.4921659865147601 0 0.28535304844337317 1.4939443920988489 0 0.36056929517678593 1.638040026033974 0 0.28535304844337317 1.4939443920988489 0 0.36056929517678593 1.638040026033974 0 0.22038458888857787 1.641484456766396 0 0.28535304844337317 1.4939443920988489 0 0.13477757303762655 1.4980923240967421 0 0.22038458888857787 1.641484456766396 0 0.13697628797584566 1.7939956134122823 0 0.22038458888857787 1.641484456766396 0 0.10009864003726018 1.6432790467135754 0 0.13477757303762655 1.4980923240967421 0 0.22038458888857787 1.641484456766396 0 0.10009864003726018 1.6432790467135754 0 0.13477757303762655 1.4980923240967421 0 0.00014975594366081792 1.5714321331917001 0 0.10009864003726018 1.6432790467135754 0 0.00014877035638183496 1.7143084890423013 0 0.00014975594366081792 1.5714321331917001 0 0.10009864003726018 1.6432790467135754 0 0.56747514333214311 1.7889813389987064 0 0.7175809083208291 1.7770142302677474 0 0.64775995264621911 1.6342980485898757 0 0.7175809083208291 1.7770142302677474 0 0.63197057263120304 1.9501618475240157 0 0.77614638865959007 1.9313181726829607 0 0.56747514333214311 1.7889813389987064 0 0.7175809083208291 1.7770142302677474 0 0.63197057263120304 1.9501618475240157 0 0.56747514333214311 1.7889813389987064 0 0.63197057263120304 1.9501618475240157 0 0.48954094664368986 1.9673767159967683 0 0.56747514333214311 1.7889813389987064 0 0.48954094664368986 1.9673767159967683 0 0.42647464402288721 1.8007932999224545 0 0.34879770630043572 1.9635350761765069 0 0.48954094664368986 1.9673767159967683 0 0.42647464402288721 1.8007932999224545 0 0.56747514333214311 1.7889813389987064 0 0.42647464402288721 1.8007932999224545 0 0.49965413583744417 1.6389365625811176 0 0.36056929517678593 1.638040026033974 0 0.42647464402288721 1.8007932999224545 0 0.49965413583744417 1.6389365625811176 0 0.42851158310453824 1.4921659865147601 0 0.36056929517678593 1.638040026033974 0 0.49965413583744417 1.6389365625811176 0 0.5736072089899793 1.4936912416106425 0 0.42851158310453824 1.4921659865147601 0 0.49965413583744417 1.6389365625811176 0 0.5736072089899793 1.4936912416106425 0 0.49965413583744417 1.6389365625811176 0 0.64775995264621911 1.6342980485898757 0 0.5736072089899793 1.4936912416106425 0 0.731180123042804 1.4943477367643041 0 0.64775995264621911 1.6342980485898757 0 0.56747514333214311 1.7889813389987064 0 0.49965413583744417 1.6389365625811176 0 0.64775995264621911 1.6342980485898757 0 0.7175809083208291 1.7770142302677474 0 0.64775995264621911 1.6342980485898757 0 0.81532095936952187 1.6278288500708202 0 0.731180123042804 1.4943477367643041 0 0.64775995264621911 1.6342980485898757 0 0.81532095936952187 1.6278288500708202 0 0.731180123042804 1.4943477367643041 0 0.93492988110037079 1.4974605897579345 0 0.81532095936952187 1.6278288500708202 0 0.93492988110037079 1.4974605897579345 0 0.9773383595024786 1.6374462634971039 0 0.81532095936952187 1.6278288500708202 0 0.93492988110037079 1.4974605897579345 0 0.9773383595024786 1.6374462634971039 0 1.1342850836147962 1.5715982631001455 0 0.9773383595024786 1.6374462634971039 0 0.81532095936952187 1.6278288500708202 0 0.90175028461886353 1.7793340939566189 0 0.7175809083208291 1.7770142302677474 0 0.81532095936952187 1.6278288500708202 0 0.90175028461886353 1.7793340939566189 0 0.9773383595024786 1.6374462634971039 0 0.90175028461886353 1.7793340939566189 0 1.1149867970254033 1.7133252829165817 0 0.90175028461886353 1.7793340939566189 0 1.0733803821202557 1.8564369938713146 0 0.90510756233797707 1.9284001553490937 0 0.90175028461886353 1.7793340939566189 0 0.77614638865959007 1.9313181726829607 0 0.90510756233797707 1.9284001553490937 0 0.7175809083208291 1.7770142302677474 0 0.90175028461886353 1.7793340939566189 0 0.77614638865959007 1.9313181726829607 0 1.0733803821202557 1.8564369938713146 0 1.1676253666467187 1.7684255031400569 0 1.1250403696813391 1.8746661873505108 0 1.0733803821202557 1.8564369938713146 0 1.1149867970254033 1.7133252829165817 0 1.1676253666467187 1.7684255031400569 0 0.90175028461886353 1.7793340939566189 0 1.0733803821202557 1.8564369938713146 0 1.1149867970254033 1.7133252829165817 0 1.1149867970254033 1.7133252829165817 0 1.1924609197304095 1.6379707496474878 0 1.1676253666467187 1.7684255031400569 0 1.1149867970254033 1.7133252829165817 0 1.1342850836147962 1.5715982631001455 0 1.1924609197304095 1.6379707496474878 0 0.9773383595024786 1.6374462634971039 0 1.1149867970254033 1.7133252829165817 0 1.1342850836147962 1.5715982631001455 0 1.1980173999006756 1.4999873746627157 0 1.1342850836147962 1.5715982631001455 0 1.1924609197304095 1.6379707496474878 0 1.1980173999006756 1.4999873746627157 0 1.2871509282320317 1.5672073714017485 0 1.1924609197304095 1.6379707496474878 0 1.2871509282320317 1.5672073714017485 0 1.3914230706853066 1.6298368691266236 0 1.2788399999752451 1.6972955566130479 0 1.2871509282320317 1.5672073714017485 0 1.1924609197304095 1.6379707496474878 0 1.2788399999752451 1.6972955566130479 0 1.3932288976754261 1.4999874510472959 0 1.5046792299256384 1.4350147009894065 0 1.5046678841078873 1.5650058177108301 0 1.3932288976754261 1.4999874510472959 0 1.5046678841078873 1.5650058177108301 0 1.3914230706853066 1.6298368691266236 0 1.3932288976754261 1.4999874510472959 0 1.2871509282320317 1.5672073714017485 0 1.3914230706853066 1.6298368691266236 0 1.5046678841078873 1.5650058177108301 0 1.5046893410715478 1.6903654716962957 0 1.3914230706853066 1.6298368691266236 0 1.5046893410715478 1.6903654716962957 0 1.3914230706853066 1.6298368691266236 0 1.3870538289344967 1.7467859329952291 0 1.3914230706853066 1.6298368691266236 0 1.3870538289344967 1.7467859329952291 0 1.2788399999752451 1.6972955566130479 0 1.3870538289344967 1.7467859329952291 0 1.2481584738957645 1.8244929579811906 0 1.3698886661995027 1.8268585383976987 0 1.5023890574925649 1.8018805998085796 0 1.3870538289344967 1.7467859329952291 0 1.3698886661995027 1.8268585383976987 0 1.5046893410715478 1.6903654716962957 0 1.5023890574925649 1.8018805998085796 0 1.3870538289344967 1.7467859329952291 0 1.1924609197304095 1.6379707496474878 0 1.1676253666467187 1.7684255031400569 0 1.2788399999752451 1.6972955566130479 0 1.3870538289344967 1.7467859329952291 0 1.2788399999752451 1.6972955566130479 0 1.2481584738957645 1.8244929579811906 0 1.1676253666467187 1.7684255031400569 0 1.2788399999752451 1.6972955566130479 0 1.2481584738957645 1.8244929579811906 0 1.1676253666467187 1.7684255031400569 0 1.2481584738957645 1.8244929579811906 0 1.1250403696813391 1.8746661873505108 0 1.2481584738957645 1.8244929579811906 0 1.1433910606345068 1.9267249356468543 0 1.1250403696813391 1.8746661873505108 0 1.2481584738957645 1.8244929579811906 0 1.2860022890433822 1.8851161259907026 0 1.3698886661995027 1.8268585383976987 0 1.2481584738957645 1.8244929579811906 0 1.2860022890433822 1.8851161259907026 0 1.1433910606345068 1.9267249356468543 0 1.2860022890433822 1.8851161259907026 0 1.1433910606345068 1.9267249356468543 0 1.2204994758082837 2.0981216002014258 0 1.5023890574925649 1.8018805998085796 0 1.3698886661995027 1.8268585383976987 0 1.4287882089778765 1.8654277463498465 0 1.2860022890433822 1.8851161259907026 0 1.3698886661995027 1.8268585383976987 0 1.4287882089778765 1.8654277463498465 0 1.2860022890433822 1.8851161259907026 0 1.4287882089778765 1.8654277463498465 0 1.3626544234203217 2.0220812023836539 0 1.5031541395953079 2.0632254854159049 0 1.3626544234203217 2.0220812023836539 0 1.3721224287383698 2.184490006847668 0 1.5031541395953079 2.0632254854159049 0 1.4287882089778765 1.8654277463498465 0 1.3626544234203217 2.0220812023836539 0 1.3626544234203217 2.0220812023836539 0 1.3721224287383698 2.184490006847668 0 1.2204994758082837 2.0981216002014258 0 1.5031541395953079 2.0632254854159049 0 1.5056408409505266 2.2686520972587552 0 1.3721224287383698 2.184490006847668 0 1.1433910606345068 1.9267249356468543 0 1.2204994758082837 2.0981216002014258 0 1.071500451354737 2.0948242108495365 0 1.2204994758082837 2.0981216002014258 0 1.0687409523631828 2.2235748891339755 0 1.071500451354737 2.0948242108495365 0 1.2860022890433822 1.8851161259907026 0 1.3626544234203217 2.0220812023836539 0 1.2204994758082837 2.0981216002014258 0 1.2231930281885455 2.282182283944155 0 1.3721224287383698 2.184490006847668 0 1.2204994758082837 2.0981216002014258 0 1.2231930281885455 2.282182283944155 0 1.2204994758082837 2.0981216002014258 0 1.0687409523631828 2.2235748891339755 0 0.85959632252585316 2.3068952518666173 0 1.0687409523631828 2.2235748891339755 0 0.9021936466896282 2.1668286273378095 0 1.071500451354737 2.0948242108495365 0 0.9021936466896282 2.1668286273378095 0 0.9879290853151238 2.0120581150269792 0 1.0687409523631828 2.2235748891339755 0 1.071500451354737 2.0948242108495365 0 0.9021936466896282 2.1668286273378095 0 0.9021936466896282 2.1668286273378095 0 0.85059023486961971 2.149089994820252 0 0.9879290853151238 2.0120581150269792 0 0.85959632252585316 2.3068952518666173 0 0.9021936466896282 2.1668286273378095 0 0.80083009416603368 2.2663132880938957 0 0.9021936466896282 2.1668286273378095 0 0.80083009416603368 2.2663132880938957 0 0.85059023486961971 2.149089994820252 0 0.67445581793327014 2.295177846395442 0 0.80083009416603368 2.2663132880938957 0 0.74592553742614898 2.1888539968872105 0 0.80083009416603368 2.2663132880938957 0 0.74592553742614898 2.1888539968872105 0 0.85059023486961971 2.149089994820252 0 0.74592553742614898 2.1888539968872105 0 0.85059023486961971 2.149089994820252 0 0.83305804371731196 2.0977903440841312 0 0.85059023486961971 2.149089994820252 0 0.83305804371731196 2.0977903440841312 0 0.9879290853151238 2.0120581150269792 0 0.6924203029545567 2.140551225633486 0 0.74592553742614898 2.1888539968872105 0 0.83305804371731196 2.0977903440841312 0 0.6924203029545567 2.140551225633486 0 0.77614638865959007 1.9313181726829607 0 0.83305804371731196 2.0977903440841312 0 0.77614638865959007 1.9313181726829607 0 0.83305804371731196 2.0977903440841312 0 0.90510756233797707 1.9284001553490937 0 0.83305804371731196 2.0977903440841312 0 0.90510756233797707 1.9284001553490937 0 0.9879290853151238 2.0120581150269792 0 1.0733803821202557 1.8564369938713146 0 0.90510756233797707 1.9284001553490937 0 0.9879290853151238 2.0120581150269792 0 1.1433910606345068 1.9267249356468543 0 1.1250403696813391 1.8746661873505108 0 0.9879290853151238 2.0120581150269792 0 1.0733803821202557 1.8564369938713146 0 1.1250403696813391 1.8746661873505108 0 0.9879290853151238 2.0120581150269792 0 1.1433910606345068 1.9267249356468543 0 1.071500451354737 2.0948242108495365 0 0.9879290853151238 2.0120581150269792 0 
</DataArray>
</PointData>
<CellData Scalars="region_id,displacement_divergence," Vectors="" Tensors="stress,">
<DataArray type="Float64" Name="region_id" format="ascii">
5 5 5 5 5 5 5 5 5 5 5 5 5 5 5 5 5 5 5 5 5 5 5 5 5 5 5 5 5 5 5 5 5 5 5 5 5 5 5 5 5 5 5 5 5 5 5 5 5 5 5 5 5 5 5 5 5 5 5 5 5 5 5 5 5 5 5 5 5 5 5 6 6 6 6 6 6 5 5 5 5 5 5 5 5 5 5 5 5 5 5 5 5 6 6 6 5 6 6 6 6 6 6 6 6 6 6 6 6 6 6 6 6 6 6 6 6 6 6 6 6 6 6 6 6 6 6 6 6 6 6 6 5 5 5 5 5 5 5 5 5 5 5 5 5 5 5 5 5 5 5 6 6 5 6 6 6 6 6 6 6 6 6 5 6 5 5 5 5 6 6 6 6 6 5 5 5 5 5 5 6 6 5 5 6 6 6 6 6 6 6 5 5 5 5 5 6 6 6 6 6 6 6 6 6 6 6 6 6 6 6 6 6 6 6 6 6 5 5 5 5 5 5 6 6 6 6 6 5 5 5 5 5 5 5 5 5 5 6 6 6 6 6 6 5 5 5 5 5 5 6 6 6 6 6 6 6 6 6 6 6 6 6 6 6 6 6 6 6 6 6 6 6 6 6 6 6 6 6 6 6 6 6 6 6 6 6 5 6 5 5 5 5 5 5 5 5 5 6 5 5 6 6 6 5 6 5 5 5 5 5 5 5 5 6 6 5 6 6 6 6 6 6 6 6 6 6 6 6 6 6 6 6 5 5 5 5 5 5 5 5 5 5 5 5 5 5 5 5 5 5 5 5 5 5 5 5 5 5 5 5 5 5 5 5 5 5 5 5 5 5 5 5 5 5 5 5 5 5 5 5 5 5 5 5 5 5 5 5 5 5 5 5 5 5 5 5 5 6 6 6 5 5 5 5 5 5 5 5 5 5 5 5 6 6 6 6 6 5 5 5 5 5 5 5 5 5 5 5 6 6 6 6 6 6 6 6 6 6 6 6 6 6 6 6 6 6 6 6 6 6 6 6 6 6 6 6 6 6 6 6 6 6 6 6 6 5 5 5 5 5 5 6 6 6 6 6 6 6 6 6 6 6 5 5 6 6 5 5 5 5 5 5 6 6 6 6 6 5 5 5 5 6 5 6 6 6 6 6 6 6 6 6 5 6 6 5 5 5 5 5 5 5 5 5 5 5 5 5 5 5 5 5 5 5 5 5 5 5 5 5 5 5 5 5 5 5 5 5 5 5 5 6 5 6 6 6 6 6 6 6 6 6 5 6 5 5 5 5 6 6 6 6 6 5 5 5 5 5 5 6 6 5 5 6 6 6 6 6 6 6 6 6 6 6 6 5 5 5 5 5 5 6 6 6 6 6 6 6 6 6 6 6 6 6 6 6 6 6 6 6 6 6 6 6 6 6 6 6 6 6 6 6 6 6 6 6 6 5 5 5 5 5 5 5 5 5 5 6 6 6 6 6 5 5 5 5 5 5 5 5 5 5 5 5 6 6 6 5 5 5 5 5 5 5 5 5 5 5 5 5 5 5 5 5 5 5 5 5 5 5 5 5 5 5 5 5 5 5 5 5 5 5 5 5 5 5 5 5 5 5 5 5 5 5 5 5 5 5 5 5 5 5 5 5 5 5 5 5 5 5 5 5 6 6 6 6 6 6 6 6 6 6 6 6 6 6 6 6 5 6 6 5 5 5 5 5 5 5 5 5 6 5 6 6 6 5 5 6 5 5 5 5 5 5 5 5 5 6 5 6 6 6 6 6 6 6 6 6 6 6 6 6 6 6 6 6 6 6 6 6 6 6 6 6 6 6 6 6 6 6 6 6 6 6 6 6 6 6 6 6 6 6 6 6 6 6 6 6 6 6 6 5 5 5 5 5 6 6 6 5 5 6 6 5 5 5 5 5 5 5 5 6 6 5 5 6 6 5 6 6 5 5 5 5 5 5 5 5 5 5 5 5 5 5 5 5 5 5 5 5 5 5 5 5 5 5 5 5 5 5 5 5 5 5 5 5 5 5 5 5 5 5 5 5 5 5 5 5 5 5 5 5 5 5 5 5 5 5 5 5 5 5 5 5 5 5 5 5 5 5 5 5 5 5 5 5 5 5 5 6 6 6 6 6 5 5 5 5 5 5 5 5 5 5 5 6 6 6 5 6 6 6 5 6 6 6 6 6 6 6 6 6 6 6 6 6 6 6 6 6 6 6 6 6 6 6 6 6 6 6 6 6 6 6 6 6 6 6 6 6 6 6 6 6 5 5 6 5 5 6 5 5 5 5 5 5 5 5 5 5 5 5 5 5 5 5 5 5 5 5 6 5 5 6 6 6 6 6 6 6 6 6 6 6 6 6 5 5 5 5 5 5 5 5 6 6 6 6 5 5 6 
</DataArray>
<DataArray type="Float64" Name="stress" NumberOfComponents="9" format="ascii">
0.061552941808253679 98.941035080086465 0 98.941035080086465 -1.9432799545979549 0 0 0 0 -1.9234380743088053 98.931018293101985 0 98.931018293101985 0.061744635487955973 0 0 0 0 -1.6002472834814654 97.931635740819075 0 97.931635740819075 -2.4653633659144987 0 0 0 0 -1.7195923241241502 98.408511025091784 0 98.408511025091784 -1.8573298478038254 0 0 0 0 -2.4590321016074554 97.898573998669178 0 97.898573998669178 -1.6265795062600859 0 0 0 0 -3.4728799869878628 98.119232895677598 0 98.119232895677598 -0.018262393183069246 0 0 0 0 -5.0452761558238706 97.133450776483514 0 97.133450776483514 0.0043107949552082803 0 0 0 0 -4.0257029184610076 97.157147137982946 0 97.157147137982946 -1.5394319693741778 0 0 0 0 -4.388006743395465 97.184759449692436 0 97.184759449692436 -1.5004984230022842 0 0 0 0 -2.7841469888403321 97.480104673772317 0 97.480104673772317 -2.6584274837073849 0 0 0 0 -2.8066816786882214 97.578125174078806 0 97.578125174078806 -2.5232457328979763 0 0 0 0 -3.5270031880996839 97.085435536826921 0 97.085435536826921 -2.8455946819508 0 0 0 0 -2.5674894177276144 97.040060504375845 0 97.040060504375845 -3.0968730901417416 0 0 0 0 -2.5595552043785403 96.817696734932696 0 96.817696734932696 -4.1127721760139195 0 0 0 0 -1.5995694445478961 97.793381270806663 0 97.793381270806663 -3.2892444435824899 0 0 0 0 -1.5228014138669153 97.080952305326306 0 97.080952305326306 -4.1628029692013513 0 0 0 0 0.0032916348171580234 97.297790514803125 0 97.297790514803125 -4.8649467220800489 0 0 0 0 -0.017615884458165663 98.17608286802654 0 98.17608286802654 -3.3930905011968662 0 0 0 0 -10.119895164843367 92.509623185656181 0 92.509623185656181 -3.2515749676912833 0 0 0 0 -17.458433296081921 90.626572838697271 0 90.626572838697271 -1.5665671633195188 0 0 0 0 -9.2540603693744572 93.696819020161101 0 93.696819020161101 -2.2875377411692739 0 0 0 0 -11.908202492496514 94.660401154041068 0 94.660401154041068 0.00030906257839009854 0 0 0 0 -9.8691821708116549 95.115410648579726 0 95.115410648579726 -1.5338961232211616 0 0 0 0 -7.263375003407873 96.134305817139591 0 96.134305817139591 -0.0042744584317358086 0 0 0 0 -6.2544757354351646 95.716397866754377 0 95.716397866754377 -1.5712603912791494 0 0 0 0 -4.3273506852551975 96.774055263679571 0 96.774055263679571 -2.1805344548562857 0 0 0 0 -5.6407055926729868 96.399228395727803 0 96.399228395727803 -2.0956724958501525 0 0 0 0 -3.6371328156704408 96.193130324403768 0 96.193130324403768 -2.6336256656983039 0 0 0 0 -3.4396756849982744 96.273647458491681 0 96.273647458491681 -2.6058977523214253 0 0 0 0 -3.6369808045621994 93.745086404133133 0 93.745086404133133 -1.4766755196613701 0 0 0 0 -5.5682255464825445 94.661081724669629 0 94.661081724669629 -2.7567453259223385 0 0 0 0 -6.9763788021604114 95.031867090823766 0 95.031867090823766 -1.8603803596083992 0 0 0 0 -7.5779385660172807 91.291109497494475 0 91.291109497494475 -0.37616204077801285 0 0 0 0 -7.1805065891794584 90.742122752117069 0 90.742122752117069 -1.149539377565759 0 0 0 0 -14.442523048360442 92.895593360183966 0 92.895593360183966 -1.1015495558183162 0 0 0 0 -0.010181164313848967 89.701895384644814 0 89.701895384644814 0.66087024807069383 0 0 0 0 -2.9618344882759851 88.953516484374575 0 88.953516484374575 0.7773826076044088 0 0 0 0 -2.8990250750375446 93.979687190665061 0 93.979687190665061 -1.4519041189246877 0 0 0 0 -1.407720465076352 92.031476021676184 0 92.031476021676184 0.30094807221564679 0 0 0 0 -2.5380682411017119 95.313434643961557 0 95.313434643961557 -1.9885861475987667 0 0 0 0 -1.4077329102002523 94.706512138833872 0 94.706512138833872 -3.0470370406712561 0 0 0 0 0.76585968025119655 91.234505234563613 0 91.234505234563613 -4.0951263295749243 0 0 0 0 -1.3999989773722379 93.103807503791487 0 93.103807503791487 -1.2230776725269834 0 0 0 0 0.17297277495370622 88.320958126008748 0 88.320958126008748 -0.4195853491012258 0 0 0 0 0.78177074854286532 88.853334752250888 0 88.853334752250888 2.9199918583789781 0 0 0 0 1.2937345183137836 91.891987793881398 0 91.891987793881398 -0.75952112902291447 0 0 0 0 4.1577714745912999 87.809347831553055 0 87.809347831553055 0.44730862787150727 0 0 0 0 4.482536055814375 83.676034388340057 0 83.676034388340057 8.871003938670583 0 0 0 0 1.292697786236956 86.983778997230743 0 86.983778997230743 3.3650731921051715 0 0 0 0 6.5601318625572276 88.22240932703474 0 88.22240932703474 3.0403136545264715 0 0 0 0 -0.0027496393333475005 96.254193997170802 0 96.254193997170802 -7.159309386531163 0 0 0 0 -1.8047235839704745 95.769268970489591 0 95.769268970489591 -6.0468797740616651 0 0 0 0 -1.8317488039199992 96.951218268904029 0 96.951218268904029 -4.5373969336862388 0 0 0 0 -2.5415722233980169 96.227007450677533 0 96.227007450677533 -3.9866456989025778 0 0 0 0 -2.3995101877187324 95.808607870827586 0 95.808607870827586 -3.5752472522712253 0 0 0 0 -2.3403450173013027 95.312651737888643 0 95.312651737888643 -6.2672320193678672 0 0 0 0 -1.7542216137707947 92.508746522205712 0 92.508746522205712 -10.468035101696842 0 0 0 0 -1.7598091370779514 93.298629030788334 0 93.298629030788334 -5.1498820895983499 0 0 0 0 -1.4160132748363059 93.962007856812122 0 93.962007856812122 -6.0148480096254957 0 0 0 0 0.17039127826379286 89.006214161898498 0 89.006214161898498 -10.587881894183852 0 0 0 0 -2.2966741343041548 93.686231162669998 0 93.686231162669998 -11.628198836455567 0 0 0 0 -2.3054766408515235 95.682851439308379 0 95.682851439308379 -6.6905804984423867 0 0 0 0 -0.0020816986637112733 95.035589015409698 0 95.035589015409698 -11.769070012562679 0 0 0 0 -2.1744123479190454 93.564667811434461 0 93.564667811434461 -9.5282484118986872 0 0 0 0 -2.5524726108308755 89.832578449737753 0 89.832578449737753 -16.743943049459574 0 0 0 0 -0.0040501069172645537 93.671284543726188 0 93.671284543726188 -21.474380651035574 0 0 0 0 0.36150293343117568 90.432511228538885 0 90.432511228538885 -24.947550403978994 0 0 0 0 4.9746008923802734 77.192058831383989 0 77.192058831383989 -30.606795014383351 0 0 0 0 0.0025880337619238192 92.829810733526017 0 92.829810733526017 -38.675307653719472 0 0 0 0 -1.6051461294319866 84.372427824569513 0 84.372427824569513 -32.268678129977729 0 0 0 0 6.9449125383012387 81.422941024181171 0 81.422941024181171 -68.431371577009713 0 0 0 0 6.0604265769590171 60.185403889588784 0 60.185403889588784 -15.311576528203716 0 0 0 0 5.6169412337698361 56.119899532012596 0 56.119899532012596 -34.2156857885048 0 0 0 0 0.0098184992050810091 51.008249813562315 0 51.008249813562315 -18.385263617024236 0 0 0 0 3.652546936535785 62.970262284159901 0 62.970262284159901 -6.8280082466886824 0 0 0 0 4.6285023690887783 62.717762548668418 0 62.717762548668418 -8.7440207139725583 0 0 0 0 5.2462342652743459 61.077420430698567 0 61.077420430698567 -16.10668230708302 0 0 0 0 4.6841916347434847 76.413970793193869 0 76.413970793193869 -32.213364614166032 0 0 0 0 3.4106999371771565 73.687774850685855 0 73.687774850685855 -13.656016493377251 0 0 0 0 3.9989274982055889 73.975491165228391 0 73.975491165228391 -13.784390659150006 0 0 0 0 2.583375581333371 81.407913737211857 0 81.407913737211857 -17.921464700627325 0 0 0 0 0.029408785744550414 86.906654836602144 0 86.906654836602144 -19.202279256408815 0 0 0 0 0.17004922037450854 88.07404847318216 0 88.07404847318216 -9.513880612624348 0 0 0 0 2.3406231765480356 84.171698850992357 0 84.171698850992357 -5.6824682053984361 0 0 0 0 2.2741991127346566 82.672667693039642 0 82.672667693039642 6.5384743745337346 0 0 0 0 3.5388098838585051 71.448190891096601 0 71.448190891096601 -7.0481602748558316 0 0 0 0 2.3954919504016701 81.576334575252972 0 81.576334575252972 -2.0122172413902035 0 0 0 0 10.574277351799765 85.348350499476084 0 85.348350499476084 8.7453454729420628 0 0 0 0 3.1899326320946102 70.925707988032514 0 70.925707988032514 8.665353320751791 0 0 0 0 4.4612440652754799 81.069292312188566 0 81.069292312188566 3.5578094818133081 0 0 0 0 7.401364287994511 72.027859991271839 0 72.027859991271839 14.437430567678973 0 0 0 0 4.5756581574274513 79.231580188206948 0 79.231580188206948 18.434162891924757 0 0 0 0 4.1631218411938562 73.85636299873579 0 73.85636299873579 14.937374343366969 0 0 0 0 3.45536319476156 64.597175491060696 0 64.597175491060696 3.8433684491855615 0 0 0 0 3.7712256717846628 63.281218025184302 0 63.281218025184302 7.4686871716834613 0 0 0 0 5.6526252721433536 65.496338832162337 0 65.496338832162337 9.5521962396264257 0 0 0 0 2.8673773761263135 73.240578338350588 0 73.240578338350588 1.1822624559013093 0 0 0 0 2.9249902307231537 63.203705368035656 0 63.203705368035656 0.5911312279507227 0 0 0 0 3.086606114766326 63.875865469331231 0 63.875865469331231 -2.15850240899357 0 0 0 0 2.2345572512459455 57.935088509172914 0 57.935088509172914 -1.9350058402379862 0 0 0 0 2.7174799962805878 59.116318518014552 0 59.116318518014552 0.63656556682832388 0 0 0 0 1.2585193381416104 55.162899842267564 0 55.162899842267564 0.87085785035916174 0 0 0 0 4.4173982744574118 58.358088052324547 0 58.358088052324547 9.2882397628036415 0 0 0 0 2.4924437968270183 58.405444803584118 0 58.405444803584118 3.8411298202331179 0 0 0 0 4.2036227581732248 60.00905879553909 0 60.00905879553909 4.1920001360666674 0 0 0 0 2.0055233977954003 56.097373021054665 0 56.097373021054665 4.1629345832990641 0 0 0 0 5.2490356735377475 58.458309554152265 0 58.458309554152265 2.4606019454876105 0 0 0 0 2.63021325254293 56.400484331988537 0 56.400484331988537 1.2164311058254498 0 0 0 0 2.0355377124342908 55.820113053109026 0 55.820113053109026 0.070631227560738807 0 0 0 0 0.10002874481935464 54.489867726782762 0 54.489867726782762 1.2605189917782127 0 0 0 0 0.10296578965045455 56.809802132278406 0 56.809802132278406 2.421701398534708 0 0 0 0 1.6420531097836317 55.216995151099525 0 55.216995151099525 -0.57055508885594008 0 0 0 0 1.0447184170361226 54.044352271500287 0 54.044352271500287 0.021054427799981568 0 0 0 0 0.26986604156469696 53.229190606579891 0 53.229190606579891 -0.48106230960132734 0 0 0 0 0.4193641380265305 52.979013563904886 0 52.979013563904886 -0.063815450599179258 0 0 0 0 0.99119495676148972 54.144014881654044 0 54.144014881654044 -2.3080266972889305 0 0 0 0 -0.23624008979547639 52.410219570897624 0 52.410219570897624 -0.06406531773535562 0 0 0 0 0.43058904578082036 52.348603933774655 0 52.348603933774655 -2.2308299581765176 0 0 0 0 -0.26254221941598388 53.05335093943637 0 53.05335093943637 -1.5545625667086256 0 0 0 0 -8.858546775727949e-05 51.598538796548183 0 51.598538796548183 -0.033509461234643823 0 0 0 0 0.00055054041967095291 51.7790506232962 0 51.7790506232962 -3.7860284846192371 0 0 0 0 -0.45707261285356537 53.028797424308067 0 53.028797424308067 -3.3161735283658551 0 0 0 0 0.42842299452661337 52.00188975496917 0 52.00188975496917 -3.2215164358015045 0 0 0 0 -0.003355523459342459 51.577019951679972 0 51.577019951679972 -8.806710110820859 0 0 0 0 0.31820478455732243 53.675179622397309 0 53.675179622397309 -7.0581846226574498 0 0 0 0 1.1393237143602608 55.758873454097191 0 55.758873454097191 -15.058890749641762 0 0 0 0 1.9586864231968804 53.457765516752289 0 53.457765516752289 -13.834562530748585 0 0 0 0 2.2328908240260574 56.28012589433277 0 56.28012589433277 -7.0568250466343443 0 0 0 0 2.5555654552714486 58.030093788971456 0 58.030093788971456 -3.2362387926785345 0 0 0 0 2.5016245302801821 56.387372371462391 0 56.387372371462391 -8.3935080928271724 0 0 0 0 1.2402395109339679 54.134629537499762 0 54.134629537499762 -3.0636087989482803 0 0 0 0 1.0011200962972922 52.838781954161348 0 52.838781954161348 -6.6386922670295689 0 0 0 0 15.28087905912389 85.866298314911148 0 85.866298314911148 6.306885243541501 0 0 0 0 10.387389260016604 80.265343991964258 0 80.265343991964258 13.415164752761825 0 0 0 0 21.481422348448973 88.532958159977397 0 88.532958159977397 19.573305188378868 0 0 0 0 9.1349649474517491 86.310295870447277 0 86.310295870447277 7.6057503441949166 0 0 0 0 3.1721724782205456 79.701750274421784 0 79.701750274421784 17.0617298130785 0 0 0 0 -0.061102620151018527 83.425484603270661 0 83.425484603270661 5.6168863611976576 0 0 0 0 2.6558773721231148 82.431729437094305 0 82.431729437094305 2.7259351676032111 0 0 0 0 3.0877797122135178 87.574497382373806 0 87.574497382373806 -0.22360837269684453 0 0 0 0 3.052135559911676 84.907261016883012 0 84.907261016883012 7.8662599315947546 0 0 0 0 -0.098784949612991113 89.065192359115258 0 89.065192359115258 2.4559768810643163 0 0 0 0 1.237181510616689 90.829336334275624 0 90.829336334275624 -0.062430441657852498 0 0 0 0 1.2816568257563565 87.393368183287407 0 87.393368183287407 2.114024668690945 0 0 0 0 0.021774833534891513 89.575895231878917 0 89.575895231878917 0.0061901828663621927 0 0 0 0 5.7494549148078704 88.99794197107235 0 88.99794197107235 2.4932199588573667 0 0 0 0 6.1131625431288761 81.66054242616471 0 81.66054242616471 4.5388144559919965 0 0 0 0 0.09856982667918146 81.771837556214962 0 81.771837556214962 -0.0059883247166681031 0 0 0 0 5.5549421875409735 84.588680632776459 0 84.588680632776459 1.4325302263565618 0 0 0 0 0.0021635731845890405 75.18244355720276 0 75.18244355720276 -0.010850750885424532 0 0 0 0 5.0986290755617283 72.14031012890176 0 72.14031012890176 1.7987518119259676 0 0 0 0 0.0010817865922376768 63.979601410897487 0 63.979601410897487 0.032868791848216006 0 0 0 0 6.7224009879689675 63.910245415061553 0 63.910245415061553 2.8111770729281602 0 0 0 0 13.444801975937821 75.542262687703499 0 75.542262687703499 3.0035192517672726 0 0 0 0 3.5573389177835679 59.280509043395966 0 59.280509043395966 0.069961081503858935 0 0 0 0 1.2928023599436358 60.103924754410173 0 60.103924754410173 2.4873449265638783 0 0 0 0 4.1669964318390953 66.048467481235321 0 66.048467481235321 1.0529354417129184 0 0 0 0 9.7729648028850988 61.318315861264949 0 61.318315861264949 2.6298221633051071 0 0 0 0 4.401542277075805 58.086812257368436 0 58.086812257368436 6.2855003987104396 0 0 0 0 6.9505174887282521 65.815024646549489 0 65.815024646549489 5.6053201806092829 0 0 0 0 14.352605578090163 67.04979474495633 0 67.04979474495633 12.833108126224374 0 0 0 0 10.617440828917893 58.255186175859535 0 58.255186175859535 12.404281044602783 0 0 0 0 8.61920313497086 61.684137205872673 0 61.684137205872673 6.9147855569835386 0 0 0 0 16.789322499950117 72.285228294496449 0 72.285228294496449 5.5620780252093596 0 0 0 0 14.556693493156274 62.722016464658793 0 62.722016464658793 6.8630407739746033 0 0 0 0 26.041587115093762 74.163013229810986 0 74.163013229810986 15.34785683822372 0 0 0 0 29.113386986312548 78.617647124439316 0 78.617647124439316 8.7873173188803548 0 0 0 0 22.290672798175592 90.231562843978111 0 90.231562843978111 59.791992838667852 0 0 0 0 59.869900383383538 90.097615226866196 0 90.097615226866196 22.480660487684077 0 0 0 0 29.934950191691769 61.978043544018533 0 61.978043544018533 14.458249360964601 0 0 0 0 14.482252948999303 61.954183947613373 0 61.954183947613373 29.895996419333983 0 0 0 0 7.4692660076723314 62.373339416105296 0 62.373339416105296 14.899084873892718 0 0 0 0 14.648039417656605 62.11139192695623 0 62.11139192695623 30.011856900845657 0 0 0 0 13.236891451370354 66.835933312124666 0 66.835933312124666 14.729434501711282 0 0 0 0 22.730315807516604 89.84773428820796 0 89.84773428820796 60.023713801691315 0 0 0 0 9.1267430011419037 77.403423939138349 0 77.403423939138349 29.798169747785401 0 0 0 0 15.416468654812661 73.702439264446014 0 73.702439264446014 26.395479530845478 0 0 0 0 26.200303672628408 73.71555761354152 0 73.71555761354152 15.707737335159209 0 0 0 0 23.01939582654461 87.554855654819448 0 87.554855654819448 20.489878324972324 0 0 0 0 11.813224033821371 79.067592775057932 0 79.067592775057932 14.093197192300067 0 0 0 0 14.752482369203904 66.842696078792898 0 66.842696078792898 13.182708141785156 0 0 0 0 30.034328880457053 62.089630803353089 0 62.089630803353089 14.61481419932602 0 0 0 0 60.068657760914107 89.73996199308101 0 89.73996199308101 22.900916438547711 0 0 0 0 29.970204909176914 77.363954501774202 0 77.363954501774202 9.4425437275203308 0 0 0 0 14.985102454588571 62.478980530511251 0 62.478980530511251 7.5156752427851927 0 0 0 0 6.866671701571704 61.684677139397593 0 61.684677139397593 8.6881742859573876 0 0 0 0 6.240852724576996 58.104527665494174 0 58.104527665494174 4.4366717374390134 0 0 0 0 5.3999431584465754 65.863737814254222 0 65.863737814254222 7.0307501264910002 0 0 0 0 12.427572582591907 58.267062330415342 0 58.267062330415342 10.624425359176371 0 0 0 0 12.857053969408469 67.020805197860994 0 67.020805197860994 14.342113391014848 0 0 0 0 6.7878747691792114 62.625114545485204 0 62.625114545485204 14.561182456724964 0 0 0 0 6.3181166128212567 72.96995963525913 0 72.96995963525913 13.020114986092267 0 0 0 0 7.9743578741961301 78.224370927079235 0 78.224370927079235 29.122364913449928 0 0 0 0 15.226391346382115 74.320709881673508 0 74.320709881673508 25.581990063238919 0 0 0 0 1.2753191592413486 71.403257395500759 0 71.403257395500759 7.3480362986899763 0 0 0 0 3.0932226948664265 74.940182365512328 0 74.940182365512328 13.590160508774829 0 0 0 0 2.791650518536585 64.076917012714233 0 64.076917012714233 6.7950802543873365 0 0 0 0 0.033040631652170305 63.874159029254741 0 63.874159029254741 0.031034141029351758 0 0 0 0 2.4803893679338671 60.137312609232055 0 60.137312609232055 1.2784386483116918 0 0 0 0 1.240057656120598 66.1046102322195 0 66.1046102322195 4.1526057778726226 0 0 0 0 2.6253888674953032 61.370162708021724 0 61.370162708021724 9.8348897955638961 0 0 0 0 0.071493191592310268 59.293365364178143 0 59.293365364178143 3.5671335996271694 0 0 0 0 2.4124578952231559 56.823204705347379 0 56.823204705347379 0.11666437093120408 0 0 0 0 0.068846685498979321 55.828260017140423 0 55.828260017140423 2.0528210755282998 0 0 0 0 1.2540634840049734 54.493540265329614 0 54.493540265329614 0.11369997095792428 0 0 0 0 1.2099885282585205 56.403549720633293 0 56.403549720633293 2.6513164337975326 0 0 0 0 2.4513247621517849 58.470408519553864 0 58.470408519553864 5.27884822624344 0 0 0 0 9.2373809269021763 58.33108340991042 0 58.33108340991042 4.4578892480142827 0 0 0 0 4.1793330473594095 59.99391395277933 0 59.99391395277933 4.2178505489369229 0 0 0 0 3.8720261006963028 58.401425056345147 0 58.401425056345147 2.5052291461458935 0 0 0 0 4.1504110950986046 56.101548105060118 0 56.101548105060118 2.0273593523430549 0 0 0 0 0.86678971107813041 55.162849640528229 0 55.162849640528229 1.2749804299310199 0 0 0 0 0.63225552948681596 59.120394788935648 0 59.120394788935648 2.7324129335988232 0 0 0 0 -1.9471717400747934 57.942821053714219 0 57.942821053714219 2.2569021393861277 0 0 0 0 -0.57664045374565376 55.216005071274253 0 55.216005071274253 1.6601776854127195 0 0 0 0 -0.4870179069557139 53.225393779850968 0 53.225393779850968 0.27922897116995671 0 0 0 0 0.018615562687115172 54.046078303961536 0 54.046078303961536 1.0592927140199606 0 0 0 0 6.9899398551962904 80.448276475432735 0 80.448276475432735 5.8607341486170412 0 0 0 0 6.3249919793415756 83.285887994271036 0 83.285887994271036 2.8066496923145792 0 0 0 0 16.48067621685675 84.419721666745659 0 84.419721666745659 7.189530837291187 0 0 0 0 17.668771882810454 71.35418131473395 0 71.35418131473395 6.593051110465467 0 0 0 0 6.3249919793246363 71.31907725629739 0 71.31907725629739 3.6469142988102874 0 0 0 0 14.7171159786526 74.249677541695263 0 74.249677541695263 4.2335053596934813 0 0 0 0 9.502411565059333 65.499801874383152 0 65.499801874383152 5.8513765354304326 0 0 0 0 7.3585579893262665 63.126579821912507 0 63.126579821912507 3.8053121252576716 0 0 0 0 3.8742536685724644 64.562548059511187 0 64.562548059511187 3.3051110895289781 0 0 0 0 0.63985302709079406 63.304953598221317 0 63.304953598221317 2.9242569405942191 0 0 0 0 -2.1700924897030518 63.867074933758822 0 63.867074933758822 3.2363473794090822 0 0 0 0 1.2797060541815639 73.488328783991463 0 73.488328783991463 2.8238403669512877 0 0 0 0 -5.2100801162404196 71.958143971254543 0 71.958143971254543 3.2201971966739791 0 0 0 0 -5.095773888657277 83.967441496518759 0 83.967441496518759 1.6343144110892354 0 0 0 0 -0.020983758213333203 81.470414246054446 0 81.470414246054446 2.8269395319436512 0 0 0 0 -15.676263788122128 85.777780820160245 0 85.777780820160245 0.22198090367050582 0 0 0 0 -17.037436972670321 86.45673631781186 0 86.45673631781186 1.2548855460084525 0 0 0 0 -7.6775243926481522 83.28991014744922 0 83.28991014744922 1.6958593730707889 0 0 0 0 -17.766313614405252 73.419028806198668 0 73.419028806198668 4.1305294419563268 0 0 0 0 -32.597740481252572 76.521806046208724 0 76.521806046208724 5.1925498548471154 0 0 0 0 -13.316061829191995 74.113895844469027 0 74.113895844469027 3.401330670319652 0 0 0 0 -6.6580309145959511 62.895004121040166 0 62.895004121040166 3.6598003917345068 0 0 0 0 -8.7360666024619604 62.761110494367657 0 62.761110494367657 4.552020235304461 0 0 0 0 -16.298870240626229 61.113117211151305 0 61.113117211151305 5.2300004787945404 0 0 0 0 -15.339134663083016 60.181270643895033 0 60.181270643895033 6.0280682806821417 0 0 0 0 -18.408143876967301 51.02489896452586 0 51.02489896452586 0.0096115333705085737 0 0 0 0 -34.215800600348359 56.135761296524663 0 56.135761296524663 5.5955435927388848 0 0 0 0 -68.431601200696605 81.424860502458898 0 81.424860502458898 6.7808696232196297 0 0 0 0 -27.613848243207286 90.303691590628205 0 90.303691590628205 0.66907555923560835 0 0 0 0 -31.064660184961667 76.924681050027459 0 76.924681050027459 5.0690087912932427 0 0 0 0 -38.569048461196985 92.967577914265135 0 92.967577914265135 0.0037517073939660889 0 0 0 0 -32.307573226238418 84.650516796197422 0 84.650516796197422 -1.2872686186817219 0 0 0 0 -20.243297431508381 93.707903812479344 0 93.707903812479344 -0.0062525661544437037 0 0 0 0 -0.063438267537833326 52.408095126980385 0 52.408095126980385 -0.23838117128878267 0 0 0 0 -2.2332615384846122 52.342826427989266 0 52.342826427989266 0.43314825567867388 0 0 0 0 -0.064969597108285093 52.976678677793302 0 52.976678677793302 0.42554415752363184 0 0 0 0 -2.3104925938332883 54.13906731785081 0 54.13906731785081 0.99103243509375716 0 0 0 0 -3.0745512907272428 54.12425151839264 0 54.12425151839264 1.2488545641274129 0 0 0 0 -3.2472817170958592 58.021637567250096 0 58.021637567250096 2.5961571909285581 0 0 0 0 -8.3811641723076722 56.350075417384552 0 56.350075417384552 2.4974477100802233 0 0 0 0 -7.0558558057551863 56.286924708692325 0 56.286924708692325 2.1847313161157409 0 0 0 0 -6.6361093630007986 52.830878206066274 0 52.830878206066274 0.99551378251197065 0 0 0 0 -13.866754054480268 53.474371143008028 0 53.474371143008028 1.9460743412414914 0 0 0 0 -15.078680623560331 55.777271253402589 0 55.777271253402589 1.1256045854378482 0 0 0 0 -7.0690146520897201 53.686668941167099 0 53.686668941167099 0.30904098780061418 0 0 0 0 -8.820887155348089 51.586608940207022 0 51.586608940207022 -0.0033139825771873951 0 0 0 0 -3.7905275330932113 51.782926856622225 0 51.782926856622225 0.00053387017989976748 0 0 0 0 -3.221154157867641 51.999291694053241 0 51.999291694053241 0.42580511708261781 0 0 0 0 -3.3161883078109895 53.030530219987057 0 53.030530219987057 -0.47343274959516179 0 0 0 0 -0.032966907068043838 51.59853163388204 0 51.59853163388204 -8.9096371155221454e-05 0 0 0 0 -1.5560567860133006 53.056773679406326 0 53.056773679406326 -0.26828207279689065 0 0 0 0 1.5933234206230509 53.065512994404344 0 53.065512994404344 0.21501989441324554 0 0 0 0 3.5504257656468212 51.73799704008271 0 51.73799704008271 -0.00034500788162943052 0 0 0 0 3.1734235884157442 52.982289646106985 0 52.982289646106985 0.40425479925059449 0 0 0 0 3.0264282071216257 51.920069731634101 0 51.920069731634101 -0.41409061270361747 0 0 0 0 -0.062257482761461702 52.438695115706693 0 52.438695115706693 0.23948550309305006 0 0 0 0 2.1129778378059001 53.966422285339064 0 53.966422285339064 -0.93880316769417504 0 0 0 0 1.9275584777061567 52.311832383028204 0 52.311832383028204 -0.37144156120451299 0 0 0 0 -0.066312650056766564 52.901244927882523 0 52.901244927882523 -0.32847849554877939 0 0 0 0 3.1397309768716468 57.856860703745525 0 57.856860703745525 -2.5439667458188211 0 0 0 0 8.2325960694366813 56.241144028890957 0 56.241144028890957 -2.4381324379627642 0 0 0 0 3.0108378363485144 53.994489655342811 0 53.994489655342811 -1.18756709398194 0 0 0 0 6.4451451351347941 52.780312498207223 0 52.780312498207223 -0.94357347282258175 0 0 0 0 7.2048501765617772 56.239630629158945 0 56.239630629158945 -2.1728939422167031 0 0 0 0 13.86978891223805 53.494501635929467 0 53.494501635929467 -1.9549793820514729 0 0 0 0 7.0395777852828587 53.731978298161209 0 53.731978298161209 -0.25514920729192114 0 0 0 0 8.8963002901791697 51.570699270955146 0 51.570699270955146 0.003189859310466267 0 0 0 0 15.048998098511106 55.808458991206749 0 55.808458991206749 -1.0854326960155447 0 0 0 0 34.249561093295227 56.119097987843617 0 56.119097987843617 -5.6259358304947114 0 0 0 0 18.463855017911669 51.034416322319657 0 51.034416322319657 -0.0095930861745944195 0 0 0 0 68.4991221865901 81.456206489812786 0 81.456206489812786 -6.8381044745627975 0 0 0 0 15.488743939105575 60.193952972062689 0 60.193952972062689 -6.0535282460102522 0 0 0 0 20.612414734725917 93.700750717651204 0 93.700750717651204 0.0059381013213285067 0 0 0 0 32.258992634616334 84.530793185192252 0 84.530793185192252 1.3802750893815841 0 0 0 0 38.721871724167613 92.927596029862627 0 92.927596029862627 -0.0036330922663641938 0 0 0 0 28.135202903729578 90.179665136286999 0 90.179665136286999 -0.69372998107917994 0 0 0 0 31.304915583059255 76.851443067178963 0 76.851443067178963 -5.0918860169709532 0 0 0 0 16.078840093451163 85.746854200402225 0 85.746854200402225 -0.25450425574902624 0 0 0 0 18.491959656331318 73.353436390768735 0 73.353436390768735 -4.1208953379877471 0 0 0 0 17.117084038207594 86.457105556003469 0 86.457105556003469 -1.2477395232806714 0 0 0 0 7.847610647044803 83.312781994286468 0 83.312781994286468 -1.6845984714735778 0 0 0 0 16.281386532889542 61.101134971596622 0 61.101134971596622 -5.2283327436933646 0 0 0 0 32.562773065779083 76.582586232374851 0 76.582586232374851 -5.2482282297503815 0 0 0 0 13.222862575508316 74.191494227122845 0 74.191494227122845 -3.4464009556623409 0 0 0 0 6.6114312877541579 62.824681174521928 0 62.824681174521928 -3.6804129058570965 0 0 0 0 8.9114985190136622 62.694301414208233 0 62.694301414208233 -4.5212643268022248 0 0 0 0 2.217726281747332 63.766491566159296 0 63.766491566159296 -3.2333182246127876 0 0 0 0 -1.3195661679887962 73.603793138806893 0 73.603793138806893 -2.8455003384615907 0 0 0 0 -0.65978308399439811 63.239743761146542 0 63.239743761146542 -2.9178259710223529 0 0 0 0 5.218578824607448 84.091909162105139 0 84.091909162105139 -1.6691919149815817 0 0 0 0 5.4907108960946971 72.046493147297809 0 72.046493147297809 -3.2434006550698768 0 0 0 0 0.56444062854097865 81.703296060050633 0 81.703296060050633 -2.8742871260194534 0 0 0 0 -6.5415550541413552 83.602988218974019 0 83.602988218974019 -2.7887859135942108 0 0 0 0 -6.3262629156381536 80.970269328135402 0 80.970269328135402 -5.8460337844380774 0 0 0 0 -5.8091938561014516 71.561613806918899 0 71.561613806918899 -3.7118502447550554 0 0 0 0 -17.02208901269546 71.687760936703711 0 71.687760936703711 -6.7255060902214723 0 0 0 0 -16.130377554319921 84.794297415626403 0 84.794297415626403 -7.0331651069861323 0 0 0 0 -7.3562580180906707 62.959010549222114 0 62.959010549222114 -3.8114787294144037 0 0 0 0 -3.6104517798690949 64.432584828781998 0 64.432584828781998 -3.3161137512144734 0 0 0 0 -14.712516036180887 74.520542740482256 0 74.520542740482256 -4.2984739426215128 0 0 0 0 -9.4646135510632803 65.356423859917768 0 65.356423859917768 -5.8184724921098621 0 0 0 0 -8.9740274858015709 58.119306402267071 0 58.119306402267071 -4.4353028209307297 0 0 0 0 -3.9739570756535159 59.754284501426781 0 59.754284501426781 -4.1869068767939837 0 0 0 0 -3.988830526338802 58.217432077783585 0 58.217432077783585 -2.4379150754699026 0 0 0 0 -3.9989253689089082 55.991307798390466 0 55.991307798390466 -1.906316160609947 0 0 0 0 -2.1968073286071785 58.361709744651193 0 58.361709744651193 -5.1458806967748103 0 0 0 0 -2.199857641175754 56.909949869224903 0 56.909949869224903 0.19385250695236778 0 0 0 0 0.069230101959002255 55.765194850385605 0 55.765194850385605 -1.8872765416369361 0 0 0 0 -1.1568541871566822 54.47996038705837 0 54.47996038705837 0.0044939626792199761 0 0 0 0 -1.1284733581582032 56.236179541647402 0 56.236179541647402 -2.5523138593219841 0 0 0 0 0.020059362125532054 53.971771619725551 0 53.971771619725551 -0.9573346352706551 0 0 0 0 0.42951783897240148 53.17819397721901 0 53.17819397721901 -0.1738654232987642 0 0 0 0 0.43691366475862892 55.040334412525844 0 55.040334412525844 -1.562940775164293 0 0 0 0 2.082715922018906 57.791715970120563 0 57.791715970120563 -2.2388342476084091 0 0 0 0 -0.51893017218342408 58.945377154696068 0 58.945377154696068 -2.701837304511173 0 0 0 0 -0.93775185393803895 55.00808514028779 0 55.00808514028779 -1.2024481495326853 0 0 0 0 -0.0033619634791648423 97.2742915664507 0 97.2742915664507 4.8980301649312992 0 0 0 0 1.5077535812306451 97.093846583675258 0 97.093846583675258 4.1505262050572185 0 0 0 0 1.5466531808860111 97.788299521203754 0 97.788299521203754 3.3274559936124319 0 0 0 0 0.017654191186920798 98.172574232640315 0 98.172574232640315 3.3970467634528561 0 0 0 0 1.6054903863073378 97.938383370626553 0 97.938383370626553 2.4531236242801029 0 0 0 0 1.9201043068856052 98.932029331931247 0 98.932029331931247 -0.061726075062545793 0 0 0 0 -0.061547010796402901 98.942695208029704 0 98.942695208029704 1.9412569948132727 0 0 0 0 2.4496846083861783 97.89766127537635 0 97.89766127537635 1.6373249096258888 0 0 0 0 1.7125462598410763 98.410030156678545 0 98.410030156678545 1.8552181151122085 0 0 0 0 3.4949451136610605 98.108642584301037 0 98.108642584301037 0.018260323387649324 0 0 0 0 4.0181589772153075 97.178610844171942 0 97.178610844171942 1.5170790116881392 0 0 0 0 4.9815810498712381 97.159920060515361 0 97.159920060515361 -0.0043311984833327571 0 0 0 0 4.3428964594468198 97.203925031218233 0 97.203925031218233 1.4691357884009477 0 0 0 0 2.772085544165293 97.48616949583996 0 97.48616949583996 2.652017335752106 0 0 0 0 2.7860381838206649 97.598380991061632 0 97.598380991061632 2.5236523413968257 0 0 0 0 2.5198324530783793 96.805392207580866 0 96.805392207580866 4.1723122881832069 0 0 0 0 2.5327599740419373 97.086669414870244 0 97.086669414870244 3.1282031259623864 0 0 0 0 3.4401827619578853 97.113191034181199 0 97.113191034181199 2.871577182950972 0 0 0 0 3.6106527952192664 96.312199720907444 0 96.312199720907444 2.7024397473248882 0 0 0 0 3.6541327513621127 93.98921421114828 0 93.98921421114828 1.6035502902287249 0 0 0 0 5.5928271514035401 94.729194581849328 0 94.729194581849328 2.7157464429225229 0 0 0 0 5.510101240718086 96.484079078857164 0 96.484079078857164 2.1041377184592776 0 0 0 0 3.4110679535371915 96.43121302582604 0 96.43121302582604 2.6314781069190474 0 0 0 0 4.3022734838475714 96.788837829677561 0 96.788837829677561 2.1783362066909291 0 0 0 0 6.2905700070521107 95.753312031563098 0 95.753312031563098 1.4724720711585775 0 0 0 0 7.1844735562044661 96.162045811242479 0 96.162045811242479 0.0041899740355151316 0 0 0 0 9.728501106366366 95.190081407598242 0 95.190081407598242 1.5334714174766617 0 0 0 0 9.2420147487382565 93.732603049599192 0 93.732603049599192 2.2576472314955498 0 0 0 0 11.714679429345551 94.717218602636862 0 94.717218602636862 -4.7196223928874792e-06 0 0 0 0 17.521690960071737 90.552412912633429 0 90.552412912633429 1.6129847833306961 0 0 0 0 10.103774343751184 92.495344065931789 0 92.495344065931789 3.1428753446468747 0 0 0 0 14.515660279241956 92.92589083053528 0 92.92589083053528 1.140878203910205 0 0 0 0 6.6396864466410079 95.220180140876721 0 95.220180140876721 1.9751813949791597 0 0 0 0 7.1211561474722203 90.905694156562973 0 90.905694156562973 1.153806735491969 0 0 0 0 7.5767684080944377 91.434953572884154 0 91.434953572884154 0.42042117500474774 0 0 0 0 2.8916444258572938 89.189115038115474 0 89.189115038115474 -0.6358772638318726 0 0 0 0 2.8717170251697248 94.207985484899808 0 94.207985484899808 1.5978930879853124 0 0 0 0 -0.30739182897764294 89.918925946634332 0 89.918925946634332 -0.49898538788326618 0 0 0 0 -1.0988831640147509 87.345029622956176 0 87.345029622956176 -3.1984433303903756 0 0 0 0 -6.376042198289734 88.474972766775736 0 88.474972766775736 -2.7820871507113338 0 0 0 0 -3.9446963765760756 84.013453066285422 0 84.013453066285422 -8.5751732250240593 0 0 0 0 -3.9524126028932187 87.688347962509795 0 87.688347962509795 0.26113584070236584 0 0 0 0 -1.1748989111995236 92.05970131584364 0 92.05970131584364 0.96556723765735342 0 0 0 0 -0.60920981994854628 89.165654492029972 0 89.165654492029972 -2.5631611836061552 0 0 0 0 -0.060363876565361352 88.566703388105026 0 88.566703388105026 0.95606889875307388 0 0 0 0 1.474950822134133 93.304100684289992 0 93.304100684289992 1.4584425960658223 0 0 0 0 -0.59692228008186632 91.372951951271347 0 91.372951951271347 4.3833757781160898 0 0 0 0 1.5019666667020068 94.825119517844513 0 94.825119517844513 3.22783851215803 0 0 0 0 1.4581609000463231 92.290057690806776 0 92.290057690806776 -0.15268783433128874 0 0 0 0 2.5359941990623156 95.488520534659131 0 95.488520534659131 2.1148349109221556 0 0 0 0 2.5706432442548248 96.285963379027464 0 96.285963379027464 4.0745185831382287 0 0 0 0 2.3667222696587942 95.309358034134391 0 95.309358034134391 6.3404259330187642 0 0 0 0 2.4022282781068043 95.872352123450341 0 95.872352123450341 3.6674628551897683 0 0 0 0 1.4912907828913902 94.044813588477766 0 94.044813588477766 6.2138413504160326 0 0 0 0 1.8332977362019847 93.443025672163913 0 93.443025672163913 5.4092372957217094 0 0 0 0 -0.074825740057349321 89.107855512945321 0 89.107855512945321 10.969582325807153 0 0 0 0 1.8400821988469644 92.521266682916448 0 92.521266682916448 10.598605393769901 0 0 0 0 2.2161410444325611 95.712124193225918 0 95.712124193225918 6.8459852967711754 0 0 0 0 2.3690752271759266 93.716942685671171 0 93.716942685671171 11.798662426003887 0 0 0 0 2.5081383512374487 89.915494768097204 0 89.915494768097204 16.847608314824413 0 0 0 0 0.0020353324866846378 94.952862000021781 0 94.952862000021781 11.801718585157062 0 0 0 0 2.2169093251852701 93.586958169518255 0 93.586958169518255 9.5025308000429902 0 0 0 0 0.0028396598304425424 96.227799575611897 0 96.227799575611897 7.2067691737822486 0 0 0 0 1.821302006329006 96.936451329489387 0 96.936451329489387 4.5540178974567027 0 0 0 0 1.7769935367122329 95.771188541398416 0 95.771188541398416 6.054159298389834 0 0 0 0 -0.0099050876767705631 51.006837217717987 0 51.006837217717987 18.346087343141107 0 0 0 0 -5.6270923445090375 56.145952708726583 0 56.145952708726583 34.241505581990623 0 0 0 0 -6.0478706963442619 60.16151496321865 0 60.16151496321865 15.440797757080702 0 0 0 0 -7.0241462616813806 81.406900230427652 0 81.406900230427652 68.483011163981203 0 0 0 0 -0.0024088663529111798 92.777206884887235 0 92.777206884887235 38.720660459696887 0 0 0 0 1.413379714614166 84.532301215407017 0 84.532301215407017 32.495290902571242 0 0 0 0 0.0039382914187626739 93.543181907437344 0 93.543181907437344 21.563480340017918 0 0 0 0 -5.0287486565504196 77.247056285229448 0 77.247056285229448 30.859350656508468 0 0 0 0 -0.095572241158834004 90.503748525042454 0 90.503748525042454 24.974841648449797 0 0 0 0 0.045146266970505167 87.079945639622565 0 87.079945639622565 19.502958318477283 0 0 0 0 -0.081500178325001116 88.207270265261712 0 88.207270265261712 9.9311711355099987 0 0 0 0 -2.498828299593697 81.834028412209818 0 81.834028412209818 18.704634910962966 0 0 0 0 -3.9455542288710603 73.909992113629812 0 73.909992113629812 14.280669927619584 0 0 0 0 -3.3791195634137239 73.805101530203046 0 73.805101530203046 13.595304105961532 0 0 0 0 -4.7307772961082719 76.567221458980924 0 76.567221458980924 32.215642836672487 0 0 0 0 -5.1816481939015375 61.052809984594802 0 61.052809984594802 16.107821418336211 0 0 0 0 -3.6293817012392537 62.933378770115581 0 62.933378770115581 6.7976520529808795 0 0 0 0 -4.603755370937165 62.60405226196221 0 62.60405226196221 8.5009425709079096 0 0 0 0 -3.0833510306104017 63.809149675924772 0 63.809149675924772 2.0707375495165872 0 0 0 0 -2.9234009155608192 63.179041010418572 0 63.179041010418572 -0.59187324152520659 0 0 0 0 -2.8543244560385119 73.253046971361044 0 73.253046971361044 -1.1837464830504132 0 0 0 0 -2.3689062742983538 81.706008637024738 0 81.706008637024738 2.6453804254496163 0 0 0 0 -3.4965743323775769 71.509913138185567 0 71.509913138185567 7.5015589374036722 0 0 0 0 -2.2341331022744271 84.382930485433775 0 84.382930485433775 6.2517757350660759 0 0 0 0 -2.2853191518674691 82.772228740999992 0 82.772228740999992 -5.9712074881047101 0 0 0 0 -3.9924818926642729 81.335118690785691 0 81.335118690785691 -3.0569734537640159 0 0 0 0 -3.1895989555223423 70.937140533136755 0 70.937140533136755 -8.204633448769215 0 0 0 0 -9.6614244939951277 85.421731115742091 0 85.421731115742091 -8.2990406528645622 0 0 0 0 -4.3785161999099103 78.856966538395895 0 78.856966538395895 -17.527547404601023 0 0 0 0 -7.3194306556436004 72.420841093296758 0 72.420841093296758 -13.603332093561335 0 0 0 0 -4.0145751007967192 73.763309600477498 0 73.763309600477498 -14.963321147013744 0 0 0 0 -3.4875606677082942 64.610202095526802 0 64.610202095526802 -3.8570814115284406 0 0 0 0 -3.8680004419047691 63.202134327958049 0 63.202134327958049 -7.4816605735068951 0 0 0 0 -5.7006576475229735 65.463569905669985 0 65.463569905669985 -9.6112272787644883 0 0 0 0 -4.5127809483597048 58.307174114644184 0 58.307174114644184 -9.5364770006733011 0 0 0 0 -2.4346466814675978 58.407733024744147 0 58.407733024744147 -3.9187415626925848 0 0 0 0 -4.3006681599272838 60.082542568134173 0 60.082542568134173 -4.3949254269664948 0 0 0 0 -2.1222660476018973 56.045827807162141 0 56.045827807162141 -4.1977292629241418 0 0 0 0 -5.5331269060407067 58.687238775830593 0 58.687238775830593 -2.5148464486269404 0 0 0 0 -0.14925068848054934 57.114621433957865 0 57.114621433957865 -2.536350919833751 0 0 0 0 -0.080675583406446094 54.591753530669195 0 54.591753530669195 -1.3274187539712443 0 0 0 0 -2.2008039248971727 55.893439287738886 0 55.893439287738886 -0.086683819462283207 0 0 0 0 -2.712515398572009 56.567264229585163 0 56.567264229585163 -1.3938044325515193 0 0 0 0 -1.0960069936238597 54.096175764692816 0 54.096175764692816 -0.031534020936305751 0 0 0 0 -0.26457904050971592 53.244214941494704 0 53.244214941494704 0.45763071037549707 0 0 0 0 -1.6235378232482844 55.168133463574236 0 55.168133463574236 0.42993054164554678 0 0 0 0 -1.2537459424295889 55.108539802564124 0 55.108539802564124 -0.79731433253243722 0 0 0 0 -2.6899547501205916 59.08913533376608 0 59.08913533376608 -0.79237051749157672 0 0 0 0 -2.2206718365960114 57.869647246258182 0 57.869647246258182 2.0262307262856929 0 0 0 0 -2.452918359794694 56.311425039999165 0 56.311425039999165 8.2581674277076367 0 0 0 0 -2.5270139218439454 57.883848107707436 0 57.883848107707436 3.0219696084870407 0 0 0 0 -2.1972442263808034 56.201474909583865 0 56.201474909583865 6.9385348052326208 0 0 0 0 -0.97104315051547019 52.842337221658596 0 52.842337221658596 6.3048528590969113 0 0 0 0 -1.202433594083459 54.065109842106835 0 54.065109842106835 2.9904932805122737 0 0 0 0 -0.95548504774444609 54.036667261199568 0 54.036667261199568 2.1279139286500026 0 0 0 0 -0.43034371448163711 52.389072892213136 0 52.389072892213136 2.0855998317468902 0 0 0 0 -0.428492852993827 52.980934097061464 0 52.980934097061464 0.037287743162892184 0 0 0 0 0.24647972688904929 52.446842489738316 0 52.446842489738316 0.084250163984052051 0 0 0 0 0.41078271038486491 53.012624014465985 0 53.012624014465985 3.2183189366414311 0 0 0 0 -0.41940051473625317 51.917863114752549 0 51.917863114752549 3.0431788673337152 0 0 0 0 0.21451611959793127 53.097193426793964 0 53.097193426793964 1.6054007125841281 0 0 0 0 1.1796236321970355e-05 51.592530158764134 0 51.592530158764134 0.04659771024694237 0 0 0 0 -0.00051763138230853656 51.730369140989779 0 51.730369140989779 3.7055667575114626 0 0 0 0 -0.31769758736948006 53.742506006995939 0 53.742506006995939 6.9872377212428205 0 0 0 0 0.003405083198686043 51.5392470093893 0 51.5392470093893 8.7167403442509794 0 0 0 0 -1.9920202172327208 53.485746443159087 0 53.485746443159087 13.515101064401335 0 0 0 0 -1.0746914195907493 55.79083659637643 0 55.79083659637643 14.986611053459342 0 0 0 0 -6.560247287137372 62.68369594760378 0 62.68369594760378 -14.574070535873014 0 0 0 0 -15.37071845782134 74.292496269483792 0 74.292496269483792 -25.369713593116558 0 0 0 0 -6.3367438297726721 72.849634539406225 0 72.849634539406225 -13.206859869824029 0 0 0 0 -8.043341921910951 78.197217065304073 0 78.197217065304073 -29.148141071746192 0 0 0 0 -1.1544657981280579 71.448094020183078 0 71.448094020183078 -7.7966248784167647 0 0 0 0 -0.025521334288896469 74.635667440712155 0 74.635667440712155 0.062068282058756676 0 0 0 0 -2.8586076185428055 74.775882054501665 0 74.775882054501665 -13.696108860114578 0 0 0 0 -2.5566875241311209 64.151682006556769 0 64.151682006556769 -6.8480544300572674 0 0 0 0 -2.4472008886773864 61.536990272473787 0 61.536990272473787 -9.4484717026650173 0 0 0 0 -1.2272575546510325 66.115578295940168 0 66.115578295940168 -3.9527144018308604 0 0 0 0 -2.2327381222697795 60.133242485598174 0 60.133242485598174 -0.95839518123516143 0 0 0 0 0.073353131698368657 59.297096881854721 0 59.297096881854721 -3.3203243580036315 0 0 0 0 -5.8702648250477978 58.023598941529016 0 58.023598941529016 -4.3149257229705142 0 0 0 0 -5.351947891762336 65.757863988060791 0 65.757863988060791 -6.7950104755779535 0 0 0 0 -12.867593911513609 66.981168121241325 0 66.981168121241325 -14.279535164039146 0 0 0 0 -11.913055630719441 58.217255763028618 0 58.217255763028618 -10.703596440271383 0 0 0 0 -6.6617319959126036 61.603526667451185 0 61.603526667451185 -8.6240078456944502 0 0 0 0 -14.923857844045983 62.305827545322231 0 62.305827545322231 -7.5168009432647409 0 0 0 0 -29.847715688092098 77.639216658360183 0 77.639216658360183 -9.4398651436584942 0 0 0 0 -60.089727826489479 89.760082380380567 0 89.760082380380567 -22.819335221849855 0 0 0 0 -14.998582921673801 66.897779690526562 0 66.897779690526562 -13.116017961679802 0 0 0 0 -30.04486391324474 62.10872196592787 0 62.10872196592787 -14.606032116075227 0 0 0 0 -11.032460185493164 79.325624984805984 0 79.325624984805984 -13.994932907936459 0 0 0 0 -21.551943277195505 87.451523261647139 0 87.451523261647139 -20.270067398796982 0 0 0 0 -26.744045816612925 73.650173165430488 0 73.650173165430488 -15.493537453993895 0 0 0 0 -15.383494820347096 73.746314909536295 0 73.746314909536295 -26.188366000681611 0 0 0 0 -8.632766900779643 77.174664600931706 0 77.174664600931706 -29.773962520384885 0 0 0 0 -22.662376021371529 89.879021979465065 0 89.879021979465065 -60.008807828870886 0 0 0 0 -13.099214615034384 66.89271737828652 0 66.89271737828652 -15.022794407639935 0 0 0 0 -14.596107324415811 62.106099075999147 0 62.106099075999147 -30.004403914435443 0 0 0 0 -7.7181606475885474 62.193382064724005 0 62.193382064724005 -14.886981260192433 0 0 0 0 -14.464676982936965 61.947425487072699 0 61.947425487072699 -29.863626088702858 0 0 0 0 -29.923650374072054 62.003728201329778 0 62.003728201329778 -14.47211911544008 0 0 0 0 -59.847300748144107 90.144994303504177 0 90.144994303504177 -22.543380343696754 0 0 0 0 -22.450465211996061 90.251476154723946 0 90.251476154723946 -59.727252177405653 0 0 0 0 -25.578449055078863 74.218833752514001 0 74.218833752514001 -15.475777219222437 0 0 0 0 -29.201966835272433 78.330853490991075 0 78.330853490991075 -8.6040963606474179 0 0 0 0 -14.600983417636304 62.817653433453799 0 62.817653433453799 -6.9099739525971131 0 0 0 0 -16.434010666682525 72.101477902722422 0 72.101477902722422 -5.6123099043135198 0 0 0 0 -8.9398298868229631 61.708754715293267 0 61.708754715293267 -6.9326913961811556 0 0 0 0 -11.137022192868471 58.271467603777097 0 58.271467603777097 -12.074429036077106 0 0 0 0 -14.23830081518463 67.007099535062395 0 67.007099535062395 -12.910835463665933 0 0 0 0 -7.0958020782854874 65.924008856202988 0 65.924008856202988 -5.6255901961960149 0 0 0 0 -4.7046101339118422 58.198237156852116 0 58.198237156852116 -6.3868014962950497 0 0 0 0 -9.9030205654215706 61.835564023340169 0 61.835564023340169 -2.7029976516153056 0 0 0 0 -4.4192123273361403 66.094790039289094 0 66.094790039289094 -1.0039387922785181 0 0 0 0 -1.3157265945769723 60.566804485746161 0 60.566804485746161 -2.5378849823445933 0 0 0 0 -3.6328753221061447 59.347987934112609 0 59.347987934112609 -0.062337526745920968 0 0 0 0 -13.445175365414798 75.246845849843794 0 75.246845849843794 -2.9411826884897891 0 0 0 0 -6.7225876827073989 64.038922058500077 0 64.038922058500077 -2.8224872387397113 0 0 0 0 0.012471192113480356 63.978367837654048 0 63.978367837654048 -0.016495876593637604 0 0 0 0 0.024942384226960712 74.992629639415441 0 74.992629639415441 0.0024365559772832057 0 0 0 0 -5.4376546657531435 71.907765214539779 0 71.907765214539779 -1.7387923729269232 0 0 0 0 -5.3201890326857866 84.253525202954293 0 84.253525202954293 -1.4652554336332742 0 0 0 0 -6.0431862389401338 88.774935310274699 0 88.774935310274699 -2.4370385054703547 0 0 0 0 -6.1359573954136977 81.308713311103077 0 81.308713311103077 -4.5419730880836369 0 0 0 0 -15.678153142167645 85.653406795095435 0 85.653406795095435 -6.3262306558237924 0 0 0 0 -9.6005107547673418 86.184989455725315 0 86.184989455725315 -7.7792704310411409 0 0 0 0 -10.611448618089298 80.070474161193488 0 80.070474161193488 -13.257286235982065 0 0 0 0 -21.866746556314752 88.637831497316853 0 88.637831497316853 -19.757214793604362 0 0 0 0 -3.1648077056950115 81.716385394521126 0 81.716385394521126 -2.496420358414241 0 0 0 0 -0.059816786090550522 83.516636508809711 0 83.516636508809711 -6.1426055064570164 0 0 0 0 -3.277588797060389 80.192062722395974 0 80.192062722395974 -17.672710795780631 0 0 0 0 -3.5523146143427766 84.628387735870035 0 84.628387735870035 -8.1054517594778872 0 0 0 0 -3.4112398732611382 87.692654168291824 0 87.692654168291824 -0.20943224231621116 0 0 0 0 -0.098776538088941379 88.92981085746635 0 88.92981085746635 -2.6871378816391598 0 0 0 0 -1.4301338476986984 87.083064581773499 0 87.083064581773499 -2.0409058532208064 0 0 0 0 -1.3834993493417187 90.826198304646823 0 90.826198304646823 -0.06725059026314284 0 0 0 0 -0.0081508568987172549 90.380998622337742 0 90.380998622337742 -0.011741170678305934 0 0 0 0 1.4000667589762088 90.816923325325206 0 90.816923325325206 0.022455705896504696 0 0 0 0 1.399280383479202 87.093921405198088 0 87.093921405198088 2.0486232772886979 0 0 0 0 0.089811267381037396 88.887811289341926 0 88.887811289341926 2.6868541961362098 0 0 0 0 3.3542312704755659 87.823075649598309 0 87.823075649598309 0.26821320020258099 0 0 0 0 3.438000359082551 84.772938363285675 0 84.772938363285675 7.9465367214540947 0 0 0 0 3.2775642116735071 80.198865381657583 0 80.198865381657583 17.492235840906915 0 0 0 0 3.0734191687297425 82.044679818349323 0 82.044679818349323 2.6335612721892403 0 0 0 0 0.087287491373217563 83.426046426357857 0 83.426046426357857 5.9285220665288989 0 0 0 0 10.585623317976911 80.226218806169157 0 80.226218806169157 13.225015725746971 0 0 0 0 21.763845564090389 88.526248892258081 0 88.526248892258081 19.36635993113714 0 0 0 0 9.5029379828213223 86.271943546769535 0 86.271943546769535 7.6551519001081942 0 0 0 0 15.776679665793836 85.566822944260934 0 85.566822944260934 6.1262987943733833 0 0 0 0 6.0901685110126387 81.355861401653712 0 81.355861401653712 4.4950480859022264 0 0 0 0 6.0357266002765755 88.828930976747301 0 88.828930976747301 2.5069780709056886 0 0 0 0 0.026539660469779847 89.269705824023958 0 89.269705824023958 -0.0060953374701284702 0 0 0 0 5.3005124980331857 84.242335568013857 0 84.242335568013857 1.4820417857981738 0 0 0 0 0.01626378995115374 81.438911425176229 0 81.438911425176229 0.0065163023833747502 0 0 0 0 5.4088859127014075 71.930702346192732 0 71.930702346192732 1.7433978071151159 0 0 0 0 6.7283486928424736 63.939153261987144 0 63.939153261987144 2.8874978481020435 0 0 0 0 13.456697385684947 75.292518024175024 0 75.292518024175024 2.9571825029208867 0 0 0 0 3.2537686818981228 59.503963816157011 0 59.503963816157011 -0.058830531456880664 0 0 0 0 4.0580072593827481 66.125712234444336 0 66.125712234444336 1.1139517100227749 0 0 0 0 1.4451824634471961 59.922807578833073 0 59.922807578833073 2.1976785571681603 0 0 0 0 9.5715371644768084 61.663844563166492 0 61.663844563166492 2.5701659413457492 0 0 0 0 4.341504077207901 58.06805692870546 0 58.06805692870546 6.0713933914341851 0 0 0 0 6.9891018035115735 65.83163656650278 0 65.83163656650278 5.5433161004242493 0 0 0 0 10.759735989204501 58.292052791763837 0 58.292052791763837 12.275856858443035 0 0 0 0 14.264225824483219 67.01716096587171 0 67.01716096587171 12.875834337306969 0 0 0 0 8.7515563735420301 61.690958827050196 0 61.690958827050196 6.8137421948503061 0 0 0 0 16.274176721446473 72.153380821317668 0 72.153380821317668 5.6774986766824895 0 0 0 0 14.601542101232667 62.791237380596954 0 62.791237380596954 6.7563793229654721 0 0 0 0 29.203084202465334 78.451059110374331 0 78.451059110374331 8.6990376401835192 0 0 0 0 25.795166556405093 74.232672479064604 0 74.232672479064604 15.474886627388514 0 0 0 0 22.276701146895448 90.228874344515248 0 90.228874344515248 59.811247783643012 0 0 0 0 59.822516118477324 90.096854145585553 0 90.096854145585553 22.52947320992007 0 0 0 0 29.91125805923873 61.974070580736942 0 61.974070580736942 14.471327900764663 0 0 0 0 14.530402441111619 61.94210662216841 0 61.94210662216841 29.905623891821506 0 0 0 0 7.6162284769865778 62.366654889077665 0 62.366654889077665 14.898028924645814 0 0 0 0 14.650834060765646 62.140674033029768 0 62.140674033029768 30.064958803822947 0 0 0 0 13.174520007807018 66.932972958812456 0 66.932972958812456 14.898708610369084 0 0 0 0 22.754686890631319 89.719970026508236 0 89.719970026508236 60.129917607645893 0 0 0 0 9.7885062526866022 77.701890744136847 0 77.701890744136847 29.796057849291628 0 0 0 0 15.439486350416473 73.645061742043936 0 73.645061742043936 26.896385454590018 0 0 0 0 21.118420985515513 87.525098998166186 0 87.525098998166186 21.880587626575959 0 0 0 0 26.251179094891484 73.765244963545683 0 73.765244963545683 15.467639277450189 0 0 0 0 14.64270398877261 79.26778293951827 0 79.26778293951827 11.360941153868453 0 0 0 0 30.016796707384401 62.055966788589046 0 62.055966788589046 14.646949958389996 0 0 0 0 14.590489480542487 66.782470288934235 0 66.782470288934235 13.253642535798519 0 0 0 0 60.033593414768802 89.804041580460762 0 89.804041580460762 22.682867975603131 0 0 0 0 29.901728632034747 77.189469805329622 0 77.189469805329622 8.941510162002487 0 0 0 0 14.950864316017601 62.414774420206584 0 62.414774420206584 7.4268530715644374 0 0 0 0 6.892593313672478 61.774533043531619 0 61.774533043531619 8.6567697187067552 0 0 0 0 12.454678438258611 58.177550299240608 0 58.177550299240608 10.843895276547073 0 0 0 0 12.949100487605961 66.988741061083601 0 66.988741061083601 14.133298968316751 0 0 0 0 5.3647982704660535 65.892279362693273 0 65.892279362693273 7.0932947978211587 0 0 0 0 6.3030504536828857 58.166181256762172 0 58.166181256762172 4.471593422234946 0 0 0 0 0.07844718386331806 59.283636857220642 0 59.283636857220642 3.6544702651551688 0 0 0 0 1.2067113887088681 66.138359113440288 0 66.138359113440288 4.2551782769221802 0 0 0 0 2.5609777349459364 60.34762527563197 0 60.34762527563197 1.2084929104795492 0 0 0 0 2.6418144111761421 61.386854964634267 0 61.386854964634267 9.9043968452652962 0 0 0 0 2.7098979307818354 64.163539005276789 0 64.163539005276789 6.8468648348839452 0 0 0 0 0.042148959048745382 63.914500744853854 0 63.914500744853854 0.011984803198743066 0 0 0 0 1.219641101838647 71.511792062188533 0 71.511792062188533 7.6901535243182479 0 0 0 0 0.042890232775448567 74.668845097368546 0 74.668845097368546 0.023969606397486132 0 0 0 0 2.9829791819165621 74.906500550437215 0 74.906500550437215 13.69372966976789 0 0 0 0 8.1133148535141117 78.303430981784686 0 78.303430981784686 29.095461325462793 0 0 0 0 6.3884461324200856 72.931153920707629 0 72.931153920707629 13.072779587205787 0 0 0 0 15.151659703795758 74.26146339092179 0 74.26146339092179 25.745725145910683 0 0 0 0 6.7314518100767486 62.697279468821932 0 62.697279468821932 14.547730662731396 0 0 0 0 1.0144049648295095 55.733354077143986 0 55.733354077143986 -14.99718342823553 0 0 0 0 1.8802961138917453 53.438869264921493 0 53.438869264921493 -13.095019602770776 0 0 0 0 -0.0034728153191281308 51.550422814998797 0 51.550422814998797 -8.4812126106426149 0 0 0 0 0.31012499948474215 53.671662776626249 0 53.671662776626249 -6.9707898575957756 0 0 0 0 0.00052689127697565501 51.744738761889231 0 51.744738761889231 -3.436077074441755 0 0 0 0 -0.24515944077734275 53.085988554964104 0 53.085988554964104 -1.5950920228220866 0 0 0 0 0.41758216234427437 51.879389790885057 0 51.879389790885057 -2.7758774260778409 0 0 0 0 -0.40482539080863944 52.986859874748916 0 52.986859874748916 -3.0292732429622902 0 0 0 0 -0.28196231442461794 52.407808802614284 0 52.407808802614284 0.085728476555770428 0 0 0 0 0.39868611521603725 52.387221281537222 0 52.387221281537222 -1.8848995473515515 0 0 0 0 0.36528015632484312 52.914952557570018 0 52.914952557570018 0.03751514098449471 0 0 0 0 0.84656313005393713 53.854088110378541 0 53.854088110378541 -1.8867550307024614 0 0 0 0 1.1291758358894981 53.878776596637692 0 53.878776596637692 -2.868495552531499 0 0 0 0 0.86668531404268379 52.703591929394719 0 52.703591929394719 -5.9305516000542866 0 0 0 0 2.0211540864584094 56.022418757791115 0 56.022418757791115 -6.7440348782077422 0 0 0 0 2.3527701834092909 56.019057106035376 0 56.019057106035376 -7.9901507982366411 0 0 0 0 2.4916386572753026 57.587551661802109 0 57.587551661802109 -2.8784992846997284 0 0 0 0 2.209730497973851 57.629038280404018 0 57.629038280404018 -2.1473335138092366 0 0 0 0 2.6904125949627655 58.881549132195687 0 58.881549132195687 0.81748326503702629 0 0 0 0 1.2190860331012345 54.926922910251534 0 54.926922910251534 0.779626859047994 0 0 0 0 1.5630213999683065 54.962614510011093 0 54.962614510011093 -0.40496240730806221 0 0 0 0 0.18287130195142254 53.19913340908613 0 53.19913340908613 -0.39996791350858985 0 0 0 0 0.97428811943075289 53.990548340880366 0 53.990548340880366 -0.029855393064567082 0 0 0 0 2.6380859385009217 56.26897554057598 0 56.26897554057598 1.1653747651025856 0 0 0 0 -0.013063146543686344 54.484272841017713 0 54.484272841017713 1.1424995703885088 0 0 0 0 1.9531932916914911 55.887527634228491 0 55.887527634228491 -0.086998878382506639 0 0 0 0 -0.091952463321717914 56.819415211137908 0 56.819415211137908 2.2239853259364963 0 0 0 0 5.1696406815414093 58.343513464485966 0 58.343513464485966 2.2101200704284225 0 0 0 0 2.032468200536357 55.989880092763627 0 55.989880092763627 4.000043903851747 0 0 0 0 2.4562276760735813 58.192718699713339 0 58.192718699713339 3.9502252467482322 0 0 0 0 4.221639089827022 59.840172524525713 0 59.840172524525713 4.1919302190404473 0 0 0 0 4.5294376060451214 58.162446980364393 0 58.162446980364393 8.98179374601375 0 0 0 0 5.770344936653828 65.445237040070026 0 65.445237040070026 9.7865999162200907 0 0 0 0 3.8154419609421097 62.991836233810119 0 62.991836233810119 7.3612545222205199 0 0 0 0 3.3385447300252054 64.432086096607748 0 64.432086096607748 3.7205683918323924 0 0 0 0 4.4303184625332506 74.45169505544834 0 74.45169505544834 14.72250904444091 0 0 0 0 6.8648152704327003 71.538699535585351 0 71.538699535585351 17.217210176106619 0 0 0 0 7.2408033884445331 84.586606590577844 0 84.586606590577844 17.08085225421928 0 0 0 0 5.9842668247119946 80.456948523646929 0 80.456948523646929 7.0776796135480069 0 0 0 0 2.7792395723245136 83.263034741660988 0 83.263034741660988 6.4910225404510129 0 0 0 0 3.6941484483784279 71.324190730986231 0 71.324190730986231 6.372363231536383 0 0 0 0 2.8425971674071207 81.440082899375739 0 81.440082899375739 -0.013940665975724187 0 0 0 0 1.6529769555424991 83.945195499673048 0 83.945195499673048 -5.1252482952634182 0 0 0 0 3.2497107009432966 71.990311413420159 0 71.990311413420159 -5.2148285727780603 0 0 0 0 2.844172550922849 73.522165338886396 0 73.522165338886396 1.3082835346451702 0 0 0 0 2.9265820253509105 63.204071645319061 0 63.204071645319061 0.65414176732258511 0 0 0 0 3.2135656368798209 63.656469814859747 0 63.656469814859747 -1.8655924511683821 0 0 0 0 4.4897235233595438 62.431242854415245 0 62.431242854415245 -8.4466073976433904 0 0 0 0 3.6158926026299696 62.727541566350084 0 62.727541566350084 -6.6523495677267874 0 0 0 0 5.1219113289782854 60.98478186881502 0 60.98478186881502 -16.255443821999165 0 0 0 0 5.1480732958734734 76.60530156466541 0 76.60530156466541 -32.510887643998558 0 0 0 0 3.388221578419234 74.1844998626201 0 74.1844998626201 -13.304699135453575 0 0 0 0 4.0853595382257026 73.508288955453224 0 73.508288955453224 -17.628443284799005 0 0 0 0 1.2984981538788816 86.431413227051223 0 86.431413227051223 -17.130460381437615 0 0 0 0 1.7337084024713931 83.310332196924662 0 83.310332196924662 -7.6055823626370511 0 0 0 0 0.23643073785774504 85.852105314096661 0 85.852105314096661 -15.54872825363077 0 0 0 0 0.74013344556306038 90.224342264842903 0 90.224342264842903 -27.485218786543811 0 0 0 0 5.0503331218897074 76.93211999047162 0 76.93211999047162 -31.247365145640629 0 0 0 0 -0.0063305487233265012 93.785439134436501 0 93.785439134436501 -20.274494666519331 0 0 0 0 -1.4686051359893781 84.54951256131983 0 84.54951256131983 -32.146447371187605 0 0 0 0 0.0038125135470181704 92.964329271658585 0 92.964329271658585 -38.503787299592886 0 0 0 0 6.7771196641574534 81.380778296577091 0 81.380778296577091 -68.444196400366081 0 0 0 0 5.9865026188675756 60.096725871414151 0 60.096725871414151 -15.659638790043687 0 0 0 0 5.6115705252493626 56.187393256423718 0 56.187393256423718 -34.222098200183041 0 0 0 0 0.0097339704132724213 51.030073957404134 0 51.030073957404134 -18.305623047307336 0 0 0 0 -1.5575789376748617 95.739066111336797 0 95.739066111336797 -6.2576228994396388 0 0 0 0 -2.1616305360171282 96.802831457224215 0 96.802831457224215 -4.3062331627832009 0 0 0 0 -0.0042330210021646053 96.143892504892278 0 96.143892504892278 -7.2344373553473815 0 0 0 0 0.00028520499940197871 94.705314724392167 0 94.705314724392167 -11.866520001225581 0 0 0 0 -2.2804860378678313 93.673565934368639 0 93.673565934368639 -9.2656833940345678 0 0 0 0 -1.5501708822575893 90.583652373297355 0 90.583652373297355 -17.433130527958497 0 0 0 0 -3.2178327771475779 92.46189701154691 0 92.46189701154691 -10.050677975894814 0 0 0 0 -1.5565804015203639 95.185882884790885 0 95.185882884790885 -9.6961176984762005 0 0 0 0 -1.1325183977096458 92.872706237888224 0 92.872706237888224 -14.236982897628934 0 0 0 0 -1.1499304169435618 90.794443473210436 0 90.794443473210436 -7.0063075327614115 0 0 0 0 -0.39230971125516589 91.308377302560416 0 91.308377302560416 -7.5396686787552776 0 0 0 0 -1.8979839787853052 95.079430330381115 0 95.079430330381115 -6.9064478219815406 0 0 0 0 -1.4760650713051291 93.740289511162018 0 93.740289511162018 -3.6244848372371052 0 0 0 0 -2.735321499944348 94.629138075109665 0 94.629138075109665 -5.5907155417510239 0 0 0 0 -2.0956640034846714 96.381579126308679 0 96.381579126308679 -5.6567266412692376 0 0 0 0 -2.6010267576509705 96.278769462947594 0 96.278769462947594 -3.4600693744828277 0 0 0 0 -2.626996447294232 96.198017552052704 0 96.198017552052704 -3.6577665433478614 0 0 0 0 -1.9503961873097069 95.290486977553996 0 95.290486977553996 -2.5328596180287253 0 0 0 0 -3.0562308509230434 94.66633356566075 0 94.66633356566075 -1.375954347354309 0 0 0 0 0.40976012998760325 91.933412831026999 0 91.933412831026999 -1.3287437091898937 0 0 0 0 -1.4417453275326579 93.975692573227718 0 93.975692573227718 -2.9124367959245774 0 0 0 0 0.75779785706242819 88.956506795881467 0 88.956506795881467 -2.8401015296672085 0 0 0 0 0.63702780839867046 89.706202509025161 0 89.706202509025161 -0.0036746206347284538 0 0 0 0 -0.75215658365732452 91.740320973023813 0 91.740320973023813 1.4399824864844817 0 0 0 0 3.4676730769679125 86.747112343418451 0 86.747112343418451 1.6084601928444044 0 0 0 0 3.270690748961897 88.333511352387404 0 88.333511352387404 6.6919859314487482 0 0 0 0 9.3060982347627714 83.479304634076016 0 83.479304634076016 4.3705059186388553 0 0 0 0 0.47302547234482972 87.215759469274644 0 87.215759469274644 4.421422291184399 0 0 0 0 3.22468038000045 88.765873245078467 0 88.765873245078467 0.81218495466896456 0 0 0 0 -1.181051718230492 93.076090858033353 0 93.076090858033353 -1.385021646927953 0 0 0 0 -4.1250225227868214 91.084074078570211 0 91.084074078570211 0.84699770960448006 0 0 0 0 -0.47758586512293277 88.337107438222802 0 88.337107438222802 0.22384847757552961 0 0 0 0 -10.677894463003099 89.019781834954301 0 89.019781834954301 0.21773453541050003 0 0 0 0 -6.0799909709619442 93.896037339139639 0 93.896037339139639 -1.37530410908421 0 0 0 0 -5.3201625485875184 93.344656442814426 0 93.344656442814426 -1.7413504891460434 0 0 0 0 -10.530400718309238 92.449301710814098 0 92.449301710814098 -1.787469377128744 0 0 0 0 -11.861655739111825 93.709244898762904 0 93.709244898762904 -2.2412905597673216 0 0 0 0 -16.706113256489516 89.820390634939372 0 89.820390634939372 -2.6597717937647758 0 0 0 0 -9.5083736480967218 93.57463271468032 0 93.57463271468032 -2.1918872310448023 0 0 0 0 -11.804272846805588 95.036554909051574 0 95.036554909051574 -0.0022947809373195338 0 0 0 0 -6.7337455178150094 95.697947591347543 0 95.697947591347543 -2.2756182430528042 0 0 0 0 -7.1729410939494755 96.266011393191889 0 96.266011393191889 -0.0026769231876642152 0 0 0 0 -6.0089678373105926 95.757795317750833 0 95.757795317750833 -1.8784323971410686 0 0 0 0 -4.5271610303063881 96.955497251397333 0 96.955497251397333 -1.8337221419938032 0 0 0 0 -6.2265101281979014 95.275080238107648 0 95.275080238107648 -2.3717762059341112 0 0 0 0 -3.5504176003653356 95.806880036407733 0 95.806880036407733 -2.3769207901427762 0 0 0 0 -3.9729976262196942 96.22641989769761 0 96.22641989769761 -2.5437271517692306 0 0 0 0 -3.0589394444659774 97.003693394675906 0 97.003693394675906 -2.5860543409337424 0 0 0 0 -2.8489966950669441 97.069686534517928 0 97.069686534517928 -3.5166211965510428 0 0 0 0 -2.526731375008012 97.535905154191084 0 97.535905154191084 -2.8620588028811653 0 0 0 0 -2.6681221344276764 97.460437902257752 0 97.460437902257752 -2.8417698138057403 0 0 0 0 -4.1079956371495427 96.79698703581721 0 96.79698703581721 -2.5815106766730942 0 0 0 0 -3.3013967274223432 97.767054682463709 0 97.767054682463709 -1.6449497729736322 0 0 0 0 -4.8800839459663621 97.304464076301656 0 97.304464076301656 0.0032662998842170055 0 0 0 0 -4.1350830345859322 97.074470846382042 0 97.074470846382042 -1.5899067840318821 0 0 0 0 -3.4078084662764923 98.176012722985774 0 98.176012722985774 -0.01766144711200468 0 0 0 0 -1.8593069393537007 98.385958037548335 0 98.385958037548335 -1.792349889608829 0 0 0 0 -2.4783194858632669 97.913467908259918 0 97.913467908259918 -1.6115509211604149 0 0 0 0 0.061753476634294202 98.924387784190003 0 98.924387784190003 -1.9405927013988276 0 0 0 0 -1.9565427695579274 98.932436973914378 0 98.932436973914378 0.061605165345099522 0 0 0 0 -1.6337845304760776 97.900780243990994 0 97.900780243990994 -2.4627664079647502 0 0 0 0 -0.018261788137806434 98.087149912995869 0 98.087149912995869 -3.5235278998707145 0 0 0 0 -1.5235725244044716 97.147474924061385 0 97.147474924061385 -4.4160951713347458 0 0 0 0 0.0043010929143747489 97.170825599673663 0 97.170825599673663 -4.9899146395621301 0 0 0 0 -1.5569960160154324 97.153562038845564 0 97.153562038845564 -4.0149946161968728 0 0 0 0 0.74378683190377615 55.10377242521173 0 55.10377242521173 1.2792009680553065 0 0 0 0 0.74897932207194251 59.061215286853894 0 59.061215286853894 2.7107892854156717 0 0 0 0 -2.0487089677039876 57.841110065370287 0 57.841110065370287 2.2347725057202297 0 0 0 0 -0.46200575169621061 55.151713770906724 0 55.151713770906724 1.625736169080028 0 0 0 0 -0.46016378991760121 53.244021610040534 0 53.244021610040534 0.26110260091991222 0 0 0 0 0.020635787693549901 54.059924127289833 0 54.059924127289833 1.0416300899868247 0 0 0 0 1.2680286458560905 56.434062294602306 0 56.434062294602306 2.6370690327227067 0 0 0 0 1.243006923368883 54.5003943909215 0 54.5003943909215 0.12449045942310022 0 0 0 0 0.071502490040870725 55.839665321355653 0 55.839665321355653 2.0614986733542082 0 0 0 0 2.4439240906136472 56.88366284959271 0 56.88366284959271 0.10804329101540588 0 0 0 0 2.5245808713622253 58.56766984277381 0 58.56766984277381 5.3675822462467977 0 0 0 0 4.1499444965872954 56.138707513089344 0 56.138707513089344 1.9895307763875394 0 0 0 0 4.1984138485126543 60.043117357521517 0 60.043117357521517 4.246129799818732 0 0 0 0 3.7806885817176408 58.377532986121764 0 58.377532986121764 2.4919035763758757 0 0 0 0 9.2118513512566551 58.292041653023148 0 58.292041653023148 4.5478947220216241 0 0 0 0 9.6137289148357468 65.517734243415305 0 65.517734243415305 5.6284671001076276 0 0 0 0 14.85088458974438 73.797330768028644 0 73.797330768028644 4.208497093025926 0 0 0 0 3.8397637859402494 64.588403835030078 0 64.588403835030078 3.4725677768484502 0 0 0 0 7.4254422948721146 63.300659400339036 0 63.300659400339036 3.7740569309091825 0 0 0 0 9.099926241704452 85.146504647274355 0 85.146504647274355 10.436420762098948 0 0 0 0 14.347254093785978 72.038949517994752 0 72.038949517994752 7.3794737168481106 0 0 0 0 18.498738556600529 78.329678190297557 0 78.329678190297557 4.6390486115124077 0 0 0 0 9.0594793471618686 70.788225530670388 0 70.788225530670388 3.1272693601335959 0 0 0 0 3.6616283364899118 80.600019467641232 0 80.600019467641232 4.3386363047838756 0 0 0 0 6.7006693002757629 82.551572310765266 0 82.551572310765266 2.2821238483506932 0 0 0 0 -7.2162886468870511 71.34960244266756 0 71.34960244266756 3.4909374835501694 0 0 0 0 -2.7898106613718028 81.933352050410576 0 81.933352050410576 2.3818879028513038 0 0 0 0 -5.6039353249968826 83.874276992846262 0 83.874276992846262 2.354521707203638 0 0 0 0 0.57252080583123188 63.172543710343916 0 63.172543710343916 2.9267543219733625 0 0 0 0 1.1450416116624638 73.21648443699587 0 73.21648443699587 2.8505252087896906 0 0 0 0 -2.0487089677041013 63.797684120822908 0 63.797684120822908 3.0786476112754144 0 0 0 0 -6.7485355321957741 62.915207365941058 0 62.915207365941058 3.6262600821365822 0 0 0 0 -8.7523513709411418 62.664740032723046 0 62.664740032723046 4.5834134595650085 0 0 0 0 -13.497071064391093 73.80364036221431 0 73.80364036221431 3.2953924174139502 0 0 0 0 -32.276314080717611 76.444179057975248 0 76.444179057975248 4.7765523384697417 0 0 0 0 -16.138157040358919 61.109621467667239 0 61.109621467667239 5.2230085074976387 0 0 0 0 -9.630766545456936 88.076398721472572 0 88.076398721472572 0.12836476469396985 0 0 0 0 -14.290670499099406 73.982681749232029 0 73.982681749232029 3.9939262140885603 0 0 0 0 -18.275619903660072 81.231005574696383 0 81.231005574696383 2.7508122253602778 0 0 0 0 -19.542789424635885 86.852091142132849 0 86.852091142132849 -0.021107265773196104 0 0 0 0 -30.622380038018093 77.196722917342811 0 77.196722917342811 5.016204202568133 0 0 0 0 -25.080126301624432 90.404666623710341 0 90.404666623710341 0.19218150697270175 0 0 0 0 -38.74063262937409 92.788631354414179 0 92.788631354414179 0.002347601055589621 0 0 0 0 -32.391581659264602 84.390234960816997 0 84.390234960816997 -1.4979227007205509 0 0 0 0 -21.764519520821295 93.575044249859388 0 93.575044249859388 -0.0037011662316217553 0 0 0 0 -15.344937413667267 60.183423655020192 0 60.183423655020192 6.0871764525411436 0 0 0 0 -68.485425125518304 81.415373289681952 0 81.415373289681952 7.0006239677356916 0 0 0 0 -34.242712562759039 56.125263845692814 0 56.125263845692814 5.6482190818512663 0 0 0 0 -18.388687199569972 51.017461284093883 0 51.017461284093883 0.0097988418604018079 0 0 0 0 -15.014322397475127 55.829923701810912 0 55.829923701810912 1.1189807419191311 0 0 0 0 -8.9527102875335913 51.558383633174117 0 51.558383633174117 -0.0031848477611400835 0 0 0 0 -7.0242401103753309 53.758038808379581 0 53.758038808379581 0.26359781433575336 0 0 0 0 -13.789594355251126 53.51374169437787 0 53.51374169437787 2.0046093748640033 0 0 0 0 -7.2305011129066088 56.319011068529051 0 56.319011068529051 2.2443163570986826 0 0 0 0 -6.5009334058601382 52.843868032170178 0 52.843868032170178 0.99134987052616452 0 0 0 0 -2.9656343851650924 54.079226470371623 0 54.079226470371623 1.221128366768653 0 0 0 0 -3.1802868907246875 57.909772759328746 0 57.909772759328746 2.5324759448434406 0 0 0 0 -8.1740837108963547 56.348661769271501 0 56.348661769271501 2.473312417192119 0 0 0 0 -0.032736899224123039 52.978308932809682 0 52.978308932809682 0.42545610751744789 0 0 0 0 -2.0878167500777636 52.371081480858265 0 52.371081480858265 0.438758631810515 0 0 0 0 -2.2307997649321578 54.079011454203282 0 54.079011454203282 0.98355657097226867 0 0 0 0 -0.13052244109809408 52.45197535768159 0 52.45197535768159 -0.21539183654641647 0 0 0 0 -3.1732114258981028 51.988858773349875 0 51.988858773349875 0.43116718899227635 0 0 0 0 -3.2434738108264582 52.978788519012937 0 52.978788519012937 -0.40051701364654946 0 0 0 0 -3.6341771868682713 51.727557026989814 0 51.727557026989814 0.00032865913840396388 0 0 0 0 -0.027483129687425389 51.575860021938922 0 51.575860021938922 0.00011693147234836943 0 0 0 0 -1.5614704538256774 53.087758930589871 0 53.087758930589871 -0.23990718071780748 0 0 0 0 1.6109436066452645 53.074497109167282 0 53.074497109167282 0.23670629513026142 0 0 0 0 3.6778120183610667 51.731288853371041 0 51.731288853371041 -0.00060284474488980777 0 0 0 0 3.2024900149840505 53.076188389668914 0 53.076188389668914 0.36576810662256776 0 0 0 0 2.7105199149782493 51.85551796748598 0 51.85551796748598 -0.37198566928407217 0 0 0 0 15.017262304880944 55.713484857018273 0 55.713484857018273 -1.0613084437270572 0 0 0 0 8.6023374335961194 51.544529517609249 0 51.544529517609249 0.0034636738758120717 0 0 0 0 6.9388001199300788 53.783112811955277 0 53.783112811955277 -0.32171884486444924 0 0 0 0 13.374915681172297 53.430656938755874 0 53.430656938755874 -1.9248939077401701 0 0 0 0 6.7854544340660539 56.101271844542673 0 56.101271844542673 -2.135549598431453 0 0 0 0 6.0872695778986952 52.757261016431855 0 52.757261016431855 -0.88570594185989648 0 0 0 0 2.9973945024469231 53.93526933390342 0 53.93526933390342 -1.1459116125982405 0 0 0 0 8.2374177979402248 56.198222867626612 0 56.198222867626612 -2.4229275359767826 0 0 0 0 3.0045542210827083 57.765727005757533 0 57.765727005757533 -2.5046853165349603 0 0 0 0 -0.13317609941926101 52.392901031036992 0 52.392901031036992 0.29060201130096175 0 0 0 0 1.8695358182340556 53.877468053872803 0 53.877468053872803 -0.86725037480556466 0 0 0 0 -0.032267303144555726 52.93303617174805 0 52.93303617174805 -0.36010882086134188 0 0 0 0 1.9422832860064432 52.384021167178105 0 52.384021167178105 -0.38808987350375901 0 0 0 0 0.41801496672172789 53.205147346085937 0 53.205147346085937 -0.19594670803860481 0 0 0 0 0.020711795257632948 53.994321425160415 0 53.994321425160415 -0.96255494529839325 0 0 0 0 0.41225476206592349 55.01249517368877 0 55.01249517368877 -1.5485084447802819 0 0 0 0 2.0524918686256228 57.762148894000234 0 57.762148894000234 -2.2201504208318283 0 0 0 0 -0.57820429190005562 58.914391154234892 0 58.914391154234892 -2.6761999722752989 0 0 0 0 -0.85696634632881796 54.969877435708781 0 54.969877435708781 -1.1924692972042976 0 0 0 0 -3.972953146490604 55.992325981804001 0 55.992325981804001 -1.9060803495959817 0 0 0 0 -3.995559514047045 59.763605907499482 0 59.763605907499482 -4.1673617281655879 0 0 0 0 -4.0190525168681575 58.219692322989999 0 58.219692322989999 -2.4197499157195921 0 0 0 0 -9.0075855539849954 58.132572320383304 0 58.132572320383304 -4.4086139040495596 0 0 0 0 -2.2016036269231449 58.360661814450509 0 58.360661814450509 -5.1389999788505634 0 0 0 0 -2.2064184619750336 56.913914241870259 0 56.913914241870259 0.18494547521754612 0 0 0 0 0.071522348642117095 55.771636990063975 0 55.771636990063975 -1.8898277767373202 0 0 0 0 -1.1611272311735661 54.489971703684034 0 54.489971703684034 -0.0059891418542861175 0 0 0 0 -1.1315639151495134 56.233156212094741 0 56.233156212094741 -2.5649794583073913 0 0 0 0 -3.6358921411605252 81.361549108996087 0 81.361549108996087 -4.2892461607772248 0 0 0 0 -8.6013583766166448 70.929634416537169 0 70.929634416537169 -3.1902853666315423 0 0 0 0 -8.484613103589993 85.340017406333232 0 85.340017406333232 -10.312908128436902 0 0 0 0 -18.250014162069419 79.19378210326056 0 79.19378210326056 -4.5471254855460188 0 0 0 0 -14.043124946892817 72.258719573261487 0 72.258719573261487 -7.3587757900133965 0 0 0 0 -9.5124749910326614 65.352125158954664 0 65.352125158954664 -5.6335977377660811 0 0 0 0 -7.4521660513126449 63.125465282612879 0 63.125465282612879 -3.8036888285420218 0 0 0 0 -3.5070767520739423 64.4739366838146 0 64.4739366838146 -3.5024521075903863 0 0 0 0 -14.904332102625176 73.949227834827184 0 73.949227834827184 -4.2501810651731375 0 0 0 0 -1.1960463880355734 73.233630449039197 0 73.233630449039197 -2.8568764706492402 0 0 0 0 -0.59802319401774184 63.152421545362927 0 63.152421545362927 -2.9435197053830962 0 0 0 0 2.0324158869297548 63.780877852980495 0 63.780877852980495 -3.0854877032668355 0 0 0 0 2.0010675808082397 81.596841108322451 0 81.596841108322451 -2.4024553889453273 0 0 0 0 7.0405956537542806 71.46216224565319 0 71.46216224565319 -3.5545178978627519 0 0 0 0 -6.4653654599358674 82.736235564301978 0 82.736235564301978 -2.2779403691781681 0 0 0 0 5.7442645767063709 84.248654280349228 0 84.248654280349228 -2.3328355746407397 0 0 0 0 9.5340949059240074 88.078363368613225 0 88.078363368613225 -0.17611636145420562 0 0 0 0 17.920843154265071 81.430571415676468 0 81.430571415676468 -2.5909846305918052 0 0 0 0 13.778370241927689 73.990777670385626 0 73.990777670385626 -3.9995254785726502 0 0 0 0 19.194660874634735 86.910686458601731 0 86.910686458601731 -0.035009845853210209 0 0 0 0 6.8238238375913056 62.89744956407884 0 62.89744956407884 -3.6303772081992065 0 0 0 0 8.4944026799872745 62.546063849061966 0 62.546063849061966 -4.586386498578122 0 0 0 0 13.647647675182498 73.70795108122843 0 73.70795108122843 -3.4179610775254332 0 0 0 0 32.17276354108526 76.436902248301635 0 76.436902248301635 -4.6741403185112631 0 0 0 0 16.08638177054263 60.997894648869305 0 60.997894648869305 -5.1809939037962067 0 0 0 0 15.536011256913611 60.133160280586125 0 60.133160280586125 -6.0413053472836964 0 0 0 0 68.441438537916795 81.402906775185684 0 81.402906775185684 -6.9311321359896283 0 0 0 0 34.220719268958419 56.145481604780684 0 56.145481604780684 -5.6253981636542676 0 0 0 0 18.323519406856178 51.004632079574378 0 51.004632079574378 -0.00989735196503716 0 0 0 0 24.933788358996708 90.438380220474187 0 90.438380220474187 -0.35347180940061662 0 0 0 0 30.596282761594466 77.190331794944314 0 77.190331794944314 -4.9446615884387484 0 0 0 0 38.675947703685097 92.821377834249461 0 92.821377834249461 -0.0025834199204837205 0 0 0 0 32.266318026423733 84.362359898775139 0 84.362359898775139 1.6186102429214202 0 0 0 0 21.467098389638238 93.669355272037933 0 93.669355272037933 0.0040594391216473014 0 0 0 0 16.736185077825183 89.831203609604927 0 89.831203609604927 2.5563226724807464 0 0 0 0 11.618597328995634 93.68689216092821 0 93.68689216092821 2.3000205360050785 0 0 0 0 6.6745712273383901 95.685608031966694 0 95.685608031966694 2.3091975789509291 0 0 0 0 9.519722720965774 93.565460839385651 0 93.565460839385651 2.1777743075590479 0 0 0 0 11.76034631635298 95.035819867764189 0 95.035819867764189 0.0020825629385399225 0 0 0 0 7.1505236888479544 96.256176281912076 0 96.256176281912076 0.0027521554178950884 0 0 0 0 6.0400403538620537 95.772960934503544 0 95.772960934503544 1.8046416471238445 0 0 0 0 4.5315455769669484 96.955245117255117 0 96.955245117255117 1.8315245265805515 0 0 0 0 6.2577803215830556 95.31968952422676 0 95.31968952422676 2.3404394137496638 0 0 0 0 3.9777331699576166 96.238739853794129 0 96.238739853794129 2.5488391209935344 0 0 0 0 3.5633159232971821 95.81226961039124 0 95.81226961039124 2.3997880326290044 0 0 0 0 5.9941994185628005 93.983244676849836 0 93.983244676849836 1.413207385643318 0 0 0 0 5.1057870743958915 93.300582649487751 0 93.300582649487751 1.7669431391773616 0 0 0 0 10.577761756258496 88.985242354924708 0 88.985242354924708 -0.1703351581932111 0 0 0 0 10.456674075076336 92.508479895869641 0 92.508479895869641 1.7616338350626393 0 0 0 0 1.6251152879265334 97.900042866119293 0 97.900042866119293 2.4572704830691237 0 0 0 0 -0.061748859886652532 98.931819261051103 0 98.931819261051103 1.9219716685820458 0 0 0 0 1.9416825419968546 98.941771348743487 0 98.941771348743487 -0.061555557919162764 0 0 0 0 2.4631793902520656 97.93343121005563 0 97.93343121005563 1.5987786622781641 0 0 0 0 1.8557453661058929 98.409710106433749 0 98.409710106433749 1.7181755057267196 0 0 0 0 3.3890697852597782 98.178005475096143 0 98.178005475096143 0.017616265917695273 0 0 0 0 4.1586225404261938 97.083320349339374 0 97.083320349339374 1.5222501825176096 0 0 0 0 4.8596650447780121 97.299963317232368 0 97.299963317232368 -0.0032933651815626359 0 0 0 0 3.2835379240436282 97.796721608277949 0 97.796721608277949 1.5990578226511332 0 0 0 0 4.1075172981019534 96.822221128281058 0 96.822221128281058 2.5582487605106508 0 0 0 0 3.0924698161470587 97.04607549149955 0 97.04607549149955 2.5659783177730162 0 0 0 0 2.8409677770668367 97.089168465328783 0 97.089168465328783 3.5264163961956001 0 0 0 0 2.5146450905029596 97.584146534985393 0 97.584146534985393 2.8055186702945321 0 0 0 0 2.655952393252285 97.482145567887471 0 97.482145567887471 2.7818985235667242 0 0 0 0 1.499462500572136 97.176628228254003 0 97.176628228254003 4.3937610790708277 0 0 0 0 1.533159524422544 97.16109772481559 0 97.16109772481559 4.0225183383759031 0 0 0 0 -0.0043534202673850692 97.136968102460401 0 97.136968102460401 5.04370525781178 0 0 0 0 0.018272097373214849 98.120793139672855 0 98.120793139672855 3.4705817974356705 0 0 0 0 0.0043840429322059699 96.144197649495595 0 96.144197649495595 7.2416353607695783 0 0 0 0 1.558982414529396 95.7318664360497 0 95.7318664360497 6.2433433469504962 0 0 0 0 2.1667606842587048 96.775696625147589 0 96.775696625147589 4.3333374828807791 0 0 0 0 2.7365750847679067 94.659033409387803 0 94.659033409387803 5.6158668571685553 0 0 0 0 2.1079143888218823 96.371966452862125 0 96.371966452862125 5.6973017258353593 0 0 0 0 2.6004449396344427 96.313176782116329 0 96.313176782116329 3.4410166420016139 0 0 0 0 2.5991780763967256 96.216824961161024 0 96.216824961161024 3.7522516231413192 0 0 0 0 1.4961365611896724 93.713546729640257 0 93.713546729640257 3.7055965207023291 0 0 0 0 0.34542335148157122 91.137342952157837 0 91.137342952157837 7.6577893570749893 0 0 0 0 1.1030192613116299 90.545757150067061 0 90.545757150067061 7.3636054579821746 0 0 0 0 1.066717670818818 92.795002831661577 0 92.795002831661577 14.878614900102548 0 0 0 0 1.8803905193734494 95.061803489495389 0 95.061803489495389 7.1697208760281228 0 0 0 0 1.5252919359491983 95.008503099734298 0 95.008503099734298 10.067486546917735 0 0 0 0 3.293076459938959 92.35057014564029 0 92.35057014564029 10.313646285467996 0 0 0 0 1.4824576390335409 90.609044051026672 0 90.609044051026672 17.576138052492752 0 0 0 0 -0.00037661676688785506 94.589621455425458 0 94.589621455425458 12.110804170212987 0 0 0 0 2.2837059697606921 93.721981817951871 0 93.721981817951871 9.2167134053720474 0 0 0 0 -2.8674543348193424 88.953580690931176 0 88.953580690931176 -0.73692259841441743 0 0 0 0 0.36645243005406769 88.282138515861334 0 88.282138515861334 -0.17179838951278725 0 0 0 0 1.2309822124539096 93.12449108577664 0 93.12449108577664 1.3997178209101548 0 0 0 0 4.0503754155447496 91.302114849999043 0 91.302114849999043 -0.75010820813456558 0 0 0 0 3.0409577409687358 94.709902738758785 0 94.709902738758785 1.3921700175853857 0 0 0 0 1.9623418149823806 95.304088741923465 0 95.304088741923465 2.5451376674206561 0 0 0 0 -0.3039217178521767 92.016149981458511 0 92.016149981458511 1.4392418542870971 0 0 0 0 1.4595493522279241 93.968426814009831 0 93.968426814009831 2.917718130858475 0 0 0 0 -0.79385279269115472 88.835444594341766 0 88.835444594341766 3.1481660261469173 0 0 0 0 -0.60876631105955425 89.587671881771882 0 89.587671881771882 -0.16539125533722654 0 0 0 0 -2.9755383616288782 88.251213964800854 0 88.251213964800854 -6.6518541515486049 0 0 0 0 -3.3489830908571321 87.010377421270846 0 87.010377421270846 -1.2026051399365656 0 0 0 0 0.75283569928737393 91.917786638870098 0 91.917786638870098 -1.3155303660348636 0 0 0 0 -0.32212813611471347 87.755805177433388 0 87.755805177433388 -4.1988126146197828 0 0 0 0 -8.7653127042470942 83.843534567743973 0 83.843534567743973 -4.2916771936700719 0 0 0 0 -7.0130138415943861 84.440324050548668 0 84.440324050548668 -16.66064101513075 0 0 0 0 -6.7139206569970042 71.457390978810054 0 71.457390978810054 -17.141593727307281 0 0 0 0 -3.6191757402992835 71.32054951881571 0 71.32054951881571 -6.3696167795967336 0 0 0 0 -5.8318973396641525 80.552321502805341 0 80.552321502805341 -6.7090806536716627 0 0 0 0 -2.8717334634285123 83.251537249928106 0 83.251537249928106 -6.3653030779639721 0 0 0 0 -2.9011866341045334 81.380698954905029 0 81.380698954905029 0.32034082161484179 0 0 0 0 -1.6658309950999239 83.796496924994528 0 83.796496924994528 4.9175260366569091 0 0 0 0 -3.2590913683104077 71.85859477900533 0 71.85859477900533 5.3665970734352868 0 0 0 0 -2.8322340310020309 73.458206732009558 0 73.458206732009558 -1.2988731343752988 0 0 0 0 -3.2292624299569468 63.778933283206356 0 63.778933283206356 2.2164906595352249 0 0 0 0 -2.927516742426576 63.243193728450876 0 63.243193728450876 -0.64943656718743936 0 0 0 0 -3.8151794686826577 62.996159926309929 0 62.996159926309929 -7.3777674261989867 0 0 0 0 -3.3415080879727981 64.454199794809853 0 64.454199794809853 -3.6156750116883813 0 0 0 0 -5.8097993562494423 65.384155578692884 0 65.384155578692884 -9.4925182878816941 0 0 0 0 -4.2385540885812532 74.267688769289293 0 74.267688769289293 -14.755534852398114 0 0 0 0 -0.0036399013632078953 92.951913692735047 0 92.951913692735047 38.612247844978697 0 0 0 0 1.2847910556155853 84.595007476605133 0 84.595007476605133 32.321950883476575 0 0 0 0 0.0061664807253989234 93.680146181408645 0 93.680146181408645 20.496994198489801 0 0 0 0 -5.0832644238726346 76.89061203268227 0 76.89061203268227 31.023987996039125 0 0 0 0 -0.67719839903236334 90.222294210400293 0 90.222294210400293 28.139173022541854 0 0 0 0 -0.25059852131759897 85.654006531087134 0 85.654006531087134 15.741790790079676 0 0 0 0 -1.7773319812768023 83.002007746446225 0 83.002007746446225 8.0180077631016147 0 0 0 0 -1.3537045809164567 86.245598076421061 0 86.245598076421061 17.376673671413755 0 0 0 0 -4.1126741871532886 73.226697267455847 0 73.226697267455847 18.096301458278177 0 0 0 0 -3.4115433821200298 74.070497552701511 0 74.070497552701511 13.26787731307104 0 0 0 0 -4.5451029138782744 62.695783474672908 0 62.695783474672908 8.9190265967280311 0 0 0 0 -3.6910434772521512 62.842281297520856 0 62.842281297520856 6.6339386565354763 0 0 0 0 -5.2399436989259129 61.088479036214295 0 61.088479036214295 16.301857989761515 0 0 0 0 -5.2554301418301748 76.522096336889774 0 76.522096336889774 32.603715979523031 0 0 0 0 -6.0548061139715159 60.182127635945051 0 60.182127635945051 15.485502878292209 0 0 0 0 -5.625152483526084 56.108705785687789 0 56.108705785687789 34.223855966174142 0 0 0 0 -0.0095998856474148395 51.031640513645243 0 51.031640513645243 18.454172824195211 0 0 0 0 -6.7797230831883164 81.422223239975324 0 81.422223239975324 68.447711932348057 0 0 0 0 0.0031870421822104145 51.569903480667676 0 51.569903480667676 8.8925083191277281 0 0 0 0 -0.2563610854527596 53.730795354219538 0 53.730795354219538 7.0363627452575201 0 0 0 0 -1.0893327840543492 55.803551502076573 0 55.803551502076573 15.041450350389113 0 0 0 0 -1.9579576057983843 53.492580643141821 0 53.492580643141821 13.868881957803239 0 0 0 0 -0.94562918522278494 52.782001878904907 0 52.782001878904907 6.4444142638670456 0 0 0 0 -2.1787063473749413 56.239582411729344 0 56.239582411729344 7.2037884870758262 0 0 0 0 -2.4431088111200836 56.244131398350532 0 56.244131398350532 8.2402298665119247 0 0 0 0 -2.548260449435702 57.862054592078721 0 57.862054592078721 3.1381107879341243 0 0 0 0 -1.191393308786914 53.996260514586652 0 53.996260514586652 3.0091036191130343 0 0 0 0 -0.94176630079815027 53.969090337144763 0 53.969090337144763 2.1116897397038201 0 0 0 0 -0.33313063828137501 52.904435398217629 0 52.904435398217629 -0.065142657864012854 0 0 0 0 -0.37346611494955084 52.313719988398105 0 52.313719988398105 1.926180852934408 0 0 0 0 0.23811047295102128 52.441433186520442 0 52.441433186520442 -0.06285351695932917 0 0 0 0 0.40177700970339103 52.98332503971767 0 52.98332503971767 3.1716909731460419 0 0 0 0 -0.41316421606780906 51.92142246907747 0 51.92142246907747 3.0247235156093666 0 0 0 0 0.21498237945824883 53.064903468428895 0 53.064903468428895 1.5920796486335576 0 0 0 0 -0.0003449555476395969 51.737988350297918 0 51.737988350297918 3.5483253632315837 0 0 0 0 -1.9087583139330206 55.986740025737674 0 55.986740025737674 -4.0163168054667739 0 0 0 0 -4.4261182723016645 58.136114178458513 0 58.136114178458513 -9.0011898931536507 0 0 0 0 -4.1887189682283861 59.764175749373237 0 59.764175749373237 -3.9912526761663876 0 0 0 0 -2.4411814583711902 58.225420115677906 0 58.225420115677906 -3.9949020055069013 0 0 0 0 -2.706798848804965 58.951953992386507 0 58.951953992386507 -0.52459756224197918 0 0 0 0 -2.2434207854983015 57.796732495212439 0 57.796732495212439 2.0813137734080982 0 0 0 0 -1.2075425035801572 55.008456708588653 0 55.008456708588653 -0.94407239641569873 0 0 0 0 -1.5674457090460123 55.042605432417162 0 55.042605432417162 0.43562850992702806 0 0 0 0 -0.18100563723864127 53.17843347280143 0 53.17843347280143 0.42822463192112536 0 0 0 0 -0.96511776377980141 53.971488805116508 0 53.971488805116508 0.022472630264620541 0 0 0 0 -0.0057579931555835628 54.47603227150563 0 54.47603227150563 -1.1596329232125981 0 0 0 0 -1.8955498515302907 55.758237642179211 0 55.758237642179211 0.071007921225266557 0 0 0 0 -2.5562126287166222 56.234483016930227 0 56.234483016930227 -1.1312166509211465 0 0 0 0 -5.1428371427682862 58.34848162658929 0 58.34848162658929 -2.2007412669145197 0 0 0 0 0.18343359019880268 56.899487562315869 0 56.899487562315869 -2.2037857645825625 0 0 0 0 -3.3334302071151001 59.288309479712836 0 59.288309479712836 0.071683765056359761 0 0 0 0 -0.99583230998982231 60.107988458560584 0 60.107988458560584 -2.2326970082805246 0 0 0 0 -3.9842668997520292 66.054765083363634 0 66.054765083363634 -1.0350546006631021 0 0 0 0 -9.402865967245134 61.476801424473649 0 61.476801424473649 -2.4399828596642408 0 0 0 0 -4.3018320837435908 58.007012651053458 0 58.007012651053458 -5.916091221440638 0 0 0 0 -6.7245242196464972 65.709579056067355 0 65.709579056067355 -5.565386558650971 0 0 0 0 -14.259267760444857 67.00621417957268 0 67.00621417957268 -12.891637969438875 0 0 0 0 -10.683894379141861 58.244885603026859 0 58.244885603026859 -11.948865195283702 0 0 0 0 -8.6086590332323567 61.621231026222006 0 61.621231026222006 -6.7157567452048426 0 0 0 0 -26.199571978485665 74.198072256791875 0 74.198072256791875 -15.294607024262405 0 0 0 0 -29.124490433603238 78.686957134509242 0 78.686957134509242 -8.6955076306549017 0 0 0 0 -14.562245216801671 62.76979371656239 0 62.76979371656239 -6.6674184392792881 0 0 0 0 -16.227642085256207 72.411968014611489 0 72.411968014611489 -5.6612134179000577 0 0 0 0 -13.508800612575154 75.568805524306484 0 75.568805524306484 -3.0047861364246273 0 0 0 0 -6.7544003062875504 63.975112960573085 0 63.975112960573085 -2.5670458023006404 0 0 0 0 -5.0100131185447481 72.16725193760243 0 72.16725193760243 -1.816785125454544 0 0 0 0 -5.5910917717446864 84.605355433327418 0 84.605355433327418 -1.4007017544461178 0 0 0 0 -5.7608034863628745 89.006206257762642 0 89.006206257762642 -2.3802939286401852 0 0 0 0 -5.774985786950765 81.797277710248068 0 81.797277710248068 -4.5211782141188905 0 0 0 0 -0.0081515726910765807 90.534855414347817 0 90.534855414347817 0.012573022564879466 0 0 0 0 -1.26457180214868 90.847731385019927 0 90.847731385019927 0.070138429752660159 0 0 0 0 -1.2645336203904662 87.415691111714807 0 87.415691111714807 -2.0323357212566862 0 0 0 0 0.090013348558992456 89.008702940203534 0 89.008702940203534 -2.5045283065530839 0 0 0 0 -3.057978817129424 87.661804199711014 0 87.661804199711014 0.21623294002279181 0 0 0 0 -3.0580090208151298 84.946913626249014 0 84.946913626249014 -7.7930471790214142 0 0 0 0 -3.0321984914714903 79.881797669104799 0 79.881797669104799 -16.789324530727413 0 0 0 0 -2.7317649010535661 82.01731247464329 0 82.01731247464329 -2.0747629192377417 0 0 0 0 0.090440824006989828 83.427332893017535 0 83.427332893017535 -5.5163661196634166 0 0 0 0 -15.272461325096522 85.924581490878055 0 85.924581490878055 -6.1506620097918585 0 0 0 0 -8.8735804474455335 86.35492439825731 0 86.35492439825731 -7.4813037012402219 0 0 0 0 -10.232229325155572 80.347599148588642 0 80.347599148588642 -13.197583265438652 0 0 0 0 -20.838788801878309 88.515400655544909 0 88.515400655544909 -19.4848627431968 0 0 0 0 -15.22814659060964 74.341680916123551 0 74.341680916123551 -25.571430254709867 0 0 0 0 -6.3388232832054427 73.115603389428941 0 73.115603389428941 -12.645790756524775 0 0 0 0 -7.8604828753356628 78.210208924027796 0 78.210208924027796 -29.12616675930667 0 0 0 0 -6.5572491422103667 62.641681605833867 0 62.641681605833867 -14.563083379653134 0 0 0 0 -1.1561667506780395 71.510438709451705 0 71.510438709451705 -7.322501178790958 0 0 0 0 -2.6662457623230011 74.768273769119219 0 74.768273769119219 -13.781865748599103 0 0 0 0 -2.5527775399829125 64.146026760433358 0 64.146026760433358 -6.8909328742995752 0 0 0 0 -2.2324977872206091 60.112169645831159 0 60.112169645831159 -0.96714484049815042 0 0 0 0 -1.2302885263454755 66.141304256876253 0 66.141304256876253 -3.8821207225661283 0 0 0 0 -2.4459090865149591 61.514689493203804 0 61.514689493203804 -9.4366788544143674 0 0 0 0 0.079225812350843583 59.299350207769699 0 59.299350207769699 -3.3314001436511944 0 0 0 0 -12.874934095819526 66.940365136144237 0 66.940365136144237 -14.258152374681458 0 0 0 0 -11.903290207430246 58.17474733387229 0 58.17474733387229 -10.683845475764883 0 0 0 0 -5.3481371921087089 65.71864231053209 0 65.71864231053209 -6.7759712617850028 0 0 0 0 -5.875561336471776 58.014399370812612 0 58.014399370812612 -4.3137473651720484 0 0 0 0 -6.6732601072069855 61.581771471091393 0 61.581771471091393 -8.5587434816735595 0 0 0 0 -14.909063457321338 62.212375064700893 0 62.212375064700893 -7.4425768916624975 0 0 0 0 -30.007403518923411 62.066647995695689 0 62.066647995695689 -14.598472995805821 0 0 0 0 -14.999576221846795 66.859490178648201 0 66.859490178648201 -13.100536607423919 0 0 0 0 -60.014807037847049 89.825201311970886 0 89.825201311970886 -22.692961630259674 0 0 0 0 -29.818126914642718 77.338544393431661 0 77.338544393431661 -8.8871319665718147 0 0 0 0 -26.346166595389604 73.713499942228395 0 73.713499942228395 -15.409120139662036 0 0 0 0 -14.023749046465355 79.237636508827222 0 79.237636508827222 -11.39422325277738 0 0 0 0 -20.144143388765201 87.486212023400185 0 87.486212023400185 -22.475564630896542 0 0 0 0 -15.686600869299809 73.684154455603334 0 73.684154455603334 -26.381667111170771 0 0 0 0 -22.916121925989188 89.71474451306949 0 89.71474451306949 -60.012560339848278 0 0 0 0 -9.4371832707469707 77.444620321962475 0 77.444620321962475 -29.932617084469712 0 0 0 0 -7.5030880005415099 62.334544909280453 0 62.334544909280453 -14.966308542234742 0 0 0 0 -13.091964326822051 66.914893639013769 0 66.914893639013769 -15.030702087901659 0 0 0 0 -14.607158030819491 62.104379540511133 0 62.104379540511133 -30.006280169924139 0 0 0 0 -29.907953881796118 61.986526407267775 0 61.986526407267775 -14.469778052490994 0 0 0 0 -22.284865589265479 90.23338079707969 0 90.23338079707969 -59.73322556608764 0 0 0 0 -59.815907763592236 90.113562679102984 0 90.113562679102984 -22.441819627713812 0 0 0 0 -14.455478198106633 61.924755228906349 0 61.924755228906349 -29.866612783043706 0 0 0 0 
</DataArray>
<DataArray type="Float64" Name="displacement_divergence" format="ascii">
-0.01881727012789669 -0.018616934388208359 -0.040656106493959565 -0.035769221719279598 -0.040856116078675564 -0.034911423801709342 -0.050409653608686995 -0.055651348878351325 -0.058885051663977284 -0.05442574472547701 -0.053299274115861772 -0.063725978700505115 -0.056643625078693693 -0.066723273803924288 -0.048888138881303722 -0.056856043830682768 -0.048616550872629061 -0.034107063856550157 -0.13371470132534646 -0.19025000459401487 -0.11541598110543816 -0.11907893429918054 -0.11403078294032876 -0.07267649461839637 -0.07825736126714318 -0.065078851401115578 -0.077363780885232103 -0.062707584813687989 -0.060455734373197068 -0.051136563242236033 -0.083249708724048244 -0.088367591617688701 -0.079541006067952003 -0.083300459667452476 -0.15544072604178777 0.006506890837568724 -0.021844518806715119 -0.043509291939622052 -0.011067723928606998 -0.045266543887005239 -0.044547699508715066 -0.033292666493236478 -0.026230766498992253 -0.0024661257414750892 0.037017626069217435 0.0053421338929093842 0.046050801024628552 0.13353539994484986 0.046577709783421462 0.096004455170836778 -0.071620590258645311 -0.078516033580321221 -0.063691457376062299 -0.06528217922300561 -0.059747574399900305 -0.086075770366692339 -0.12222256715467594 -0.069096912266762622 -0.074308612844617983 -0.10417490615920144 -0.13924872970759683 -0.089960571392940114 -0.11771151711226313 -0.11702660759817718 -0.19296415660290389 -0.21478430757952749 -0.24586047470547889 -0.25632194122002971 -0.38672719619957485 -0.3387382425940979 -0.61486459038708396 -0.18502299902489483 -0.57197489109469934 -0.36750890235638334 -0.063509226203057878 -0.082310366897675208 -0.21720896083617447 -0.27529172979422539 -0.1024531655620029 -0.097854631609444631 -0.15338089119294152 -0.19172870470664227 -0.093438313922497684 -0.033418450288503543 0.088126734872684409 -0.035093503909972457 0.0038327470901142746 0.19319622824741778 0.1185528595284655 0.080190535470886282 0.21838794855673349 0.23009821049352208 0.191004961845608 0.14597463287894108 0.22479825686936158 0.30409643023539523 0.040496398320278182 0.070322429173477169 0.01856207411545352 0.0059910282201609544 0.067080911262179299 0.042587543770017555 0.27411276074522117 0.12667147234120216 0.16791245788479969 0.12336915962188766 0.15419275238050645 0.076932887167366459 0.042123378799900024 0.027210954731952341 0.050493343763704956 0.021429960418554828 0.021315456896720875 -0.004223925360731684 0.0071109737485475222 -0.026336634810546905 -0.0060061081506166403 -0.036004818247913684 -0.036342095722491585 -0.00067196093405019752 -0.075709558883992223 -0.075464922824387659 -0.055861868825497041 -0.17620131268560391 -0.13479959676200437 -0.27839134070563176 -0.23751752215103261 -0.096478684452164565 -0.013613466748141789 -0.1178376712509403 -0.036467385760285964 -0.11275144341464483 0.21587764302665402 0.23802554012778643 0.41054727536827507 0.16740715291646602 0.20233902291299 0.05555783741046838 0.053818125397263827 0.028641713395167301 0.10918395491506683 0.023571919314511192 0.011747510689589902 0.033956814944470892 0.0002796501640123239 0.082426748736650346 0.10651976999120727 0.00092581501962296642 0.069874724138976774 -8.6871777009278617e-05 0.068973808874877918 0.00067901156880889602 0.19067156121794326 0.16448321227705076 0.072545999985746956 0.075602945730148363 0.1043986374710375 0.24805573932380653 0.21374085351572347 0.25111675338674821 0.54371427408628659 0.46043443747041302 0.31067977383908896 0.22351400525159448 0.42839468534261771 0.41389443953317429 0.37900704305192789 0.82082665636843632 0.82350560871067557 0.88786399105312697 0.88756498736666334 0.44736701763130071 0.89319792637004536 0.559326519061631 0.82754029609207702 0.38924912748927165 0.41811948185658032 0.41908041007787666 0.43509274151516975 0.25906421226121523 0.55870381021978055 0.89298286159566231 0.82969574199461782 0.39412748636697303 0.45001555394747328 0.31109691975058196 0.21355048924031816 0.24861386569875243 0.46103995883536708 0.54398334720846586 0.42698114451808244 0.19338231598913325 0.37096722787646108 0.40808381409620842 0.086233554579314031 0.16683383203641089 0.1917346154584787 0.0012814954536279899 0.075176560324913488 0.10785326867986456 0.2492055732611842 0.072772535824390694 0.0505824453230872 0.042433355220546254 0.027355269099259782 0.077226099241118451 0.15460345976790268 0.27390540349832948 0.16794367192592752 0.12754510493684523 0.12355540894883266 0.042835402820182278 0.067293369261713032 0.0061946079862280623 0.021670744633342398 -0.004155778715716707 0.021558165534140805 0.12850674003813456 0.091316416716561877 0.23670207054148129 0.24261822993276105 0.099719062781349344 0.18950621338345996 0.30707576200979236 0.22327740229167947 0.14358729516202962 0.071282199353701614 0.021325097794121506 0.041035464211328421 -0.019898829195663437 -0.034614594775680851 0.028059557737303065 -0.15454282884451681 -0.15782551426661873 -0.059816650195772425 -0.13635784172448906 -0.27405190626405451 -0.099147311588722475 -0.059964610457229117 -0.083680927343148581 -0.22137739523663591 -0.18622132764801647 -0.36797064687193581 -0.57240514015218835 -0.61650731577476969 -0.26944772683971718 -0.2599565139366824 -0.38565296753802986 -0.33594841844920131 -0.20249549997662633 -0.0060363887765303992 -0.03600226565611786 0.007211491208306775 -0.026389203174790321 -0.036513934531997361 -0.013022490523347807 -0.11767432924454901 -0.097422489792789613 -0.11281191160977599 -0.23841359426477537 -0.27906152076244878 -0.13519947328578208 -0.17648402275850442 -0.075799873258263609 -0.05590698081570078 -0.075792421148123235 -0.00066112006878220483 -0.03648677717620178 0.036166866300725631 0.071001615155303691 0.071553567753326552 0.052246751888359644 0.0035445604066310921 0.023483493402235656 0.031122338330033195 -0.0078958229121104395 0.011915284621057287 0.11588927262947823 0.036465414847328903 0.11003143324624354 0.10063912468690028 0.23829619060373392 0.13568857155981556 0.17798980298979475 0.27927130804990974 0.57247250525600735 0.36908523863474391 0.61661017712027366 0.18870431386190978 0.20618352836047565 0.33639267723997979 0.38718238631901652 0.27441472922650867 0.26213029566088097 0.15824335837702042 0.14371064318343629 0.15869344514926809 0.061630121755715139 0.22106107578392398 0.27314544836028509 0.097764616198459775 0.05862036763794265 0.08780468384422746 -0.020311838857308695 -0.041650665064505432 -0.071552181100334344 0.03549386909625829 0.022473102410252022 -0.023098464974780519 -0.093303409677357507 -0.12172296700076402 -0.095210441008565461 -0.23747595102916952 -0.23163542661305847 -0.22335473495010039 -0.13853131062166768 -0.19010989978802595 -0.30566172086346111 -0.26818660613464695 -0.16321727904894967 -0.12853491203617518 -0.11810483059037402 -0.14685376050764232 -0.040120102684467529 -0.036360928793560454 -0.023047204489551554 -0.073615744349604606 -0.018745505462901324 0.0051130483134753657 -0.022520542208114502 -0.0031223665117932065 -0.064415349533892829 -0.04280400006941365 0.048946682014517684 0.056582797862875234 0.048741091744983311 0.034147009546394713 0.040586140105873025 0.018583782318225054 0.01879709984016964 0.040870095180118748 0.035677643749534305 0.03513205437048824 0.055352379889032965 0.049772498513878986 0.05812032247847454 0.054241028799174584 0.053096905252174142 0.066921447412612967 0.056609631000045679 0.063117599449088679 0.063130925425441298 0.052576830415908438 0.083085735943261074 0.076142389591777937 0.060425460604565995 0.064806096905388633 0.077630420782107024 0.071886635302398888 0.11261972523842806 0.11499661980233684 0.11714674709722839 0.19134675743402438 0.1324664968839846 0.15656538483151938 0.086148678416200664 0.082749628829646094 0.079971895830994733 0.022557671620258901 0.044696101131550758 -0.0080637721686080965 -0.042973264944051515 -0.091581293490009763 -0.1251986960159952 -0.036912767621909648 -0.0020933167354240112 -0.03172371003554586 0.0089570502218734305 0.029333934181996923 0.037864534980343478 0.047298051788601914 0.013054730657149127 0.046508291099843779 0.066451618273929203 0.087071482026777947 0.060696911332966064 0.077051321333076572 0.072425350319234916 0.10894756585749787 0.12438687592616482 0.09062126341203447 0.14167737653179291 0.19355746666061258 0.11803753917643789 0.11719440125228076 0.072096088336125463 0.063753199037859476 0.07831152835102051 0.36672364510929079 0.57228826474963235 0.18785854121472667 0.61458864902299448 0.38718251593343922 0.33908670617185876 0.21567418631437185 0.25830601999957903 0.24879269407291371 0.19548104585448156 0.098496709571851859 0.16205806611369411 0.10335115698748565 0.10216184542548135 0.27484865540564041 0.21852346448869001 0.063365407034831733 0.077943743999417947 -0.020252269621876789 -0.070305483141722469 -0.040380709390889891 0.0027647415115099605 0.04004984605026074 0.040176426327916737 -0.08256526639972428 -0.07049455346428668 -0.11394232404291582 -0.17960465146859672 -0.21906063604510351 -0.20922762749205415 -0.18977896247810655 -0.14689284158473548 -0.2269932203082328 -0.30623769852574956 -0.28098515898066001 -0.12706776488319907 -0.17391187173787337 -0.12639990621052422 -0.16095946709335252 -0.053712032166284729 -0.028161886747549048 -0.0457497548871931 -0.082126396622470565 -0.022550820291202811 0.0038610333973192468 -0.023872145632054753 -0.041021205499236046 -0.069646505352244148 -0.0038888222062100006 0.11610498135825961 0.0098991137328585666 0.094825811577033292 0.10667619417162655 0.035761193728580699 0.023448577618117028 0.033105122345304494 -0.0078241021966238833 0.0066145978174674269 0.0725820329405229 0.052475567051948002 0.036398336643642892 0.00093219012966549997 0.074100982522582015 0.1333908026774715 0.17440290854899398 0.23046161694337708 0.27823839267737327 -0.42268635646020908 -0.40740432050937692 -0.19543603699597067 -0.3719148299365676 -0.089510906765445597 0.00036546947770030742 -0.16554716478657561 -0.18809483908376512 -0.23791345182684864 -0.10359943912963843 -0.063822666070098011 -0.064939424526107459 -0.20370381096036727 -0.24293916734680376 -0.54294258151105712 -0.452333041419819 -0.30571479683214431 -0.44881317574621393 -0.39287580831750457 -0.82909063048338938 -0.56229201766707426 -0.89301792058639773 -0.25027393093429495 -0.41822010675992338 -0.42237583270606738 -0.41571860821028661 -0.38406729421163988 -0.82671183850242436 -0.56244018045348732 -0.89201022477702541 -0.45210283815561608 -0.88656606143279593 -0.88791538979023965 -0.82390681091840889 -0.82177717389401794 -0.41054226274301042 -0.37806063195919748 -0.43021914740466727 -0.22046320570995803 -0.31745042566008053 -0.46422902457891002 -0.54298272557701166 -0.25442784548963093 -0.22182823260414175 -0.25212036434073859 -0.10846302239229288 -0.077072231538433789 -0.073904256977042948 -0.16386358053904448 -0.19090149842893922 -8.0493689603500229e-05 0.0002737894020432563 -0.071764470386799672 -0.067854444663188573 -0.08480224744410414 -0.10677930483497544 -0.22004383797991345 -0.17379781185808518 -0.2386873485407115 -0.41623961349919369 -0.056612280641089807 -0.062024222925473715 -0.2095029959284096 -0.11657766373820611 -0.036206721155770616 -0.027859144197281083 -0.034710397009196647 -0.014507499396051671 -0.00019892027576950966 0.014225224648726886 0.034479036607679703 0.027766654635174248 0.03622444470678321 0.11384537080536461 0.20769800052580578 0.05706980440919196 0.060158095579017967 0.2381063904372418 0.41130205495227301 0.17158089882929595 0.21902978460167244 0.10585216596914648 0.085427046711819443 0.00020444322999857434 0.067825542838311215 0.00022780092334429014 0.071522837198164879 0.19231693081889034 0.16413879888605987 0.063898763008824688 0.10343917938810776 0.072857220412306134 0.24283406211645486 0.20825794937283781 0.25064835807871333 0.46071185695294936 0.54280120323580405 0.31130597136784743 0.21951675398129034 0.42715842848395891 0.37902121842648651 0.41270053183793465 0.82087948930538523 0.8235198932839749 0.8876517192000648 0.88872052665866086 0.45028514803264663 0.89431585729177243 0.56146457236352232 0.82884604498277525 0.39584564101978259 0.42335871805006065 0.42999008612091849 0.41718818372341104 0.26003645142641219 0.89327493331548702 0.55688264032681634 0.82716461390372054 0.38843238794037838 0.44755434775164105 0.31098726064758608 0.46597147429611141 0.5416479891184558 0.24916186136574581 0.21549287751835777 0.074658348980369382 0.10923779331262118 0.075389412908512199 0.25092422512882884 0.19113525531331454 0.0010826752449482058 0.089097946261567529 0.00066859839173005753 0.16676708851684374 0.37208776178976777 0.19461225719626007 0.4089738484970673 0.42558364945616312 -0.27965556926811885 -0.22429446977758261 -0.16969370851923493 -0.13321329716222241 -0.068711003663299408 -0.036805029271990364 -0.047165905274670905 -0.068681972675420866 -0.0039246767573800634 -0.029724268642709717 0.0080559059461919429 -0.020803838012968142 -0.03478639433283881 -0.10127732572023262 -0.094457615834991016 -0.11274761229654473 -0.007737212548487804 0.0012479396832921208 0.070157917199997755 0.03997425784297981 0.023161179853206093 -0.0043419322311439856 0.018888654527323426 0.076069214072069943 0.022588728476900855 0.037323888266177982 0.042640657252293934 0.14759521503939635 0.12065024208776443 0.12812905845643208 0.16827138617735093 0.270224627041177 0.31113889705748354 0.22353392966325636 0.14118226243715404 0.19152827506974388 0.24082025446539745 0.24321655642664197 0.13061946438259847 0.092702621127752849 0.10066511679914925 0.028286565014312259 -0.034722713397210114 -0.019651178718348206 0.041524560855680903 0.071614475853468917 0.026959463714229859 -0.079137677485679236 -0.060729139301933799 -0.22267064986041518 -0.27362814348124864 -0.099164775570342201 -0.13543083746573004 -0.15831962227558449 -0.058718739601662406 -0.15312297515772855 -0.26745085340980745 -0.26197032023750255 -0.2028082521524226 -0.33615052507176912 -0.38499974786045765 -0.6166707673620877 -0.19346272342352222 -0.572210553498671 -0.36591778153788113 -0.078152018371140386 -0.064678636988006133 -0.072386703763498872 -0.11866234796225328 -0.11546169431902342 -0.1898330141021578 -0.13268510753042406 -0.1125269809999665 -0.15369501295338495 -0.081562379497050586 -0.079319783900101304 -0.088044318007673983 -0.051005499085416517 -0.083260370416951446 -0.077523906447540814 -0.060610961321334145 -0.062847629906421787 -0.044832558053380489 -0.044321851982772387 -0.0091898357920214835 -0.043541821234573064 -0.020823036726049793 0.0063335318776395616 0.0068782590282664424 0.050761332698126438 0.0996267668041107 0.13676604153401328 0.048944477635295414 0.040368653346696703 -0.025660733651584167 -0.032780248131827672 -0.0025373738754730368 -0.10460159927592727 -0.074552950800467366 -0.070615130377333912 -0.12317870095437944 -0.1410294629887936 -0.1936588505025405 -0.11700260879141311 -0.11806567627742738 -0.090093637608678279 -0.071756180171366424 -0.078874002344520022 -0.063608831723001913 -0.085982863341321547 -0.059273383905082966 -0.065167247779894244 -0.056449937853997767 -0.063656178916179584 -0.053887901778885805 -0.055098919482325925 -0.066895063138223965 -0.049463465003960039 -0.048768176460818324 -0.05724989818618198 -0.034254699133878574 -0.036516568289621798 -0.040898704070241543 -0.01878839224764306 -0.018949376042129984 -0.040965509384410126 -0.035417896880085564 -0.059396676957398142 -0.049856135466482598 -0.055719906322121204 0.040459755999178171 0.069195372149756906 0.0037212707603266892 0.023274608347678694 -0.0039812237799559114 0.021245317553606924 0.078101953571575677 0.027349947655839202 0.042660023267897529 0.051039347632574561 0.1578432623521806 0.12278950545949563 0.16889087296663163 0.12545184316186919 0.27519492146556779 0.30484392029886465 0.19059381682770038 0.14624663125577264 0.22398998451562591 0.19536347003803689 0.21726727810633939 0.23137787168113277 0.12186748707295969 0.080002646412737688 0.08982793148625845 -0.03725351163336299 -0.0040792275852048476 -0.032494136177932731 0.06998550255609004 0.039955668204520123 0.02059877287142875 -0.062445509001182842 -0.083378758227519612 -0.10201678646977541 -0.27499761742247841 -0.21830297065723059 -0.095024017807627814 -0.10296744285010462 -0.15524807678300068 -0.19563896690408988 -0.25606175835450529 -0.24887944794651773 -0.38738285028318842 -0.33889504359984723 -0.2176822068705313 -0.18515521922252631 -0.61484801157782787 -0.57188986961815313 -0.36757776715419155 -0.27790683311111408 -0.17911790270590217 -0.13521284592079397 -0.23569969960774273 -0.099723695116157529 -0.11019167070668345 -0.034890120367922606 -0.012956218917631546 -0.11401542587407931 0.0078543841658635927 -0.032981162365349093 -0.024944863879197143 -0.0069182855528922005 -0.054840884738117879 -0.072879816489452409 -0.07267697055459621 -0.00054732396430523522 -0.036027552690875986 0.036952998035506113 0.073544183472325386 0.071365162432131868 0.046770684913884253 0.27911907722307561 0.17211602214943664 0.13234162550131501 0.22900043546864168 0.092998096712690881 0.10403127272077484 0.037029657796969317 0.11628980523926913 0.0099973780909614618 0.003148518237633624 0.020045708868574152 -0.0078475224801159982 0.031083868250055602 0.0044413651736618931 -0.018836863000817772 -0.022725073654285666 -0.0033531710441252471 -0.0650880852835094 -0.040988712870658972 -0.1175806699217361 -0.16325842484425479 -0.12877604865175485 -0.26832398916069167 -0.14681207211547509 -0.04042945973514378 -0.036366108561900035 -0.023342327460559531 -0.073930867469142569 -0.0792513830193744 -0.11791643743248059 -0.18797521232026959 -0.22797139647615938 -0.21401900736906398 -0.30292145457597641 -0.22511709759709042 -0.14019057719328565 -0.19154513167798548 -0.040529228586848376 -0.070830857988015694 -0.021061436326741401 -0.0040138780813698816 0.034860777558916922 -0.08743305829114334 0.034114290020655247 0.093579785444703134 0.15329858523673279 0.097788447633547548 0.19159651028781255 0.063868932587840987 0.078160323628184258 0.10229686597657128 0.27498623222573837 0.21810775733492704 0.18989411819259772 0.61510306401926584 0.57190642210608011 0.36627244109781643 0.24580316549596404 0.25651621173155803 0.38673364283764755 0.33884928269344972 0.21471157828759857 0.19292507750305887 0.1391861786500046 0.089837688062895493 0.11697497028524495 0.11762428879291775 0.07153275844266134 0.07844682000986225 0.063630701035471304 0.085982197353331458 0.065265722909511936 0.059631039559265853 0.074074068042065733 0.068727302135732388 0.10407426598065683 0.12218307910138648 0.040823857709961331 0.018602228086951555 0.018801269840769529 0.040619580525305565 0.035739208718320814 0.034066860511771324 0.056808727229430644 0.048563716795970324 0.048825957466943848 0.066657660586127321 0.056584481339199855 0.063673841732622805 0.053201637607976693 0.054378509168188316 0.058932235796426369 0.055556778627986247 0.050393518375445367 0.034888538948090186 0.072460194037017089 0.07802325761479878 0.065000981671391678 0.083524419419363949 0.078052161146572985 0.060414615816366535 0.063514296995379027 0.052017330818920016 0.080032127085566174 0.084666247192939859 0.15945332570921344 0.090501113954015722 0.11592778482866706 0.13606722745406941 0.19058595691526747 0.12110427553446357 0.11500419375132864 -0.036043769332334184 0.0019465404054130886 0.026307000333645192 0.033002672074102408 0.044331277585545337 0.045074794824029513 0.011353201364349336 0.043772674830865554 0.02354313233456129 -0.0077415756639709343 -0.096273925131775684 -0.045515882307936434 -0.0056269466674798707 -0.045209407507343258 -0.13056989897917323 -0.23673654856724902 -0.23855514384304399 -0.099887925198957964 -0.12540977993336 -0.092370365413925626 -0.025808458124895184 0.03251695041557312 0.021075057051250567 -0.041311071653773013 -0.020255435408433442 -0.0715390661922823 -0.22385893789763231 -0.13914366199322359 -0.30604635288262472 -0.18994088940979381 0.38608607943614981 0.33606741939092188 0.20503160679215071 0.25940723572166435 0.27461974623509278 0.154911922687619 0.062406757818243952 0.16022969090497341 0.13983627271125182 0.098563339309508891 0.087478473656995348 0.058857903585665575 0.22123828581671212 0.27348285837692821 0.18861393528641202 0.57197406965295983 0.36889145877095686 0.61667988849159983 0.17791390722620015 0.13560003319609404 0.27904235132669619 0.23821848704009807 0.10997570157288261 0.10050164279402019 0.1159424211078357 0.011797006769970864 0.036354206206521411 0.023398468778113468 -0.007965465922907547 0.031054294759696788 0.0035051391198337445 0.071469359656987308 0.052231185990832429 0.036141240561834209 0.070959608153682296 -0.11850150238799703 -0.2685461633091073 -0.16359943288789761 -0.12872166927755835 -0.064627928220939879 -0.0032421402418021383 -0.04303229799991859 -0.022636343982378904 0.0049443798936490424 -0.018852902670303553 -0.023307818327362284 -0.036490838606098988 -0.073748585592754878 -0.14687156819365654 -0.040407043487675764 -0.065234928841173379 -0.064570586365405802 -0.10038643000830128 -0.23685697653818782 -0.20435846610368458 -0.24579821556594617 -0.5430181145976718 -0.45265519148851219 -0.30648831556874367 -0.41494179002748055 -0.37819998064258087 -0.42459327312161932 -0.21888855503156268 -0.1651358674899992 -0.1864289221717641 -0.068267982439989439 -0.069917935261909925 -0.081410974150030846 -0.10296164001069741 4.4214498736039332e-05 -0.011944333723958422 -0.032968693416472128 -0.024145149579936742 -0.02841745877106483 -0.10851056199836506 -0.19821523022199017 -0.048065278202914286 -0.05425925295656242 -0.21423123334888494 -0.16354884148685667 -0.23429812590594334 -0.40323651545075023 -0.40799576845319407 -0.18984614039730374 -0.36986649634641999 -0.42240665043726822 -0.084786679294688305 -0.16448111510922026 -0.18887420828564846 -0.063992852554378032 -0.10224818497822952 -0.23765175881858447 -0.065043486626002789 -0.54266172941001756 -0.45174271366390251 -0.24248216907787246 -0.20378617403287702 -0.30464007177760877 -0.44703280697967873 -0.89211753029458496 -0.56200225658541569 -0.82707768668106318 -0.38705258881214633 -0.41755286735051733 -0.25417972299242964 -0.42619708019662284 -0.42068267980470697 -0.82928682265837317 -0.39369800355216533 -0.44938793085552575 -0.56245332829447037 -0.89226876401487232 -0.88755463868574225 -0.82018091155352835 -0.82257727391306101 -0.8864418196230055 
</DataArray>
</CellData>
</Piece>
</UnstructuredGrid>
</VTKFile>
