<?xml version="1.0"?>
<VTKFile type="UnstructuredGrid" version="0.1" byte_order="LittleEndian">
<UnstructuredGrid>
<Piece NumberOfPoints="3186" NumberOfCells="1062">
<Points>
<DataArray type="Float64" NumberOfComponents="3" format="ascii">
0 0 0 0.14285714285686729 0 0 0.10402057578810379 0.10402057578810379 0 0 0 0 0.10402057578810379 0.10402057578810379 0 0 0.14285714285686729 0 0.14285714285686729 0 0 0.10402057578810379 0.10402057578810379 0 0.21622614199724011 0.1170905489967794 0 0.10402057578810379 0.10402057578810379 0 0.12873413335214179 0.22892000827465461 0 0.21622614199724011 0.1170905489967794 0 0.10402057578810379 0.10402057578810379 0 0 0.14285714285686729 0 0.12873413335214179 0.22892000827465461 0 0 0.14285714285686729 0 0 0.28571428571359381 0 0.12873413335214179 0.22892000827465461 0 0.093737460955887239 0.36334567880837831 0 0 0.28571428571359381 0 0 0.42857142857032021 0 0.093737460955887239 0.36334567880837831 0 0 0.28571428571359381 0 0.12873413335214179 0.22892000827465461 0 0.093737460955887239 0.36334567880837831 0 0.12873413335214179 0.22892000827465461 0 0.21341038379882901 0.37169997079090128 0 0.12873413335214179 0.22892000827465461 0 0.28183877965613813 0.2453094238274868 0 0.21622614199724011 0.1170905489967794 0 0.12873413335214179 0.22892000827465461 0 0.21341038379882901 0.37169997079090128 0 0.28183877965613813 0.2453094238274868 0 0.21341038379882901 0.37169997079090128 0 0.28183877965613813 0.2453094238274868 0 0.35714458040172548 0.37949340689832922 0 0.28183877965613813 0.2453094238274868 0 0.35714458040172548 0.37949340689832922 0 0.42857142856968189 0.24782843958009351 0 0.28183877965613813 0.2453094238274868 0 0.35419193461659548 0.1242932860904311 0 0.42857142856968189 0.24782843958009351 0 0.28183877965613813 0.2453094238274868 0 0.35419193461659548 0.1242932860904311 0 0.21622614199724011 0.1170905489967794 0 0.35419193461659548 0.1242932860904311 0 0.28571428571359381 0 0 0.21622614199724011 0.1170905489967794 0 0.35419193461659548 0.1242932860904311 0 0.28571428571359381 0 0 0.42857142857032021 0 0 0.14285714285686729 0 0 0.28571428571359381 0 0 0.21622614199724011 0.1170905489967794 0 0.091975849439628388 0.63906079561326345 0 0.21183497469564019 0.63320029487793694 0 0.12868163055416221 0.76697400229767487 0 0 0.71428571428496201 0 0.091975849439628388 0.63906079561326345 0 0.12868163055416221 0.76697400229767487 0 0.091975849439628388 0.63906079561326345 0 0 0.57142857142744297 0 0.12654278762846541 0.50182270069242174 0 0 0.71428571428496201 0 0.091975849439628388 0.63906079561326345 0 0 0.57142857142744297 0 0.091975849439628388 0.63906079561326345 0 0.12654278762846541 0.50182270069242174 0 0.21183497469564019 0.63320029487793694 0 0 0.57142857142744297 0 0.12654278762846541 0.50182270069242174 0 0 0.42857142857032021 0 0.093737460955887239 0.36334567880837831 0 0.12654278762846541 0.50182270069242174 0 0 0.42857142857032021 0 0.093737460955887239 0.36334567880837831 0 0.21341038379882901 0.37169997079090128 0 0.12654278762846541 0.50182270069242174 0 0.21341038379882901 0.37169997079090128 0 0.12654278762846541 0.50182270069242174 0 0.28571428571288859 0.50512834069527579 0 0.35714458040172548 0.37949340689832922 0 0.28571428571288859 0.50512834069527579 0 0.42857911129460902 0.5051327763182708 0 0.21341038379882901 0.37169997079090128 0 0.35714458040172548 0.37949340689832922 0 0.28571428571288859 0.50512834069527579 0 0.28571428571288859 0.50512834069527579 0 0.35657912408519199 0.6297632267709089 0 0.42857911129460902 0.5051327763182708 0 0.12654278762846541 0.50182270069242174 0 0.28571428571288859 0.50512834069527579 0 0.21183497469564019 0.63320029487793694 0 0.28571428571288859 0.50512834069527579 0 0.21183497469564019 0.63320029487793694 0 0.35657912408519199 0.6297632267709089 0 0.35657912408519199 0.6297632267709089 0 0.42876602422768972 0.75267652020288756 0 0.28454251053718921 0.75357332720455328 0 0.21183497469564019 0.63320029487793694 0 0.35657912408519199 0.6297632267709089 0 0.28454251053718921 0.75357332720455328 0 0.21183497469564019 0.63320029487793694 0 0.28454251053718921 0.75357332720455328 0 0.12868163055416221 0.76697400229767487 0 0.50003783804313584 0.62886810132652948 0 0.57146100403685018 0.75258289532342593 0 0.42876602422768972 0.75267652020288756 0 0.35657912408519199 0.6297632267709089 0 0.50003783804313584 0.62886810132652948 0 0.42876602422768972 0.75267652020288756 0 0.35657912408519199 0.6297632267709089 0 0.50003783804313584 0.62886810132652948 0 0.42857911129460902 0.5051327763182708 0 0.50003783804313584 0.62886810132652948 0 0.42857911129460902 0.5051327763182708 0 0.57143682973041188 0.50513310862866234 0 0.35714458040172548 0.37949340689832922 0 0.42857911129460902 0.5051327763182708 0 0.50000265683637624 0.3797679478844822 0 0.42857911129460902 0.5051327763182708 0 0.50000265683637624 0.3797679478844822 0 0.57143682973041188 0.50513310862866234 0 0.6428589620457259 0.38113747419351418 0 0.71689882325258081 0.50562151542895928 0 0.57143682973041188 0.50513310862866234 0 0.50000265683637624 0.3797679478844822 0 0.6428589620457259 0.38113747419351418 0 0.57143682973041188 0.50513310862866234 0 0.6428589620457259 0.38113747419351418 0 0.71689882325258081 0.50562151542895928 0 0.78571428571267199 0.38141042586853341 0 0.71689882325258081 0.50562151542895928 0 0.57143682973041188 0.50513310862866234 0 0.6428688546313952 0.62885301731806609 0 0.50003783804313584 0.62886810132652948 0 0.57143682973041188 0.50513310862866234 0 0.6428688546313952 0.62885301731806609 0 0.71689882325258081 0.50562151542895928 0 0.6428688546313952 0.62885301731806609 0 0.7865654166374938 0.63474444568669874 0 0.6428688546313952 0.62885301731806609 0 0.7865654166374938 0.63474444568669874 0 0.71537080136980369 0.7565812122385458 0 0.50003783804313584 0.62886810132652948 0 0.6428688546313952 0.62885301731806609 0 0.57146100403685018 0.75258289532342593 0 0.6428688546313952 0.62885301731806609 0 0.57146100403685018 0.75258289532342593 0 0.71537080136980369 0.7565812122385458 0 0.49927531931040692 0.1259400136946118 0 0.42857142857032021 0 0 0.57142857142744297 0 0 0.35419193461659548 0.1242932860904311 0 0.49927531931040692 0.1259400136946118 0 0.42857142857032021 0 0 0.35419193461659548 0.1242932860904311 0 0.49927531931040692 0.1259400136946118 0 0.42857142856968189 0.24782843958009351 0 0.35714458040172548 0.37949340689832922 0 0.50000265683637624 0.3797679478844822 0 0.42857142856968189 0.24782843958009351 0 0.50000265683637624 0.3797679478844822 0 0.42857142856968189 0.24782843958009351 0 0.57134283277699616 0.25528695228377429 0 0.49927531931040692 0.1259400136946118 0 0.42857142856968189 0.24782843958009351 0 0.57134283277699616 0.25528695228377429 0 0.57134283277699616 0.25528695228377429 0 0.71335089116972128 0.25578338314493299 0 0.64223892332544308 0.130274960827549 0 0.6428589620457259 0.38113747419351418 0 0.57134283277699616 0.25528695228377429 0 0.71335089116972128 0.25578338314493299 0 0.50000265683637624 0.3797679478844822 0 0.6428589620457259 0.38113747419351418 0 0.57134283277699616 0.25528695228377429 0 0.6428589620457259 0.38113747419351418 0 0.71335089116972128 0.25578338314493299 0 0.78571428571267199 0.38141042586853341 0 0.71335089116972128 0.25578338314493299 0 0.64223892332544308 0.130274960827549 0 0.78018926648548503 0.12559094919453551 0 0.49927531931040692 0.1259400136946118 0 0.57134283277699616 0.25528695228377429 0 0.64223892332544308 0.130274960827549 0 0.64223892332544308 0.130274960827549 0 0.57142857142744297 0 0 0.71428571428496201 0 0 0.49927531931040692 0.1259400136946118 0 0.64223892332544308 0.130274960827549 0 0.57142857142744297 0 0 0.64223892332544308 0.130274960827549 0 0.71428571428496201 0 0 0.78018926648548503 0.12559094919453551 0 0.71428571428496201 0 0 0.78018926648548503 0.12559094919453551 0 0.85714285714248095 0 0 0.78018926648548503 0.12559094919453551 0 0.89542131320406015 0.10457868679576519 0 0.86802342313663505 0.2373869704637242 0 0.89542131320406015 0.10457868679576519 0 1 0.14285714285686729 0 0.86802342313663505 0.2373869704637242 0 0.89542131320406015 0.10457868679576519 0 0.85714285714248095 0 0 1 0 0 0.78018926648548503 0.12559094919453551 0 0.89542131320406015 0.10457868679576519 0 0.85714285714248095 0 0 0.89542131320406015 0.10457868679576519 0 1 0 0 1 0.14285714285686729 0 1 0.14285714285686729 0 1.1045786867956009 0.1045786867955263 0 1.11654878083672 0.2171580770020253 0 1 0 0 1 0.14285714285686729 0 1.1045786867956009 0.1045786867955263 0 1 0 0 1.1045786867956009 0.1045786867955263 0 1.142857142857143 0 0 1.120408926261548 0.35723491808527941 0 1 0.28571428571359381 0 1 0.42857142857032021 0 1.120408926261548 0.35723491808527941 0 1.11654878083672 0.2171580770020253 0 1 0.28571428571359381 0 1 0.14285714285686729 0 1.11654878083672 0.2171580770020253 0 1 0.28571428571359381 0 1 0.14285714285686729 0 1 0.28571428571359381 0 0.86802342313663505 0.2373869704637242 0 1 0.28571428571359381 0 0.90513725992141869 0.36710674629889062 0 1 0.42857142857032021 0 1 0.28571428571359381 0 0.90513725992141869 0.36710674629889062 0 0.86802342313663505 0.2373869704637242 0 0.90513725992141869 0.36710674629889062 0 0.86802342313663505 0.2373869704637242 0 0.78571428571267199 0.38141042586853341 0 0.71335089116972128 0.25578338314493299 0 0.78018926648548503 0.12559094919453551 0 0.86802342313663505 0.2373869704637242 0 0.71335089116972128 0.25578338314493299 0 0.86802342313663505 0.2373869704637242 0 0.78571428571267199 0.38141042586853341 0 0.71689882325258081 0.50562151542895928 0 0.78571428571267199 0.38141042586853341 0 0.87194859075778619 0.50245062087828152 0 0.71689882325258081 0.50562151542895928 0 0.87194859075778619 0.50245062087828152 0 0.7865654166374938 0.63474444568669874 0 0.90513725992141869 0.36710674629889062 0 0.87194859075778619 0.50245062087828152 0 1 0.42857142857032021 0 0.90513725992141869 0.36710674629889062 0 0.78571428571267199 0.38141042586853341 0 0.87194859075778619 0.50245062087828152 0 0.7865654166374938 0.63474444568669874 0 0.87061467893647215 0.77259634013423817 0 0.71537080136980369 0.7565812122385458 0 0.87194859075778619 0.50245062087828152 0 0.90582573726635052 0.63910113848232464 0 1 0.57142857142744297 0 0.87194859075778619 0.50245062087828152 0 0.7865654166374938 0.63474444568669874 0 0.90582573726635052 0.63910113848232464 0 0.90582573726635052 0.63910113848232464 0 1 0.71428571428496201 0 0.87061467893647215 0.77259634013423817 0 0.7865654166374938 0.63474444568669874 0 0.90582573726635052 0.63910113848232464 0 0.87061467893647215 0.77259634013423817 0 0.90582573726635052 0.63910113848232464 0 1 0.71428571428496201 0 1 0.57142857142744297 0 1 0.57142857142744297 0 1.1230850406616231 0.64211163998861642 0 1.1231105411754949 0.50105200202130007 0 1 0.71428571428496201 0 1 0.57142857142744297 0 1.1230850406616231 0.64211163998861642 0 1 0.71428571428496201 0 1.1230850406616231 0.64211163998861642 0 1.1205280434883049 0.78018926648583675 0 0.87194859075778619 0.50245062087828152 0 1 0.57142857142744297 0 1 0.42857142857032021 0 1 0.57142857142744297 0 1 0.42857142857032021 0 1.1231105411754949 0.50105200202130007 0 1.120408926261548 0.35723491808527941 0 1 0.42857142857032021 0 1.1231105411754949 0.50105200202130007 0 1.120408926261548 0.35723491808527941 0 1.1231105411754949 0.50105200202130007 0 1.242992467502205 0.4277245950738956 0 1.1231105411754949 0.50105200202130007 0 1.242992467502205 0.4277245950738956 0 1.247229121683481 0.57147965461975947 0 1.242992467502205 0.4277245950738956 0 1.247229121683481 0.57147965461975947 0 1.369122867196076 0.49769215192747729 0 1.1230850406616231 0.64211163998861642 0 1.246702098928647 0.71318645322081164 0 1.1205280434883049 0.78018926648583675 0 1.1230850406616231 0.64211163998861642 0 1.1231105411754949 0.50105200202130007 0 1.247229121683481 0.57147965461975947 0 1.1230850406616231 0.64211163998861642 0 1.247229121683481 0.57147965461975947 0 1.246702098928647 0.71318645322081164 0 1.247229121683481 0.57147965461975947 0 1.246702098928647 0.71318645322081164 0 1.3707808136040489 0.64248101537579216 0 1.246702098928647 0.71318645322081164 0 1.3707808136040489 0.64248101537579216 0 1.369080439626563 0.78389141510404459 0 1.247229121683481 0.57147965461975947 0 1.3707808136040489 0.64248101537579216 0 1.369122867196076 0.49769215192747729 0 1.3707808136040489 0.64248101537579216 0 1.49447102461245 0.57098124216803303 0 1.4948716593059641 0.71428571428344279 0 1.3707808136040489 0.64248101537579216 0 1.49447102461245 0.57098124216803303 0 1.369122867196076 0.49769215192747729 0 1.3707808136040489 0.64248101537579216 0 1.4948716593059641 0.71428571428344279 0 1.369080439626563 0.78389141510404459 0 1.242992467502205 0.4277245950738956 0 1.369122867196076 0.49769215192747729 0 1.365913983939659 0.35404229584497132 0 1.49447102461245 0.57098124216803303 0 1.369122867196076 0.49769215192747729 0 1.493210541712801 0.42593700932760992 0 1.369122867196076 0.49769215192747729 0 1.493210541712801 0.42593700932760992 0 1.365913983939659 0.35404229584497132 0 1.493210541712801 0.42593700932760992 0 1.365913983939659 0.35404229584497132 0 1.4945915486603041 0.278046120036475 0 1.365913983939659 0.35404229584497132 0 1.362797304713371 0.2085843731968661 0 1.239801768054871 0.28318912013054159 0 1.362797304713371 0.2085843731968661 0 1.4945915486603041 0.278046120036475 0 1.4981772993068541 0.1265427876282571 0 1.365913983939659 0.35404229584497132 0 1.362797304713371 0.2085843731968661 0 1.4945915486603041 0.278046120036475 0 1.4981772993068541 0.1265427876282571 0 1.4285714285714279 0 0 1.357142857142857 0.088385776599927718 0 1.4981772993068541 0.1265427876282571 0 1.4285714285714279 0 0 1.571428571428571 0 0 1.4285714285714279 0 0 1.357142857142857 0.088385776599927718 0 1.2857142857142849 0 0 1.362797304713371 0.2085843731968661 0 1.357142857142857 0.088385776599927718 0 1.230484398416066 0.12817051038898539 0 1.362797304713371 0.2085843731968661 0 1.4981772993068541 0.1265427876282571 0 1.357142857142857 0.088385776599927718 0 1.230484398416066 0.12817051038898539 0 1.2857142857142849 0 0 1.142857142857143 0 0 1.357142857142857 0.088385776599927718 0 1.230484398416066 0.12817051038898539 0 1.2857142857142849 0 0 1.1045786867956009 0.1045786867955263 0 1.230484398416066 0.12817051038898539 0 1.142857142857143 0 0 1.1045786867956009 0.1045786867955263 0 1.11654878083672 0.2171580770020253 0 1.230484398416066 0.12817051038898539 0 1.11654878083672 0.2171580770020253 0 1.230484398416066 0.12817051038898539 0 1.239801768054871 0.28318912013054159 0 1.120408926261548 0.35723491808527941 0 1.242992467502205 0.4277245950738956 0 1.239801768054871 0.28318912013054159 0 1.120408926261548 0.35723491808527941 0 1.11654878083672 0.2171580770020253 0 1.239801768054871 0.28318912013054159 0 1.242992467502205 0.4277245950738956 0 1.365913983939659 0.35404229584497132 0 1.239801768054871 0.28318912013054159 0 1.362797304713371 0.2085843731968661 0 1.230484398416066 0.12817051038898539 0 1.239801768054871 0.28318912013054159 0 1.2843187895246739 1.251849118408489 0 1.356519680644851 1.1297688427831769 0 1.217136293327606 1.122039968907099 0 1.2843187895246739 1.251849118408489 0 1.1309902448456099 1.235084640813384 0 1.217136293327606 1.122039968907099 0 1.1309902448456099 1.235084640813384 0 1.217136293327606 1.122039968907099 0 1.1045786867955529 1.1045786867955529 0 1.2843187895246739 1.251849118408489 0 1.1309902448456099 1.235084640813384 0 1.214285714285708 1.381410425868262 0 1.1309902448456099 1.235084640813384 0 1.214285714285708 1.381410425868262 0 1.0966122299857239 1.357142857142857 0 1.214285714285708 1.381410425868262 0 1.1265427876294609 1.501822700692834 0 1.285714285714282 1.505128340694609 0 1.214285714285708 1.381410425868262 0 1.0966122299857239 1.357142857142857 0 1.1265427876294609 1.501822700692834 0 1.214285714285708 1.381410425868262 0 1.3557237634480139 1.380474745153186 0 1.285714285714282 1.505128340694609 0 1.2843187895246739 1.251849118408489 0 1.214285714285708 1.381410425868262 0 1.3557237634480139 1.380474745153186 0 1.3557237634480139 1.380474745153186 0 1.285714285714282 1.505128340694609 0 1.42857911129607 1.505132776317748 0 1.3557237634480139 1.380474745153186 0 1.4999999999999949 1.3814104258682569 0 1.42857911129607 1.505132776317748 0 1.3557237634480139 1.380474745153186 0 1.4999999999999949 1.3814104258682569 0 1.426914538806672 1.255395578508163 0 1.4999999999999949 1.3814104258682569 0 1.426914538806672 1.255395578508163 0 1.571152652531757 1.256105255633247 0 1.2843187895246739 1.251849118408489 0 1.3557237634480139 1.380474745153186 0 1.426914538806672 1.255395578508163 0 1.2843187895246739 1.251849118408489 0 1.426914538806672 1.255395578508163 0 1.356519680644851 1.1297688427831769 0 1.426914538806672 1.255395578508163 0 1.499999999999998 1.1271398115696349 0 1.571152652531757 1.256105255633247 0 1.426914538806672 1.255395578508163 0 1.356519680644851 1.1297688427831769 0 1.499999999999998 1.1271398115696349 0 1.499999999999998 1.1271398115696349 0 1.4285714285714279 1 0 1.571428571428571 1 0 1.356519680644851 1.1297688427831769 0 1.499999999999998 1.1271398115696349 0 1.4285714285714279 1 0 1.4285714285714279 1 0 1.497549379121643 0.87194859075748521 0 1.571428571428571 1 0 1.4285714285714279 1 0 1.359152564409752 0.9044833397938371 0 1.2857142857142849 1 0 1.356519680644851 1.1297688427831769 0 1.4285714285714279 1 0 1.2857142857142849 1 0 1.4948716593059641 0.71428571428344279 0 1.497549379121643 0.87194859075748521 0 1.369080439626563 0.78389141510404459 0 1.497549379121643 0.87194859075748521 0 1.359152564409752 0.9044833397938371 0 1.369080439626563 0.78389141510404459 0 1.4285714285714279 1 0 1.497549379121643 0.87194859075748521 0 1.359152564409752 0.9044833397938371 0 1.359152564409752 0.9044833397938371 0 1.369080439626563 0.78389141510404459 0 1.2323719363650789 0.86814175826561835 0 1.246702098928647 0.71318645322081164 0 1.369080439626563 0.78389141510404459 0 1.2323719363650789 0.86814175826561835 0 1.359152564409752 0.9044833397938371 0 1.2323719363650789 0.86814175826561835 0 1.2857142857142849 1 0 1.2323719363650789 0.86814175826561835 0 1.142857142857143 1 0 1.104578686795793 0.89542131320410689 0 1.2323719363650789 0.86814175826561835 0 1.1205280434883049 0.78018926648583675 0 1.104578686795793 0.89542131320410689 0 1.246702098928647 0.71318645322081164 0 1.2323719363650789 0.86814175826561835 0 1.1205280434883049 0.78018926648583675 0 1.356519680644851 1.1297688427831769 0 1.2857142857142849 1 0 1.217136293327606 1.122039968907099 0 1.2323719363650789 0.86814175826561835 0 1.2857142857142849 1 0 1.142857142857143 1 0 1.142857142857143 1 0 1.217136293327606 1.122039968907099 0 1.1045786867955529 1.1045786867955529 0 1.2857142857142849 1 0 1.142857142857143 1 0 1.217136293327606 1.122039968907099 0 1.1045786867955529 1.1045786867955529 0 1 1 0 1 1.142857142857143 0 1.142857142857143 1 0 1.1045786867955529 1.1045786867955529 0 1 1 0 1.142857142857143 1 0 1 1 0 1.104578686795793 0.89542131320410689 0 1 1 0 0.89542131320410701 1.104578686795793 0 1 1.142857142857143 0 1 0.71428571428496201 0 1.1205280434883049 0.78018926648583675 0 1 0.85714285714248095 0 1 1 0 1.104578686795793 0.89542131320410689 0 1 0.85714285714248095 0 1.1205280434883049 0.78018926648583675 0 1.104578686795793 0.89542131320410689 0 1 0.85714285714248095 0 1 1 0 1 0.85714285714248095 0 0.89542131320417073 0.89542131320417073 0 1 0.71428571428496201 0 1 0.85714285714248095 0 0.87061467893647215 0.77259634013423817 0 1 0.85714285714248095 0 0.87061467893647215 0.77259634013423817 0 0.89542131320417073 0.89542131320417073 0 0.89542131320417073 0.89542131320417073 0 0.78149925341697946 0.88257916460195274 0 0.85714285714248095 1 0 0.87061467893647215 0.77259634013423817 0 0.89542131320417073 0.89542131320417073 0 0.78149925341697946 0.88257916460195274 0 0.87061467893647215 0.77259634013423817 0 0.78149925341697946 0.88257916460195274 0 0.71537080136980369 0.7565812122385458 0 0.89542131320410701 1.104578686795793 0 0.85714285714248095 1 0 0.78018926648585263 1.1205280434881351 0 1 1 0 0.89542131320410701 1.104578686795793 0 0.85714285714248095 1 0 1 1 0 0.89542131320417073 0.89542131320417073 0 0.85714285714248095 1 0 0.78149925341697946 0.88257916460195274 0 0.85714285714248095 1 0 0.71428571428496201 1 0 0.85714285714248095 1 0 0.78018926648585263 1.1205280434881351 0 0.71428571428496201 1 0 0.78018926648585263 1.1205280434881351 0 0.8681417582656602 1.2323719363648691 0 0.71318645322083074 1.246702098928443 0 0.8681417582656602 1.2323719363648691 0 0.78389141510410065 1.3690804396262211 0 0.71318645322083074 1.246702098928443 0 0.8681417582656602 1.2323719363648691 0 1 1.2857142857142849 0 0.90448333979397377 1.359152564409229 0 0.89542131320410701 1.104578686795793 0 0.78018926648585263 1.1205280434881351 0 0.8681417582656602 1.2323719363648691 0 0.89542131320410701 1.104578686795793 0 0.8681417582656602 1.2323719363648691 0 1 1.142857142857143 0 0.8681417582656602 1.2323719363648691 0 1 1.142857142857143 0 1 1.2857142857142849 0 1.1309902448456099 1.235084640813384 0 1 1.2857142857142849 0 1.0966122299857239 1.357142857142857 0 1.1309902448456099 1.235084640813384 0 1 1.142857142857143 0 1 1.2857142857142849 0 1.1309902448456099 1.235084640813384 0 1.1045786867955529 1.1045786867955529 0 1 1.142857142857143 0 1.0966122299857239 1.357142857142857 0 1 1.4285714285714279 0 1.1265427876294609 1.501822700692834 0 1 1.2857142857142849 0 1.0966122299857239 1.357142857142857 0 1 1.4285714285714279 0 1 1.2857142857142849 0 1 1.4285714285714279 0 0.90448333979397377 1.359152564409229 0 1 1.4285714285714279 0 0.87194859075750586 1.497549379121565 0 1 1.571428571428571 0 0.87194859075750586 1.497549379121565 0 0.90448333979397377 1.359152564409229 0 0.78389141510410065 1.3690804396262211 0 1 1.4285714285714279 0 0.87194859075750586 1.497549379121565 0 0.90448333979397377 1.359152564409229 0 0.8681417582656602 1.2323719363648691 0 0.90448333979397377 1.359152564409229 0 0.78389141510410065 1.3690804396262211 0 0.87194859075750586 1.497549379121565 0 0.78389141510410065 1.3690804396262211 0 0.71428571428344279 1.494871659305963 0 0.78389141510410065 1.3690804396262211 0 0.71428571428344279 1.494871659305963 0 0.64248101537579227 1.370780813604048 0 0.71428571428344279 1.494871659305963 0 0.5709812421680337 1.49447102461245 0 0.64248101537579227 1.370780813604048 0 0.5709812421680337 1.49447102461245 0 0.64248101537579227 1.370780813604048 0 0.49769215192747779 1.3691228671960749 0 0.64248101537579227 1.370780813604048 0 0.57147965461975991 1.2472291216834761 0 0.49769215192747779 1.3691228671960749 0 0.78389141510410065 1.3690804396262211 0 0.64248101537579227 1.370780813604048 0 0.71318645322083074 1.246702098928443 0 0.78018926648585263 1.1205280434881351 0 0.71318645322083074 1.246702098928443 0 0.64211163998861909 1.1230850406615951 0 0.71318645322083074 1.246702098928443 0 0.57147965461975991 1.2472291216834761 0 0.64211163998861909 1.1230850406615951 0 0.57147965461975991 1.2472291216834761 0 0.64211163998861909 1.1230850406615951 0 0.50105200202129974 1.1231105411754949 0 0.64248101537579227 1.370780813604048 0 0.71318645322083074 1.246702098928443 0 0.57147965461975991 1.2472291216834761 0 0.57147965461975991 1.2472291216834761 0 0.42772459507389549 1.2429924675022059 0 0.49769215192747779 1.3691228671960749 0 0.57147965461975991 1.2472291216834761 0 0.42772459507389549 1.2429924675022059 0 0.50105200202129974 1.1231105411754949 0 0.42772459507389549 1.2429924675022059 0 0.50105200202129974 1.1231105411754949 0 0.35723491808528002 1.1204089262615491 0 0.42772459507389549 1.2429924675022059 0 0.49769215192747779 1.3691228671960749 0 0.35404229584497188 1.365913983939661 0 0.42593700932761119 1.4932105417128021 0 0.49769215192747779 1.3691228671960749 0 0.35404229584497188 1.365913983939661 0 0.5709812421680337 1.49447102461245 0 0.42593700932761119 1.4932105417128021 0 0.49769215192747779 1.3691228671960749 0 0.57146100403685018 0.75258289532342593 0 0.71537080136980369 0.7565812122385458 0 0.64285714285588325 0.87628208517373918 0 0.57146100403685018 0.75258289532342593 0 0.64285714285588325 0.87628208517373918 0 0.49999999999885258 0.87628208517384021 0 0.78149925341697946 0.88257916460195274 0 0.71537080136980369 0.7565812122385458 0 0.64285714285588325 0.87628208517373918 0 0.78149925341697946 0.88257916460195274 0 0.64285714285588325 0.87628208517373918 0 0.71428571428496201 1 0 0.64285714285588325 0.87628208517373918 0 0.57142857142744297 1 0 0.49999999999885258 0.87628208517384021 0 0.64285714285588325 0.87628208517373918 0 0.57142857142744297 1 0 0.71428571428496201 1 0 0.78018926648585263 1.1205280434881351 0 0.71428571428496201 1 0 0.64211163998861909 1.1230850406615951 0 0.57142857142744297 1 0 0.71428571428496201 1 0 0.64211163998861909 1.1230850406615951 0 0.57142857142744297 1 0 0.64211163998861909 1.1230850406615951 0 0.50105200202129974 1.1231105411754949 0 0.57142857142744297 1 0 0.50105200202129974 1.1231105411754949 0 0.42857142857032021 1 0 0.50105200202129974 1.1231105411754949 0 0.42857142857032021 1 0 0.35723491808528002 1.1204089262615491 0 0.57142857142744297 1 0 0.42857142857032021 1 0 0.49999999999885258 0.87628208517384021 0 0.42857142857032021 1 0 0.49999999999885258 0.87628208517384021 0 0.35831043108656913 0.87695618430515165 0 0.49999999999885258 0.87628208517384021 0 0.42876602422768972 0.75267652020288756 0 0.35831043108656913 0.87695618430515165 0 0.57146100403685018 0.75258289532342593 0 0.49999999999885258 0.87628208517384021 0 0.42876602422768972 0.75267652020288756 0 0.28454251053718921 0.75357332720455328 0 0.22029060869521661 0.88080238224013152 0 0.12868163055416221 0.76697400229767487 0 0.28454251053718921 0.75357332720455328 0 0.35831043108656913 0.87695618430515165 0 0.22029060869521661 0.88080238224013152 0 0.42876602422768972 0.75267652020288756 0 0.28454251053718921 0.75357332720455328 0 0.35831043108656913 0.87695618430515165 0 0.35831043108656913 0.87695618430515165 0 0.22029060869521661 0.88080238224013152 0 0.28571428571359381 1 0 0.22029060869521661 0.88080238224013152 0 0.28571428571359381 1 0 0.14285714285686729 1 0 0.42857142857032021 1 0 0.35831043108656913 0.87695618430515165 0 0.28571428571359381 1 0 0.42857142857032021 1 0 0.28571428571359381 1 0 0.35723491808528002 1.1204089262615491 0 0.28571428571359381 1 0 0.35723491808528002 1.1204089262615491 0 0.21715807700202849 1.116548780836722 0 0.28571428571359381 1 0 0.21715807700202849 1.116548780836722 0 0.14285714285686729 1 0 0.21715807700202849 1.116548780836722 0 0.1045786867955263 1.1045786867956 0 0.14285714285686729 1 0 0.1045786867955263 1.1045786867956 0 0 1 0 0 1.142857142857143 0 0.1045786867955263 1.1045786867956 0 0 1 0 0.14285714285686729 1 0 0 1 0 0.14285714285686729 1 0 0.1045786867957653 0.89542131320405993 0 0.22029060869521661 0.88080238224013152 0 0.1045786867957653 0.89542131320405993 0 0.12868163055416221 0.76697400229767487 0 0.22029060869521661 0.88080238224013152 0 0.14285714285686729 1 0 0.1045786867957653 0.89542131320405993 0 0 1 0 0.1045786867957653 0.89542131320405993 0 0 0.85714285714248095 0 0.1045786867957653 0.89542131320405993 0 0 0.85714285714248095 0 0.12868163055416221 0.76697400229767487 0 0 0.71428571428496201 0 0 0.85714285714248095 0 0.12868163055416221 0.76697400229767487 0 0.2085843731968674 1.3627973047133739 0 0.27804612003647688 1.494591548660307 0 0.12654278762825799 1.4981772993068549 0 0.2085843731968674 1.3627973047133739 0 0.27804612003647688 1.494591548660307 0 0.35404229584497188 1.365913983939661 0 0.42593700932761119 1.4932105417128021 0 0.27804612003647688 1.494591548660307 0 0.35404229584497188 1.365913983939661 0 0.2085843731968674 1.3627973047133739 0 0.35404229584497188 1.365913983939661 0 0.2831891201305422 1.2398017680548721 0 0.42772459507389549 1.2429924675022059 0 0.35404229584497188 1.365913983939661 0 0.2831891201305422 1.2398017680548721 0 0.42772459507389549 1.2429924675022059 0 0.35723491808528002 1.1204089262615491 0 0.2831891201305422 1.2398017680548721 0 0.35723491808528002 1.1204089262615491 0 0.21715807700202849 1.116548780836722 0 0.2831891201305422 1.2398017680548721 0 0.21715807700202849 1.116548780836722 0 0.2831891201305422 1.2398017680548721 0 0.1281705103889863 1.2304843984160669 0 0.2085843731968674 1.3627973047133739 0 0.2831891201305422 1.2398017680548721 0 0.1281705103889863 1.2304843984160669 0 0.21715807700202849 1.116548780836722 0 0.1045786867955263 1.1045786867956 0 0.1281705103889863 1.2304843984160669 0 0.1045786867955263 1.1045786867956 0 0.1281705103889863 1.2304843984160669 0 0 1.142857142857143 0 0.1281705103889863 1.2304843984160669 0 0 1.2857142857142849 0 0.088385776599929494 1.357142857142857 0 0.1281705103889863 1.2304843984160669 0 0 1.142857142857143 0 0 1.2857142857142849 0 0 1.2857142857142849 0 0.088385776599929494 1.357142857142857 0 0 1.4285714285714279 0 0.2085843731968674 1.3627973047133739 0 0.088385776599929494 1.357142857142857 0 0.12654278762825799 1.4981772993068549 0 0.2085843731968674 1.3627973047133739 0 0.1281705103889863 1.2304843984160669 0 0.088385776599929494 1.357142857142857 0 0.12654278762825799 1.4981772993068549 0 0 1.4285714285714279 0 0 1.571428571428571 0 0.088385776599929494 1.357142857142857 0 0.12654278762825799 1.4981772993068549 0 0 1.4285714285714279 0 0.12654278762825799 1.4981772993068549 0 0 1.571428571428571 0 0.093464308857800493 1.636633879872754 0 0 1.571428571428571 0 0.093464308857800493 1.636633879872754 0 0 1.714285714285714 0 0.093464308857800493 1.636633879872754 0 0.21204462330902701 1.6281978226174341 0 0.12873413335171741 1.7710799917251949 0 0.12654278762825799 1.4981772993068549 0 0.093464308857800493 1.636633879872754 0 0.21204462330902701 1.6281978226174341 0 0.27804612003647688 1.494591548660307 0 0.12654278762825799 1.4981772993068549 0 0.21204462330902701 1.6281978226174341 0 0.21204462330902701 1.6281978226174341 0 0.35661818314176119 1.6201734641978449 0 0.2815234200304042 1.7546180202569051 0 0.27804612003647688 1.494591548660307 0 0.21204462330902701 1.6281978226174341 0 0.35661818314176119 1.6201734641978449 0 0.42593700932761119 1.4932105417128021 0 0.27804612003647688 1.494591548660307 0 0.35661818314176119 1.6201734641978449 0 0.2815234200304042 1.7546180202569051 0 0.35415439180319602 1.875698076300893 0 0.42857142856855118 1.752171560420507 0 0.2815234200304042 1.7546180202569051 0 0.21616732492381949 1.8828959187492971 0 0.35415439180319602 1.875698076300893 0 0.35661818314176119 1.6201734641978449 0 0.2815234200304042 1.7546180202569051 0 0.42857142856855118 1.752171560420507 0 0.21204462330902701 1.6281978226174341 0 0.2815234200304042 1.7546180202569051 0 0.12873413335171741 1.7710799917251949 0 0.2815234200304042 1.7546180202569051 0 0.12873413335171741 1.7710799917251949 0 0.21616732492381949 1.8828959187492971 0 0.12873413335171741 1.7710799917251949 0 0.1040205757871384 1.895979424212787 0 0.21616732492381949 1.8828959187492971 0 0.093464308857800493 1.636633879872754 0 0.12873413335171741 1.7710799917251949 0 0 1.714285714285714 0 0.12873413335171741 1.7710799917251949 0 0 1.714285714285714 0 0 1.857142857142857 0 0.12873413335171741 1.7710799917251949 0 0 1.857142857142857 0 0.1040205757871384 1.895979424212787 0 0 2 0 0.14285714285686729 2 0 0.1040205757871384 1.895979424212787 0 0 1.857142857142857 0 0 2 0 0.1040205757871384 1.895979424212787 0 0 2 0 0.14285714285686729 2 0 0.10402057578714501 2.104020575787219 0 0.14285714285686729 2 0 0.1040205757871384 1.895979424212787 0 0.21616732492381949 1.8828959187492971 0 0 2.1428571428571428 0 0.12873413335172121 2.2289200082748062 0 0 2.2857142857142851 0 0 2.1428571428571428 0 0.10402057578714501 2.104020575787219 0 0.12873413335172121 2.2289200082748062 0 0 2 0 0 2.1428571428571428 0 0.10402057578714501 2.104020575787219 0 0.10402057578714501 2.104020575787219 0 0.12873413335172121 2.2289200082748062 0 0.21616732492382371 2.1171040812507051 0 0.14285714285686729 2 0 0.10402057578714501 2.104020575787219 0 0.21616732492382371 2.1171040812507051 0 0.12873413335172121 2.2289200082748062 0 0.21616732492382371 2.1171040812507051 0 0.2815234200304122 2.2453819797430978 0 0.21616732492382371 2.1171040812507051 0 0.35415439180320291 2.1243019236991101 0 0.28571428571359381 2 0 0.21616732492382371 2.1171040812507051 0 0.35415439180320291 2.1243019236991101 0 0.2815234200304122 2.2453819797430978 0 0.35415439180320291 2.1243019236991101 0 0.2815234200304122 2.2453819797430978 0 0.42857142856855918 2.2478284395795001 0 0.14285714285686729 2 0 0.21616732492381949 1.8828959187492971 0 0.28571428571359381 2 0 0.14285714285686729 2 0 0.21616732492382371 2.1171040812507051 0 0.28571428571359381 2 0 0.35415439180320291 2.1243019236991101 0 0.28571428571359381 2 0 0.42857142857032021 2 0 0.28571428571359381 2 0 0.35415439180319602 1.875698076300893 0 0.42857142857032021 2 0 0.21616732492381949 1.8828959187492971 0 0.28571428571359381 2 0 0.35415439180319602 1.875698076300893 0 0.35415439180319602 1.875698076300893 0 0.42857142857032021 2 0 0.49927531931007929 1.874059986305624 0 0.42857142857032021 2 0 0.49927531931008179 2.1259400136943771 0 0.57142857142744297 2 0 0.42857142857032021 2 0 0.57142857142744297 2 0 0.49927531931007929 1.874059986305624 0 0.35415439180320291 2.1243019236991101 0 0.42857142856855918 2.2478284395795001 0 0.49927531931008179 2.1259400136943771 0 0.35415439180320291 2.1243019236991101 0 0.42857142857032021 2 0 0.49927531931008179 2.1259400136943771 0 0.42857142856855918 2.2478284395795001 0 0.49927531931008179 2.1259400136943771 0 0.57126208756432351 2.2553423194843969 0 0.49927531931008179 2.1259400136943771 0 0.64222861727828873 2.130282196703202 0 0.57126208756432351 2.2553423194843969 0 0.64222861727828873 2.130282196703202 0 0.57126208756432351 2.2553423194843969 0 0.7133104372685124 2.2558131098502412 0 0.49927531931008179 2.1259400136943771 0 0.64222861727828873 2.130282196703202 0 0.57142857142744297 2 0 0.64222861727828873 2.130282196703202 0 0.71428571428496201 2 0 0.78018926648515108 2.1255909491940099 0 0.64222861727828873 2.130282196703202 0 0.7133104372685124 2.2558131098502412 0 0.78018926648515108 2.1255909491940099 0 0.57142857142744297 2 0 0.71428571428496201 2 0 0.6422286172782864 1.869717803296798 0 0.57142857142744297 2 0 0.6422286172782864 1.869717803296798 0 0.49927531931007929 1.874059986305624 0 0.64222861727828873 2.130282196703202 0 0.57142857142744297 2 0 0.71428571428496201 2 0 0.71428571428496201 2 0 0.6422286172782864 1.869717803296798 0 0.78018926648514864 1.8744090508059901 0 0.6422286172782864 1.869717803296798 0 0.71331043726850674 1.744186890149759 0 0.78018926648514864 1.8744090508059901 0 0.6422286172782864 1.869717803296798 0 0.57126208756431718 1.7446576805156051 0 0.71331043726850674 1.744186890149759 0 0.6422286172782864 1.869717803296798 0 0.57126208756431718 1.7446576805156051 0 0.49927531931007929 1.874059986305624 0 0.57126208756431718 1.7446576805156051 0 0.71331043726850674 1.744186890149759 0 0.64269698385324503 1.618739532771452 0 0.71331043726850674 1.744186890149759 0 0.64269698385324503 1.618739532771452 0 0.78571428571188839 1.618589574132365 0 0.71428571428344279 1.494871659305963 0 0.64269698385324503 1.618739532771452 0 0.78571428571188839 1.618589574132365 0 0.71428571428344279 1.494871659305963 0 0.5709812421680337 1.49447102461245 0 0.64269698385324503 1.618739532771452 0 0.5709812421680337 1.49447102461245 0 0.64269698385324503 1.618739532771452 0 0.49948637524749079 1.619889960661181 0 0.57126208756431718 1.7446576805156051 0 0.64269698385324503 1.618739532771452 0 0.49948637524749079 1.619889960661181 0 0.5709812421680337 1.49447102461245 0 0.42593700932761119 1.4932105417128021 0 0.49948637524749079 1.619889960661181 0 0.42593700932761119 1.4932105417128021 0 0.35661818314176119 1.6201734641978449 0 0.49948637524749079 1.619889960661181 0 0.35661818314176119 1.6201734641978449 0 0.49948637524749079 1.619889960661181 0 0.42857142856855118 1.752171560420507 0 0.35415439180319602 1.875698076300893 0 0.42857142856855118 1.752171560420507 0 0.49927531931007929 1.874059986305624 0 0.57126208756431718 1.7446576805156051 0 0.42857142856855118 1.752171560420507 0 0.49927531931007929 1.874059986305624 0 0.57126208756431718 1.7446576805156051 0 0.49948637524749079 1.619889960661181 0 0.42857142856855118 1.752171560420507 0 0.28571428571359381 3 0 0.35723491808528102 2.87959107373845 0 0.42857142857032021 3 0 0.28571428571359381 3 0 0.35723491808528102 2.87959107373845 0 0.21715807700202869 2.883451219163276 0 0.35723491808528102 2.87959107373845 0 0.21715807700202869 2.883451219163276 0 0.28318912013054431 2.760198231945127 0 0.28571428571359381 3 0 0.21715807700202869 2.883451219163276 0 0.14285714285686729 3 0 0.21715807700202869 2.883451219163276 0 0.14285714285686729 3 0 0.10457868679552811 2.8954213132043991 0 0 3 0 0 2.8571428571428572 0 0.10457868679552811 2.8954213132043991 0 0.14285714285686729 3 0 0 3 0 0.10457868679552811 2.8954213132043991 0 0 2.8571428571428572 0 0.10457868679552811 2.8954213132043991 0 0.1281705103889878 2.7695156015839308 0 0.21715807700202869 2.883451219163276 0 0.10457868679552811 2.8954213132043991 0 0.1281705103889878 2.7695156015839308 0 0 2.8571428571428572 0 0.1281705103889878 2.7695156015839308 0 0 2.714285714285714 0 0.1281705103889878 2.7695156015839308 0 0 2.714285714285714 0 0.088385776599930521 2.6428571428571428 0 0 2.714285714285714 0 0.088385776599930521 2.6428571428571428 0 0 2.5714285714285712 0 0.1281705103889878 2.7695156015839308 0 0.088385776599930521 2.6428571428571428 0 0.20858437319687029 2.6372026952866259 0 0.21715807700202869 2.883451219163276 0 0.1281705103889878 2.7695156015839308 0 0.28318912013054431 2.760198231945127 0 0.1281705103889878 2.7695156015839308 0 0.20858437319687029 2.6372026952866259 0 0.28318912013054431 2.760198231945127 0 0.35723491808528102 2.87959107373845 0 0.28318912013054431 2.760198231945127 0 0.42772459507389821 2.7570075324977932 0 0.28318912013054431 2.760198231945127 0 0.35404229584497637 2.6340860160603379 0 0.42772459507389821 2.7570075324977932 0 0.20858437319687029 2.6372026952866259 0 0.28318912013054431 2.760198231945127 0 0.35404229584497637 2.6340860160603379 0 0.35404229584497637 2.6340860160603379 0 0.27804612003648221 2.5054084513396928 0 0.42593700932761791 2.506789458287197 0 0.27804612003648221 2.5054084513396928 0 0.35661818314176918 2.3798265358021551 0 0.42593700932761791 2.506789458287197 0 0.27804612003648221 2.5054084513396928 0 0.1265427876282616 2.5018227006931442 0 0.21204462330903229 2.3718021773825648 0 0.20858437319687029 2.6372026952866259 0 0.27804612003648221 2.5054084513396928 0 0.1265427876282616 2.5018227006931442 0 0.20858437319687029 2.6372026952866259 0 0.35404229584497637 2.6340860160603379 0 0.27804612003648221 2.5054084513396928 0 0.088385776599930521 2.6428571428571428 0 0.20858437319687029 2.6372026952866259 0 0.1265427876282616 2.5018227006931442 0 0.088385776599930521 2.6428571428571428 0 0 2.5714285714285712 0 0.1265427876282616 2.5018227006931442 0 0 2.5714285714285712 0 0.1265427876282616 2.5018227006931442 0 0 2.4285714285714279 0 0.1265427876282616 2.5018227006931442 0 0.093464308857803033 2.363366120127246 0 0.21204462330903229 2.3718021773825648 0 0.1265427876282616 2.5018227006931442 0 0.093464308857803033 2.363366120127246 0 0 2.4285714285714279 0 0.093464308857803033 2.363366120127246 0 0 2.4285714285714279 0 0 2.2857142857142851 0 0.12873413335172121 2.2289200082748062 0 0.093464308857803033 2.363366120127246 0 0 2.2857142857142851 0 0.12873413335172121 2.2289200082748062 0 0.093464308857803033 2.363366120127246 0 0.21204462330903229 2.3718021773825648 0 0.12873413335172121 2.2289200082748062 0 0.2815234200304122 2.2453819797430978 0 0.21204462330903229 2.3718021773825648 0 0.27804612003648221 2.5054084513396928 0 0.21204462330903229 2.3718021773825648 0 0.35661818314176918 2.3798265358021551 0 0.2815234200304122 2.2453819797430978 0 0.21204462330903229 2.3718021773825648 0 0.35661818314176918 2.3798265358021551 0 0.2815234200304122 2.2453819797430978 0 0.42857142856855918 2.2478284395795001 0 0.35661818314176918 2.3798265358021551 0 0.42857142856855918 2.2478284395795001 0 0.35661818314176918 2.3798265358021551 0 0.49948637524749862 2.3801100393388199 0 0.35661818314176918 2.3798265358021551 0 0.49948637524749862 2.3801100393388199 0 0.42593700932761791 2.506789458287197 0 0.42857142856855918 2.2478284395795001 0 0.49948637524749862 2.3801100393388199 0 0.57126208756432351 2.2553423194843969 0 0.49948637524749862 2.3801100393388199 0 0.57126208756432351 2.2553423194843969 0 0.64269698385325302 2.3812604672285489 0 0.57126208756432351 2.2553423194843969 0 0.7133104372685124 2.2558131098502412 0 0.64269698385325302 2.3812604672285489 0 0.7133104372685124 2.2558131098502412 0 0.64269698385325302 2.3812604672285489 0 0.78571428571189661 2.3814104258676352 0 0.64269698385325302 2.3812604672285489 0 0.714285714283452 2.5051283406940419 0 0.78571428571189661 2.3814104258676352 0 0.49948637524749862 2.3801100393388199 0 0.64269698385325302 2.3812604672285489 0 0.57098124216804058 2.5055289753875498 0 0.64269698385325302 2.3812604672285489 0 0.57098124216804058 2.5055289753875498 0 0.714285714283452 2.5051283406940419 0 0.714285714283452 2.5051283406940419 0 0.64248101537579549 2.6292191863959529 0 0.78389141510404725 2.630919560373445 0 0.57098124216804058 2.5055289753875498 0 0.49769215192748217 2.6308771328039229 0 0.64248101537579549 2.6292191863959529 0 0.57098124216804058 2.5055289753875498 0 0.714285714283452 2.5051283406940419 0 0.64248101537579549 2.6292191863959529 0 0.57098124216804058 2.5055289753875498 0 0.42593700932761791 2.506789458287197 0 0.49769215192748217 2.6308771328039229 0 0.49948637524749862 2.3801100393388199 0 0.57098124216804058 2.5055289753875498 0 0.42593700932761791 2.506789458287197 0 0.35404229584497637 2.6340860160603379 0 0.42593700932761791 2.506789458287197 0 0.49769215192748217 2.6308771328039229 0 0.35404229584497637 2.6340860160603379 0 0.42772459507389821 2.7570075324977932 0 0.49769215192748217 2.6308771328039229 0 0.42772459507389821 2.7570075324977932 0 0.57147965461976069 2.752770878316519 0 0.50105200202130085 2.8768894588245049 0 0.42772459507389821 2.7570075324977932 0 0.49769215192748217 2.6308771328039229 0 0.57147965461976069 2.752770878316519 0 0.49769215192748217 2.6308771328039229 0 0.64248101537579549 2.6292191863959529 0 0.57147965461976069 2.752770878316519 0 0.64248101537579549 2.6292191863959529 0 0.71318645322081142 2.7532979010713579 0 0.57147965461976069 2.752770878316519 0 0.64248101537579549 2.6292191863959529 0 0.71318645322081142 2.7532979010713579 0 0.78389141510404725 2.630919560373445 0 0.71318645322081142 2.7532979010713579 0 0.57147965461976069 2.752770878316519 0 0.64211163998861565 2.8769149593383769 0 0.57147965461976069 2.752770878316519 0 0.64211163998861565 2.8769149593383769 0 0.50105200202130085 2.8768894588245049 0 0.71318645322081142 2.7532979010713579 0 0.64211163998861565 2.8769149593383769 0 0.78018926648583442 2.8794719565116988 0 0.64211163998861565 2.8769149593383769 0 0.71428571428496201 3 0 0.78018926648583442 2.8794719565116988 0 0.64211163998861565 2.8769149593383769 0 0.71428571428496201 3 0 0.57142857142744297 3 0 0.64211163998861565 2.8769149593383769 0 0.57142857142744297 3 0 0.50105200202130085 2.8768894588245049 0 0.57142857142744297 3 0 0.50105200202130085 2.8768894588245049 0 0.42857142857032021 3 0 0.35723491808528102 2.87959107373845 0 0.42772459507389821 2.7570075324977932 0 0.50105200202130085 2.8768894588245049 0 0.35723491808528102 2.87959107373845 0 0.50105200202130085 2.8768894588245049 0 0.42857142857032021 3 0 1.1045786867955549 2.8954213132044448 0 1 3 0 1.142857142857143 3 0 1.1045786867955549 2.8954213132044448 0 1 2.8571428571428572 0 1 3 0 1.1045786867955549 2.8954213132044448 0 1 2.8571428571428572 0 1.1205280434878859 2.780189266486456 0 1 2.8571428571428572 0 1 3 0 0.89542131320410789 2.8954213132042099 0 1 3 0 0.85714285714248095 3 0 0.89542131320410789 2.8954213132042099 0 0.85714285714248095 3 0 0.78018926648583442 2.8794719565116988 0 0.89542131320410789 2.8954213132042099 0 0.71428571428496201 3 0 0.85714285714248095 3 0 0.78018926648583442 2.8794719565116988 0 1 2.8571428571428572 0 0.89542131320410789 2.8954213132042099 0 0.86814175826561968 2.7676280636349269 0 0.78018926648583442 2.8794719565116988 0 0.89542131320410789 2.8954213132042099 0 0.86814175826561968 2.7676280636349269 0 0.71318645322081142 2.7532979010713579 0 0.78018926648583442 2.8794719565116988 0 0.86814175826561968 2.7676280636349269 0 0.71318645322081142 2.7532979010713579 0 0.86814175826561968 2.7676280636349269 0 0.78389141510404725 2.630919560373445 0 0.86814175826561968 2.7676280636349269 0 0.78389141510404725 2.630919560373445 0 0.9044833397938421 2.6408474355902611 0 0.86814175826561968 2.7676280636349269 0 0.9044833397938421 2.6408474355902611 0 1 2.714285714285714 0 0.9044833397938421 2.6408474355902611 0 1 2.714285714285714 0 1 2.5714285714285712 0 1 2.8571428571428572 0 0.86814175826561968 2.7676280636349269 0 1 2.714285714285714 0 1 2.8571428571428572 0 1 2.714285714285714 0 1.1205280434878859 2.780189266486456 0 1 2.714285714285714 0 1.1231862696032711 2.6419363063191699 0 1 2.5714285714285712 0 1 2.714285714285714 0 1.1205280434878859 2.780189266486456 0 1.1231862696032711 2.6419363063191699 0 1.1231862696032711 2.6419363063191699 0 1.1237179148263481 2.4999999999999978 0 1 2.5714285714285712 0 1.1237179148263481 2.4999999999999978 0 1 2.5714285714285712 0 1 2.4285714285714279 0 1 2.5714285714285712 0 0.87194859075748876 2.5024506208783599 0 1 2.4285714285714279 0 0.78389141510404725 2.630919560373445 0 0.9044833397938421 2.6408474355902611 0 0.87194859075748876 2.5024506208783599 0 0.9044833397938421 2.6408474355902611 0 1 2.5714285714285712 0 0.87194859075748876 2.5024506208783599 0 0.714285714283452 2.5051283406940419 0 0.78389141510404725 2.630919560373445 0 0.87194859075748876 2.5024506208783599 0 0.714285714283452 2.5051283406940419 0 0.87194859075748876 2.5024506208783599 0 0.78571428571189661 2.3814104258676352 0 0.87194859075748876 2.5024506208783599 0 0.905136104095428 2.367107595633493 0 0.78571428571189661 2.3814104258676352 0 0.87194859075748876 2.5024506208783599 0 0.905136104095428 2.367107595633493 0 1 2.4285714285714279 0 0.7133104372685124 2.2558131098502412 0 0.78571428571189661 2.3814104258676352 0 0.86801764400775483 2.2373912171357588 0 0.905136104095428 2.367107595633493 0 0.78571428571189661 2.3814104258676352 0 0.86801764400775483 2.2373912171357588 0 0.905136104095428 2.367107595633493 0 1 2.2857142857142851 0 0.86801764400775483 2.2373912171357588 0 0.905136104095428 2.367107595633493 0 1 2.2857142857142851 0 1 2.4285714285714279 0 1.1237179148263481 2.4999999999999978 0 1 2.4285714285714279 0 1.124445554570056 2.3535499438421961 0 1 2.2857142857142851 0 1 2.4285714285714279 0 1.124445554570056 2.3535499438421961 0 1 2.2857142857142851 0 1.124445554570056 2.3535499438421961 0 1.1237179148263481 2.2142857142857149 0 1.124445554570056 2.3535499438421961 0 1.2437589323753271 2.2790339186609172 0 1.1237179148263481 2.2142857142857149 0 1.1237179148263481 2.4999999999999978 0 1.124445554570056 2.3535499438421961 0 1.247435829652694 2.4285714285714248 0 1.124445554570056 2.3535499438421961 0 1.247435829652694 2.4285714285714248 0 1.2437589323753271 2.2790339186609172 0 1.247435829652694 2.4285714285714248 0 1.2437589323753271 2.2790339186609172 0 1.367319104369215 2.3469268258187319 0 1.2437589323753271 2.2790339186609172 0 1.367319104369215 2.3469268258187319 0 1.3682878852476059 2.2035940021081579 0 1.4944588869160489 2.2778135148397252 0 1.367319104369215 2.3469268258187319 0 1.3682878852476059 2.2035940021081579 0 1.49336243329776 2.4259573724460979 0 1.367319104369215 2.3469268258187319 0 1.3698831109599341 2.4977991981870939 0 1.4944588869160489 2.2778135148397252 0 1.49336243329776 2.4259573724460979 0 1.367319104369215 2.3469268258187319 0 1.247435829652694 2.4285714285714248 0 1.367319104369215 2.3469268258187319 0 1.3698831109599341 2.4977991981870939 0 1.49336243329776 2.4259573724460979 0 1.3698831109599341 2.4977991981870939 0 1.4946221303562011 2.5709963746106008 0 1.3698831109599341 2.4977991981870939 0 1.4946221303562011 2.5709963746106008 0 1.370927204302999 2.6424647637622658 0 1.3698831109599341 2.4977991981870939 0 1.2473472221155171 2.5712750986722401 0 1.370927204302999 2.6424647637622658 0 1.247435829652694 2.4285714285714248 0 1.3698831109599341 2.4977991981870939 0 1.2473472221155171 2.5712750986722401 0 1.1237179148263481 2.4999999999999978 0 1.247435829652694 2.4285714285714248 0 1.2473472221155171 2.5712750986722401 0 1.1231862696032711 2.6419363063191699 0 1.1237179148263481 2.4999999999999978 0 1.2473472221155171 2.5712750986722401 0 1.1205280434878859 2.780189266486456 0 1.1231862696032711 2.6419363063191699 0 1.2467630522735731 2.713120429682879 0 1.1231862696032711 2.6419363063191699 0 1.2473472221155171 2.5712750986722401 0 1.2467630522735731 2.713120429682879 0 1.1205280434878859 2.780189266486456 0 1.2467630522735731 2.713120429682879 0 1.2323855807482531 2.8681303673999259 0 1.2467630522735731 2.713120429682879 0 1.3691149969664549 2.7838777025796868 0 1.2323855807482531 2.8681303673999259 0 1.2473472221155171 2.5712750986722401 0 1.2467630522735731 2.713120429682879 0 1.370927204302999 2.6424647637622658 0 1.2467630522735731 2.713120429682879 0 1.370927204302999 2.6424647637622658 0 1.3691149969664549 2.7838777025796868 0 1.370927204302999 2.6424647637622658 0 1.4948716593053959 2.7142857142857029 0 1.3691149969664549 2.7838777025796868 0 1.4946221303562011 2.5709963746106008 0 1.370927204302999 2.6424647637622658 0 1.4948716593053959 2.7142857142857029 0 1.4948716593053959 2.7142857142857029 0 1.3691149969664549 2.7838777025796868 0 1.49754937912118 2.871948590758397 0 1.3691149969664549 2.7838777025796868 0 1.3591560776536049 2.904481510101697 0 1.2323855807482531 2.8681303673999259 0 1.3691149969664549 2.7838777025796868 0 1.3591560776536049 2.904481510101697 0 1.49754937912118 2.871948590758397 0 1.3591560776536049 2.904481510101697 0 1.49754937912118 2.871948590758397 0 1.4285714285714279 3 0 1.49754937912118 2.871948590758397 0 1.4285714285714279 3 0 1.571428571428571 3 0 1.3591560776536049 2.904481510101697 0 1.4285714285714279 3 0 1.2857142857142849 3 0 1.3591560776536049 2.904481510101697 0 1.2857142857142849 3 0 1.2323855807482531 2.8681303673999259 0 1.2857142857142849 3 0 1.2323855807482531 2.8681303673999259 0 1.142857142857143 3 0 1.1045786867955549 2.8954213132044448 0 1.1205280434878859 2.780189266486456 0 1.2323855807482531 2.8681303673999259 0 1.1045786867955549 2.8954213132044448 0 1.2323855807482531 2.8681303673999259 0 1.142857142857143 3 0 1 1.714285714285714 0 1 1.857142857142857 0 0.86801764400775172 1.7626087828642401 0 1 1.857142857142857 0 1.1045786867955549 1.895421313204446 0 1.1286816305548799 1.7669740022979501 0 1 1.714285714285714 0 1.0919758494404179 1.6390607956138989 0 1.1286816305548799 1.7669740022979501 0 1 1.714285714285714 0 1 1.857142857142857 0 1.1286816305548799 1.7669740022979501 0 1.0919758494404179 1.6390607956138989 0 1 1.571428571428571 0 1.1265427876294609 1.501822700692834 0 1 1.4285714285714279 0 1 1.571428571428571 0 1.1265427876294609 1.501822700692834 0 1 1.714285714285714 0 1.0919758494404179 1.6390607956138989 0 1 1.571428571428571 0 1 1.714285714285714 0 1 1.571428571428571 0 0.90513610409542911 1.632892404366491 0 0.90513610409542911 1.632892404366491 0 0.78571428571188839 1.618589574132365 0 0.86801764400775172 1.7626087828642401 0 0.87194859075750586 1.497549379121565 0 1 1.571428571428571 0 0.90513610409542911 1.632892404366491 0 0.87194859075750586 1.497549379121565 0 0.90513610409542911 1.632892404366491 0 0.78571428571188839 1.618589574132365 0 0.87194859075750586 1.497549379121565 0 0.71428571428344279 1.494871659305963 0 0.78571428571188839 1.618589574132365 0 0.71331043726850674 1.744186890149759 0 0.78571428571188839 1.618589574132365 0 0.86801764400775172 1.7626087828642401 0 1 1.714285714285714 0 0.90513610409542911 1.632892404366491 0 0.86801764400775172 1.7626087828642401 0 1 1.857142857142857 0 0.86801764400775172 1.7626087828642401 0 0.89542131320410678 1.895421313204209 0 0.86801764400775172 1.7626087828642401 0 0.78018926648514864 1.8744090508059901 0 0.89542131320410678 1.895421313204209 0 0.71331043726850674 1.744186890149759 0 0.86801764400775172 1.7626087828642401 0 0.78018926648514864 1.8744090508059901 0 0.71428571428496201 2 0 0.78018926648514864 1.8744090508059901 0 0.85714285714248095 2 0 0.71428571428496201 2 0 0.85714285714248095 2 0 0.78018926648515108 2.1255909491940099 0 0.85714285714248095 2 0 0.8954213132041059 2.1045786867957932 0 1 2 0 0.78018926648514864 1.8744090508059901 0 0.85714285714248095 2 0 0.89542131320410678 1.895421313204209 0 0.85714285714248095 2 0 0.89542131320410678 1.895421313204209 0 1 2 0 0.7133104372685124 2.2558131098502412 0 0.78018926648515108 2.1255909491940099 0 0.86801764400775483 2.2373912171357588 0 0.78018926648515108 2.1255909491940099 0 0.8954213132041059 2.1045786867957932 0 0.86801764400775483 2.2373912171357588 0 0.85714285714248095 2 0 0.78018926648515108 2.1255909491940099 0 0.8954213132041059 2.1045786867957932 0 0.8954213132041059 2.1045786867957932 0 0.86801764400775483 2.2373912171357588 0 1 2.1428571428571428 0 1 2.2857142857142851 0 0.86801764400775483 2.2373912171357588 0 1 2.1428571428571428 0 0.8954213132041059 2.1045786867957932 0 1 2.1428571428571428 0 1 2 0 1 2.1428571428571428 0 1.1045786867955549 2.1045786867955538 0 1.1237179148263481 2.2142857142857149 0 1 2.1428571428571428 0 1.1045786867955549 2.1045786867955538 0 1 2 0 1 2.2857142857142851 0 1 2.1428571428571428 0 1.1237179148263481 2.2142857142857149 0 1 1.857142857142857 0 0.89542131320410678 1.895421313204209 0 1 2 0 1.1045786867955549 2.1045786867955538 0 1 2 0 1.142857142857143 2 0 1 2 0 1.1045786867955549 1.895421313204446 0 1.142857142857143 2 0 1 1.857142857142857 0 1 2 0 1.1045786867955549 1.895421313204446 0 1.1045786867955549 1.895421313204446 0 1.142857142857143 2 0 1.2202906086958949 1.8808023822399611 0 1.142857142857143 2 0 1.2857142857142849 2 0 1.2202906086958949 1.8808023822399611 0 1.142857142857143 2 0 1.2857142857142849 2 0 1.23134730558604 2.127275597339279 0 1.2857142857142849 2 0 1.2202906086958949 1.8808023822399611 0 1.3583104310875389 1.876956184304913 0 1.2437589323753271 2.2790339186609172 0 1.1237179148263481 2.2142857142857149 0 1.23134730558604 2.127275597339279 0 1.1045786867955549 2.1045786867955538 0 1.1237179148263481 2.2142857142857149 0 1.23134730558604 2.127275597339279 0 1.1045786867955549 2.1045786867955538 0 1.142857142857143 2 0 1.23134730558604 2.127275597339279 0 1.2857142857142849 2 0 1.23134730558604 2.127275597339279 0 1.357142857142857 2.0883857766009042 0 1.2437589323753271 2.2790339186609172 0 1.23134730558604 2.127275597339279 0 1.3682878852476059 2.2035940021081579 0 1.23134730558604 2.127275597339279 0 1.3682878852476059 2.2035940021081579 0 1.357142857142857 2.0883857766009042 0 1.357142857142857 2.0883857766009042 0 1.4981772993071649 2.1265427876294591 0 1.4285714285714279 2 0 1.3682878852476059 2.2035940021081579 0 1.357142857142857 2.0883857766009042 0 1.4981772993071649 2.1265427876294591 0 1.4944588869160489 2.2778135148397252 0 1.3682878852476059 2.2035940021081579 0 1.4981772993071649 2.1265427876294591 0 1.2857142857142849 2 0 1.3583104310875389 1.876956184304913 0 1.4285714285714279 2 0 1.2857142857142849 2 0 1.357142857142857 2.0883857766009042 0 1.4285714285714279 2 0 1.4981772993071649 2.1265427876294591 0 1.4285714285714279 2 0 1.571428571428571 2 0 1.4285714285714279 2 0 1.4999999999999989 1.876282085173651 0 1.571428571428571 2 0 1.3583104310875389 1.876956184304913 0 1.4285714285714279 2 0 1.4999999999999989 1.876282085173651 0 1.3583104310875389 1.876956184304913 0 1.4999999999999989 1.876282085173651 0 1.4287660242288751 1.752676520202513 0 1.4287660242288751 1.752676520202513 0 1.284542510538256 1.7535733272041241 0 1.35657912408646 1.6297632267705111 0 1.3583104310875389 1.876956184304913 0 1.4287660242288751 1.752676520202513 0 1.284542510538256 1.7535733272041241 0 1.2202906086958949 1.8808023822399611 0 1.3583104310875389 1.876956184304913 0 1.284542510538256 1.7535733272041241 0 1.284542510538256 1.7535733272041241 0 1.1286816305548799 1.7669740022979501 0 1.211834974696774 1.6332002948779361 0 1.2202906086958949 1.8808023822399611 0 1.284542510538256 1.7535733272041241 0 1.1286816305548799 1.7669740022979501 0 1.1045786867955549 1.895421313204446 0 1.2202906086958949 1.8808023822399611 0 1.1286816305548799 1.7669740022979501 0 1.0919758494404179 1.6390607956138989 0 1.1265427876294609 1.501822700692834 0 1.211834974696774 1.6332002948779361 0 1.1265427876294609 1.501822700692834 0 1.211834974696774 1.6332002948779361 0 1.285714285714282 1.505128340694609 0 1.0919758494404179 1.6390607956138989 0 1.1286816305548799 1.7669740022979501 0 1.211834974696774 1.6332002948779361 0 1.284542510538256 1.7535733272041241 0 1.211834974696774 1.6332002948779361 0 1.35657912408646 1.6297632267705111 0 1.211834974696774 1.6332002948779361 0 1.285714285714282 1.505128340694609 0 1.35657912408646 1.6297632267705111 0 1.285714285714282 1.505128340694609 0 1.35657912408646 1.6297632267705111 0 1.42857911129607 1.505132776317748 0 1.4287660242288751 1.752676520202513 0 1.35657912408646 1.6297632267705111 0 1.500037838044501 1.628868101326133 0 1.35657912408646 1.6297632267705111 0 1.42857911129607 1.505132776317748 0 1.500037838044501 1.628868101326133 0 1.42857911129607 1.505132776317748 0 1.5714368297319321 1.505133108628274 0 1.500037838044501 1.628868101326133 0 1.5714368297319321 1.505133108628274 0 1.500037838044501 1.628868101326133 0 1.642868854632821 1.6288530173177931 0 1.500037838044501 1.628868101326133 0 1.642868854632821 1.6288530173177931 0 1.571461004038144 1.7525828953231699 0 1.5714368297319321 1.505133108628274 0 1.642868854632821 1.6288530173177931 0 1.7164690164522749 1.505013992076764 0 1.642868854632821 1.6288530173177931 0 1.7164690164522749 1.505013992076764 0 1.7839870186351829 1.630825559243579 0 1.642868854632821 1.6288530173177931 0 1.7839870186351829 1.630825559243579 0 1.713372235145284 1.7531000633658289 0 1.7839870186351829 1.630825559243579 0 1.868181956188198 1.767586372373096 0 1.904493237859993 1.64083754547551 0 1.7839870186351829 1.630825559243579 0 1.871948590758401 1.50245062087882 0 1.904493237859993 1.64083754547551 0 1.7164690164522749 1.505013992076764 0 1.7839870186351829 1.630825559243579 0 1.871948590758401 1.50245062087882 0 1.868181956188198 1.767586372373096 0 1.713372235145284 1.7531000633658289 0 1.7801892664864549 1.879471956512115 0 1.868181956188198 1.767586372373096 0 1.7801892664864549 1.879471956512115 0 1.8954213132044451 1.8954213132044451 0 1.7839870186351829 1.630825559243579 0 1.868181956188198 1.767586372373096 0 1.713372235145284 1.7531000633658289 0 1.713372235145284 1.7531000633658289 0 1.6417894652306939 1.876906166729128 0 1.7801892664864549 1.879471956512115 0 1.713372235145284 1.7531000633658289 0 1.571461004038144 1.7525828953231699 0 1.6417894652306939 1.876906166729128 0 1.642868854632821 1.6288530173177931 0 1.713372235145284 1.7531000633658289 0 1.571461004038144 1.7525828953231699 0 1.4287660242288751 1.752676520202513 0 1.500037838044501 1.628868101326133 0 1.571461004038144 1.7525828953231699 0 1.4999999999999989 1.876282085173651 0 1.571461004038144 1.7525828953231699 0 1.6417894652306939 1.876906166729128 0 1.4999999999999989 1.876282085173651 0 1.4287660242288751 1.752676520202513 0 1.571461004038144 1.7525828953231699 0 1.4999999999999989 1.876282085173651 0 1.571428571428571 2 0 1.6417894652306939 1.876906166729128 0 1.571428571428571 2 0 1.6428571428571419 2.0966122299857219 0 1.714285714285714 2 0 1.571428571428571 2 0 1.6417894652306939 1.876906166729128 0 1.714285714285714 2 0 1.4944588869160489 2.2778135148397252 0 1.4981772993071649 2.1265427876294591 0 1.618589574131738 2.2142857142857051 0 1.4981772993071649 2.1265427876294591 0 1.571428571428571 2 0 1.6428571428571419 2.0966122299857219 0 1.4981772993071649 2.1265427876294591 0 1.6428571428571419 2.0966122299857219 0 1.618589574131738 2.2142857142857051 0 1.6428571428571419 2.0966122299857219 0 1.618589574131738 2.2142857142857051 0 1.764905672277584 2.1309733946265141 0 1.618589574131738 2.2142857142857051 0 1.764905672277584 2.1309733946265141 0 1.7480830732282899 2.2842008379910128 0 1.6428571428571419 2.0966122299857219 0 1.764905672277584 2.1309733946265141 0 1.714285714285714 2 0 1.764905672277584 2.1309733946265141 0 1.8779600310929021 2.2171362933276071 0 1.895421313204446 2.1045786867955552 0 1.764905672277584 2.1309733946265141 0 1.857142857142857 2 0 1.895421313204446 2.1045786867955552 0 1.764905672277584 2.1309733946265141 0 1.8779600310929021 2.2171362933276071 0 1.7480830732282899 2.2842008379910128 0 1.6417894652306939 1.876906166729128 0 1.7801892664864549 1.879471956512115 0 1.714285714285714 2 0 1.764905672277584 2.1309733946265141 0 1.714285714285714 2 0 1.857142857142857 2 0 1.7801892664864549 1.879471956512115 0 1.714285714285714 2 0 1.857142857142857 2 0 1.7801892664864549 1.879471956512115 0 1.857142857142857 2 0 1.8954213132044451 1.8954213132044451 0 1.8954213132044451 1.8954213132044451 0 2 2 0 2 1.857142857142857 0 1.857142857142857 2 0 1.8954213132044451 1.8954213132044451 0 2 2 0 1.857142857142857 2 0 2 2 0 1.895421313204446 2.1045786867955552 0 2 2 0 2.1045786867955552 1.8954213132044451 0 2 1.857142857142857 0 1.8779600310929021 2.2171362933276071 0 2 2.1428571428571428 0 2 2.2857142857142851 0 2 2 0 1.895421313204446 2.1045786867955552 0 2 2.1428571428571428 0 1.8779600310929021 2.2171362933276071 0 1.895421313204446 2.1045786867955552 0 2 2.1428571428571428 0 2 2 0 2 2.1428571428571428 0 2.1045786867955552 2.1045786867955552 0 2 2.1428571428571428 0 2.1237179148263481 2.2142857142857149 0 2 2.2857142857142851 0 2 2.1428571428571428 0 2.1237179148263481 2.2142857142857149 0 2.1045786867955552 2.1045786867955552 0 2.1237179148263481 2.2142857142857149 0 2.1045786867955552 2.1045786867955552 0 2.2313473055860129 2.1272755973392572 0 2.1045786867955552 2.1045786867955552 0 2.2313473055860129 2.1272755973392572 0 2.1428571428571428 2 0 2.1237179148263481 2.2142857142857149 0 2.2313473055860129 2.1272755973392572 0 2.2437590376264152 2.2790339820013181 0 2 2 0 2.1045786867955552 1.8954213132044451 0 2.1428571428571428 2 0 2.1045786867955552 1.8954213132044451 0 2.1428571428571428 2 0 2.2202906086958931 1.880802382239964 0 2 2 0 2.1045786867955552 2.1045786867955552 0 2.1428571428571428 2 0 2.2313473055860129 2.1272755973392572 0 2.1428571428571428 2 0 2.2857142857142851 2 0 2.1428571428571428 2 0 2.2202906086958931 1.880802382239964 0 2.2857142857142851 2 0 2.2202906086958931 1.880802382239964 0 2.1286816305548801 1.7669740022979501 0 2.2845425105382549 1.7535733272041241 0 2.1045786867955552 1.8954213132044451 0 2.2202906086958931 1.880802382239964 0 2.1286816305548801 1.7669740022979501 0 2.1045786867955552 1.8954213132044451 0 2.1286816305548801 1.7669740022979501 0 2 1.857142857142857 0 2.1286816305548801 1.7669740022979501 0 2.0920210771696688 1.6392662971026759 0 2 1.714285714285714 0 2.1286816305548801 1.7669740022979501 0 2.2118802024260251 1.6334057963667139 0 2.2845425105382549 1.7535733272041241 0 2.2118802024260251 1.6334057963667139 0 2.1268141540049612 1.5030557096254999 0 2.2857142857142878 1.505128340694611 0 2.1268141540049612 1.5030557096254999 0 2.0920210771696688 1.6392662971026759 0 2 1.571428571428571 0 2.2118802024260251 1.6334057963667139 0 2.1268141540049612 1.5030557096254999 0 2.0920210771696688 1.6392662971026759 0 2.1286816305548801 1.7669740022979501 0 2.2118802024260251 1.6334057963667139 0 2.0920210771696688 1.6392662971026759 0 2.0920210771696688 1.6392662971026759 0 2 1.571428571428571 0 2 1.714285714285714 0 2.1268141540049612 1.5030557096254999 0 2 1.571428571428571 0 2 1.4285714285714279 0 1.871948590758401 1.50245062087882 0 2 1.571428571428571 0 1.904493237859993 1.64083754547551 0 1.871948590758401 1.50245062087882 0 2 1.571428571428571 0 2 1.4285714285714279 0 2 1.571428571428571 0 1.904493237859993 1.64083754547551 0 2 1.714285714285714 0 1.868181956188198 1.767586372373096 0 2 1.857142857142857 0 2 1.714285714285714 0 1.868181956188198 1.767586372373096 0 1.904493237859993 1.64083754547551 0 2 1.714285714285714 0 1.868181956188198 1.767586372373096 0 1.8954213132044451 1.8954213132044451 0 2 1.857142857142857 0 2.1286816305548801 1.7669740022979501 0 2 1.857142857142857 0 2 1.714285714285714 0 1.857142857142857 3 0 1.7625829828895341 2.8680117993848531 0 1.895421313204446 2.8954213132044462 0 1.7625829828895341 2.8680117993848531 0 1.8744090508054969 2.7801892664864498 0 1.895421313204446 2.8954213132044462 0 1.857142857142857 3 0 1.7625829828895341 2.8680117993848531 0 1.714285714285714 3 0 1.7625829828895341 2.8680117993848531 0 1.714285714285714 3 0 1.6328872443713489 2.905134935171505 0 1.714285714285714 3 0 1.571428571428571 3 0 1.6328872443713489 2.905134935171505 0 1.49754937912118 2.871948590758397 0 1.571428571428571 3 0 1.6328872443713489 2.905134935171505 0 1.49754937912118 2.871948590758397 0 1.6328872443713489 2.905134935171505 0 1.618589574131748 2.7857142857142771 0 1.7625829828895341 2.8680117993848531 0 1.6328872443713489 2.905134935171505 0 1.618589574131748 2.7857142857142771 0 1.4948716593053959 2.7142857142857029 0 1.49754937912118 2.871948590758397 0 1.618589574131748 2.7857142857142771 0 1.4948716593053959 2.7142857142857029 0 1.618589574131748 2.7857142857142771 0 1.618499131669189 2.6427004919168251 0 1.4946221303562011 2.5709963746106008 0 1.4948716593053959 2.7142857142857029 0 1.618499131669189 2.6427004919168251 0 1.618589574131748 2.7857142857142771 0 1.618499131669189 2.6427004919168251 0 1.744006290327982 2.7132695249030081 0 1.618499131669189 2.6427004919168251 0 1.744006290327982 2.7132695249030081 0 1.7438144826910189 2.571013105300513 0 1.7625829828895341 2.8680117993848531 0 1.618589574131748 2.7857142857142771 0 1.744006290327982 2.7132695249030081 0 1.7625829828895341 2.8680117993848531 0 1.744006290327982 2.7132695249030081 0 1.8744090508054969 2.7801892664864498 0 1.744006290327982 2.7132695249030081 0 1.8744090508054969 2.7801892664864498 0 1.869528722044044 2.6422655888827711 0 1.744006290327982 2.7132695249030081 0 1.869528722044044 2.6422655888827711 0 1.7438144826910189 2.571013105300513 0 1.869528722044044 2.6422655888827711 0 1.8728601884303651 2.4999999999999969 0 1.7438144826910189 2.571013105300513 0 1.8728601884303651 2.4999999999999969 0 1.7438144826910189 2.571013105300513 0 1.7445056250705191 2.4267429915673051 0 1.7438144826910189 2.571013105300513 0 1.6182964483056039 2.499492291176109 0 1.7445056250705191 2.4267429915673051 0 1.618499131669189 2.6427004919168251 0 1.7438144826910189 2.571013105300513 0 1.6182964483056039 2.499492291176109 0 1.4946221303562011 2.5709963746106008 0 1.618499131669189 2.6427004919168251 0 1.6182964483056039 2.499492291176109 0 1.49336243329776 2.4259573724460979 0 1.4946221303562011 2.5709963746106008 0 1.6182964483056039 2.499492291176109 0 1.6182964483056039 2.499492291176109 0 1.619225602145042 2.355202188835702 0 1.7445056250705191 2.4267429915673051 0 1.49336243329776 2.4259573724460979 0 1.6182964483056039 2.499492291176109 0 1.619225602145042 2.355202188835702 0 1.4944588869160489 2.2778135148397252 0 1.49336243329776 2.4259573724460979 0 1.619225602145042 2.355202188835702 0 1.4944588869160489 2.2778135148397252 0 1.618589574131738 2.2142857142857051 0 1.619225602145042 2.355202188835702 0 1.618589574131738 2.2142857142857051 0 1.619225602145042 2.355202188835702 0 1.7480830732282899 2.2842008379910128 0 1.619225602145042 2.355202188835702 0 1.7480830732282899 2.2842008379910128 0 1.7445056250705191 2.4267429915673051 0 1.8728601884303651 2.4999999999999969 0 1.7445056250705191 2.4267429915673051 0 1.8702227561605891 2.3565050932945648 0 1.7480830732282899 2.2842008379910128 0 1.7445056250705191 2.4267429915673051 0 1.8702227561605891 2.3565050932945648 0 1.8779600310929021 2.2171362933276071 0 1.7480830732282899 2.2842008379910128 0 1.8702227561605891 2.3565050932945648 0 1.8779600310929021 2.2171362933276071 0 1.8702227561605891 2.3565050932945648 0 2 2.2857142857142851 0 1.8702227561605891 2.3565050932945648 0 2 2.4285714285714279 0 2 2.2857142857142851 0 1.8728601884303651 2.4999999999999969 0 1.8702227561605891 2.3565050932945648 0 2 2.4285714285714279 0 2 2.4285714285714279 0 2 2.2857142857142851 0 2.1244455545700558 2.3535499438421899 0 2.1237179148263481 2.2142857142857149 0 2 2.2857142857142851 0 2.1244455545700558 2.3535499438421899 0 2.1237179148263481 2.2142857142857149 0 2.2437590376264152 2.2790339820013181 0 2.1244455545700558 2.3535499438421899 0 2.2437590376264152 2.2790339820013181 0 2.2474358296526931 2.4285714285714239 0 2.1244455545700558 2.3535499438421899 0 2.2474358296526931 2.4285714285714239 0 2.1244455545700558 2.3535499438421899 0 2.1237179148263481 2.4999999999999978 0 2 2.4285714285714279 0 2.1244455545700558 2.3535499438421899 0 2.1237179148263481 2.4999999999999978 0 2.2474358296526931 2.4285714285714239 0 2.1237179148263481 2.4999999999999978 0 2.2473472221155188 2.571275098672237 0 2.1237179148263481 2.4999999999999978 0 2.2473472221155188 2.571275098672237 0 2.1231862696032739 2.641936306319169 0 2.1237179148263481 2.4999999999999978 0 2 2.5714285714285712 0 2.1231862696032739 2.641936306319169 0 2 2.4285714285714279 0 2.1237179148263481 2.4999999999999978 0 2 2.5714285714285712 0 1.8728601884303651 2.4999999999999969 0 2 2.4285714285714279 0 2 2.5714285714285712 0 1.869528722044044 2.6422655888827711 0 1.8728601884303651 2.4999999999999969 0 2 2.5714285714285712 0 1.8744090508054969 2.7801892664864498 0 1.869528722044044 2.6422655888827711 0 2 2.714285714285714 0 1.869528722044044 2.6422655888827711 0 2 2.5714285714285712 0 2 2.714285714285714 0 1.8744090508054969 2.7801892664864498 0 2 2.714285714285714 0 2 2.8571428571428572 0 2 2.714285714285714 0 2.1205280434878868 2.7801892664864529 0 2 2.8571428571428572 0 2 2.5714285714285712 0 2 2.714285714285714 0 2.1231862696032739 2.641936306319169 0 2 2.714285714285714 0 2.1231862696032739 2.641936306319169 0 2.1205280434878868 2.7801892664864529 0 2.1231862696032739 2.641936306319169 0 2.2467630522735749 2.713120429682875 0 2.1205280434878868 2.7801892664864529 0 2.2473472221155188 2.571275098672237 0 2.1231862696032739 2.641936306319169 0 2.2467630522735749 2.713120429682875 0 2.2467630522735749 2.713120429682875 0 2.1205280434878868 2.7801892664864529 0 2.232409009442776 2.8681560935612769 0 2.1205280434878868 2.7801892664864529 0 2.1045786867955552 2.8954213132044448 0 2.232409009442776 2.8681560935612769 0 2.1205280434878868 2.7801892664864529 0 2.1045786867955552 2.8954213132044448 0 2 2.8571428571428572 0 2.232409009442776 2.8681560935612769 0 2.1428571428571428 3 0 2.2857142857142851 3 0 2.1045786867955552 2.8954213132044448 0 2.232409009442776 2.8681560935612769 0 2.1428571428571428 3 0 2.1045786867955552 2.8954213132044448 0 2.1428571428571428 3 0 2 3 0 2.1045786867955552 2.8954213132044448 0 2 3 0 2 2.8571428571428572 0 1.8744090508054969 2.7801892664864498 0 2 2.8571428571428572 0 1.895421313204446 2.8954213132044462 0 2 3 0 2 2.8571428571428572 0 1.895421313204446 2.8954213132044462 0 1.857142857142857 3 0 2 3 0 1.895421313204446 2.8954213132044462 0 2.5714285714285712 3 0 2.498533384291155 2.8730290895352302 0 2.6413671075336191 2.906422072834058 0 2.498533384291155 2.8730290895352302 0 2.624345486027623 2.7856888613712472 0 2.6413671075336191 2.906422072834058 0 2.5714285714285712 3 0 2.498533384291155 2.8730290895352302 0 2.4285714285714279 3 0 2.4285714285714279 3 0 2.2857142857142851 3 0 2.3612561171619291 2.9048358126425291 0 2.498533384291155 2.8730290895352302 0 2.4285714285714279 3 0 2.3612561171619291 2.9048358126425291 0 2.232409009442776 2.8681560935612769 0 2.2857142857142851 3 0 2.3612561171619291 2.9048358126425291 0 2.232409009442776 2.8681560935612769 0 2.3612561171619291 2.9048358126425291 0 2.369278997828121 2.784057785709154 0 2.498533384291155 2.8730290895352302 0 2.3612561171619291 2.9048358126425291 0 2.369278997828121 2.784057785709154 0 2.2467630522735749 2.713120429682875 0 2.232409009442776 2.8681560935612769 0 2.369278997828121 2.784057785709154 0 2.2467630522735749 2.713120429682875 0 2.369278997828121 2.784057785709154 0 2.370927204303003 2.64246476376226 0 2.2473472221155188 2.571275098672237 0 2.2467630522735749 2.713120429682875 0 2.370927204303003 2.64246476376226 0 2.369278997828121 2.784057785709154 0 2.370927204303003 2.64246476376226 0 2.495616516317638 2.717626453377767 0 2.370927204303003 2.64246476376226 0 2.495616516317638 2.717626453377767 0 2.4946221303562042 2.5709963746105879 0 2.498533384291155 2.8730290895352302 0 2.369278997828121 2.784057785709154 0 2.495616516317638 2.717626453377767 0 2.498533384291155 2.8730290895352302 0 2.495616516317638 2.717626453377767 0 2.624345486027623 2.7856888613712472 0 2.495616516317638 2.717626453377767 0 2.624345486027623 2.7856888613712472 0 2.6192455835349819 2.6438414003703889 0 2.495616516317638 2.717626453377767 0 2.6192455835349819 2.6438414003703889 0 2.4946221303562042 2.5709963746105879 0 2.6192455835349819 2.6438414003703889 0 2.618402581522377 2.4995561624500251 0 2.4946221303562042 2.5709963746105879 0 2.618402581522377 2.4995561624500251 0 2.4946221303562042 2.5709963746105879 0 2.4933624332977531 2.4259573724460828 0 2.4946221303562042 2.5709963746105879 0 2.3698831109599312 2.497799198187086 0 2.4933624332977531 2.4259573724460828 0 2.370927204303003 2.64246476376226 0 2.4946221303562042 2.5709963746105879 0 2.3698831109599312 2.497799198187086 0 2.2473472221155188 2.571275098672237 0 2.370927204303003 2.64246476376226 0 2.3698831109599312 2.497799198187086 0 2.2474358296526931 2.4285714285714239 0 2.2473472221155188 2.571275098672237 0 2.3698831109599312 2.497799198187086 0 2.3698831109599312 2.497799198187086 0 2.3673193849061538 2.3469269946466551 0 2.4933624332977531 2.4259573724460828 0 2.2474358296526931 2.4285714285714239 0 2.3698831109599312 2.497799198187086 0 2.3673193849061538 2.3469269946466551 0 2.2437590376264152 2.2790339820013181 0 2.2474358296526931 2.4285714285714239 0 2.3673193849061538 2.3469269946466551 0 2.2437590376264152 2.2790339820013181 0 2.3673193849061538 2.3469269946466551 0 2.3682882362172282 2.20359421332267 0 2.3673193849061538 2.3469269946466551 0 2.4944618350609482 2.277815289041762 0 2.3682882362172282 2.20359421332267 0 2.3673193849061538 2.3469269946466551 0 2.4944618350609482 2.277815289041762 0 2.4933624332977531 2.4259573724460828 0 2.618402581522377 2.4995561624500251 0 2.4933624332977531 2.4259573724460828 0 2.619243291014496 2.3552128340480101 0 2.4944618350609482 2.277815289041762 0 2.4933624332977531 2.4259573724460828 0 2.619243291014496 2.3552128340480101 0 2.4944618350609482 2.277815289041762 0 2.619243291014496 2.3552128340480101 0 2.6185895741317191 2.2142857142856851 0 2.619243291014496 2.3552128340480101 0 2.7479931719733139 2.2843081023179281 0 2.6185895741317191 2.2142857142856851 0 2.618402581522377 2.4995561624500251 0 2.619243291014496 2.3552128340480101 0 2.7439826402435501 2.4273237749392429 0 2.619243291014496 2.3552128340480101 0 2.7439826402435501 2.4273237749392429 0 2.7479931719733139 2.2843081023179281 0 2.7439826402435501 2.4273237749392429 0 2.7479931719733139 2.2843081023179281 0 2.8701886445882661 2.3565572506718269 0 2.7479931719733139 2.2843081023179281 0 2.8701886445882661 2.3565572506718269 0 2.8779600310929019 2.217136293327608 0 3 2.2857142857142851 0 2.8701886445882661 2.3565572506718269 0 2.8779600310929019 2.217136293327608 0 3 2.4285714285714279 0 2.8701886445882661 2.3565572506718269 0 2.872982021166786 2.5000325873846538 0 3 2.2857142857142851 0 3 2.4285714285714279 0 2.8701886445882661 2.3565572506718269 0 2.7439826402435501 2.4273237749392429 0 2.8701886445882661 2.3565572506718269 0 2.872982021166786 2.5000325873846538 0 3 2.4285714285714279 0 2.872982021166786 2.5000325873846538 0 3 2.5714285714285712 0 2.872982021166786 2.5000325873846538 0 3 2.5714285714285712 0 2.8702940969356949 2.6423588347380189 0 2.872982021166786 2.5000325873846538 0 2.7446704713759029 2.571237155042541 0 2.8702940969356949 2.6423588347380189 0 2.7439826402435501 2.4273237749392429 0 2.872982021166786 2.5000325873846538 0 2.7446704713759029 2.571237155042541 0 2.618402581522377 2.4995561624500251 0 2.7439826402435501 2.4273237749392429 0 2.7446704713759029 2.571237155042541 0 2.6192455835349819 2.6438414003703889 0 2.618402581522377 2.4995561624500251 0 2.7446704713759029 2.571237155042541 0 2.6192455835349819 2.6438414003703889 0 2.7446704713759029 2.571237155042541 0 2.7461960343957288 2.7138118622537939 0 2.624345486027623 2.7856888613712472 0 2.6192455835349819 2.6438414003703889 0 2.7461960343957288 2.7138118622537939 0 2.624345486027623 2.7856888613712472 0 2.7461960343957288 2.7138118622537939 0 2.764916587633921 2.868832996132892 0 2.7461960343957288 2.7138118622537939 0 2.8756576008474641 2.7804868632666988 0 2.764916587633921 2.868832996132892 0 2.7446704713759029 2.571237155042541 0 2.7461960343957288 2.7138118622537939 0 2.8702940969356949 2.6423588347380189 0 2.7461960343957288 2.7138118622537939 0 2.8702940969356949 2.6423588347380189 0 2.8756576008474641 2.7804868632666988 0 3 2.5714285714285712 0 2.8702940969356949 2.6423588347380189 0 3 2.714285714285714 0 2.8702940969356949 2.6423588347380189 0 3 2.714285714285714 0 2.8756576008474641 2.7804868632666988 0 3 2.714285714285714 0 2.8756576008474641 2.7804868632666988 0 3 2.8571428571428572 0 2.8756576008474641 2.7804868632666988 0 2.895421313204448 2.895421313204448 0 2.764916587633921 2.868832996132892 0 2.8756576008474641 2.7804868632666988 0 2.895421313204448 2.895421313204448 0 3 2.8571428571428572 0 2.895421313204448 2.895421313204448 0 3 3 0 2.8571428571428572 3 0 2.895421313204448 2.895421313204448 0 3 2.8571428571428572 0 3 3 0 2.895421313204448 2.895421313204448 0 2.8571428571428572 3 0 2.764916587633921 2.868832996132892 0 2.8571428571428572 3 0 2.764916587633921 2.868832996132892 0 2.714285714285714 3 0 2.624345486027623 2.7856888613712472 0 2.764916587633921 2.868832996132892 0 2.6413671075336191 2.906422072834058 0 2.5714285714285712 3 0 2.6413671075336191 2.906422072834058 0 2.714285714285714 3 0 2.764916587633921 2.868832996132892 0 2.6413671075336191 2.906422072834058 0 2.714285714285714 3 0 2.5714610040381438 1.7525828953231719 0 2.5000378380445039 1.6288681013261359 0 2.4287660242288749 1.752676520202513 0 2.5714610040381438 1.7525828953231719 0 2.4287660242288749 1.752676520202513 0 2.4999999999999978 1.876282085173651 0 2.5714610040381438 1.7525828953231719 0 2.4999999999999978 1.876282085173651 0 2.6428571428571388 1.876282085173651 0 2.5714610040381438 1.7525828953231719 0 2.5000378380445039 1.6288681013261359 0 2.6427234372420072 1.628936974087531 0 2.5712671761093171 1.5052310581929651 0 2.5000378380445039 1.6288681013261359 0 2.6427234372420072 1.628936974087531 0 2.5712671761093171 1.5052310581929651 0 2.5000378380445039 1.6288681013261359 0 2.4285508356923038 1.5051491012451981 0 2.5000378380445039 1.6288681013261359 0 2.356581949440709 1.6298001978398831 0 2.4287660242288749 1.752676520202513 0 2.5000378380445039 1.6288681013261359 0 2.356581949440709 1.6298001978398831 0 2.4285508356923038 1.5051491012451981 0 2.356581949440709 1.6298001978398831 0 2.4285508356923038 1.5051491012451981 0 2.2857142857142878 1.505128340694611 0 2.2118802024260251 1.6334057963667139 0 2.356581949440709 1.6298001978398831 0 2.2857142857142878 1.505128340694611 0 2.2118802024260251 1.6334057963667139 0 2.356581949440709 1.6298001978398831 0 2.2845425105382549 1.7535733272041241 0 2.356581949440709 1.6298001978398831 0 2.2845425105382549 1.7535733272041241 0 2.4287660242288749 1.752676520202513 0 2.2845425105382549 1.7535733272041241 0 2.4287660242288749 1.752676520202513 0 2.358310431087538 1.876956184304913 0 2.4287660242288749 1.752676520202513 0 2.358310431087538 1.876956184304913 0 2.4999999999999978 1.876282085173651 0 2.2202906086958931 1.880802382239964 0 2.2845425105382549 1.7535733272041241 0 2.358310431087538 1.876956184304913 0 2.2202906086958931 1.880802382239964 0 2.2857142857142851 2 0 2.358310431087538 1.876956184304913 0 2.2857142857142851 2 0 2.4285714285714279 2 0 2.3571428571428541 2.088385776600894 0 2.4285714285714279 2 0 2.358310431087538 1.876956184304913 0 2.4999999999999978 1.876282085173651 0 2.2857142857142851 2 0 2.4285714285714279 2 0 2.358310431087538 1.876956184304913 0 2.2313473055860129 2.1272755973392572 0 2.2437590376264152 2.2790339820013181 0 2.3682882362172282 2.20359421332267 0 2.2313473055860129 2.1272755973392572 0 2.2857142857142851 2 0 2.3571428571428541 2.088385776600894 0 2.2313473055860129 2.1272755973392572 0 2.3571428571428541 2.088385776600894 0 2.3682882362172282 2.20359421332267 0 2.4285714285714279 2 0 2.3571428571428541 2.088385776600894 0 2.4981772993071591 2.1265427876294498 0 2.3571428571428541 2.088385776600894 0 2.3682882362172282 2.20359421332267 0 2.4981772993071591 2.1265427876294498 0 2.4944618350609482 2.277815289041762 0 2.3682882362172282 2.20359421332267 0 2.4981772993071591 2.1265427876294498 0 2.4981772993071591 2.1265427876294498 0 2.5714285714285712 2 0 2.6428571428571428 2.0966122299857148 0 2.4981772993071591 2.1265427876294498 0 2.6185895741317191 2.2142857142856851 0 2.6428571428571428 2.0966122299857148 0 2.4944618350609482 2.277815289041762 0 2.4981772993071591 2.1265427876294498 0 2.6185895741317191 2.2142857142856851 0 2.4285714285714279 2 0 2.4999999999999978 1.876282085173651 0 2.5714285714285712 2 0 2.4285714285714279 2 0 2.4981772993071591 2.1265427876294498 0 2.5714285714285712 2 0 2.4999999999999978 1.876282085173651 0 2.5714285714285712 2 0 2.6428571428571388 1.876282085173651 0 2.5714285714285712 2 0 2.6428571428571388 1.876282085173651 0 2.714285714285714 2 0 2.6428571428571388 1.876282085173651 0 2.714285714285714 2 0 2.7814963681520442 1.882580830411096 0 2.5714285714285712 2 0 2.714285714285714 2 0 2.6428571428571428 2.0966122299857148 0 2.714285714285714 2 0 2.7648928292411559 2.1309887181017841 0 2.8571428571428572 2 0 2.714285714285714 2 0 2.7814963681520442 1.882580830411096 0 2.8571428571428572 2 0 2.7479931719733139 2.2843081023179281 0 2.6185895741317191 2.2142857142856851 0 2.7648928292411559 2.1309887181017841 0 2.714285714285714 2 0 2.6428571428571428 2.0966122299857148 0 2.7648928292411559 2.1309887181017841 0 2.6185895741317191 2.2142857142856851 0 2.6428571428571428 2.0966122299857148 0 2.7648928292411559 2.1309887181017841 0 2.7479931719733139 2.2843081023179281 0 2.7648928292411559 2.1309887181017841 0 2.8779600310929019 2.217136293327608 0 2.7648928292411559 2.1309887181017841 0 2.8954213132044448 2.1045786867955552 0 2.8571428571428572 2 0 2.7648928292411559 2.1309887181017841 0 2.8779600310929019 2.217136293327608 0 2.8954213132044448 2.1045786867955552 0 2.8954213132044448 2.1045786867955552 0 3 2.1428571428571428 0 3 2 0 2.8779600310929019 2.217136293327608 0 2.8954213132044448 2.1045786867955552 0 3 2.1428571428571428 0 3 2.2857142857142851 0 2.8779600310929019 2.217136293327608 0 3 2.1428571428571428 0 2.7814963681520442 1.882580830411096 0 2.895421313204448 1.895421313204448 0 2.8571428571428572 2 0 2.8954213132044448 2.1045786867955552 0 2.8571428571428572 2 0 3 2 0 2.895421313204448 1.895421313204448 0 2.8571428571428572 2 0 3 2 0 2.895421313204448 1.895421313204448 0 3 2 0 3 1.857142857142857 0 2.895421313204448 1.895421313204448 0 3 1.857142857142857 0 2.870614678937029 1.7725963401346581 0 3 1.857142857142857 0 3 1.714285714285714 0 2.870614678937029 1.7725963401346581 0 3 1.714285714285714 0 2.870614678937029 1.7725963401346581 0 2.905423741759479 1.6391988482369699 0 2.7814963681520442 1.882580830411096 0 2.895421313204448 1.895421313204448 0 2.870614678937029 1.7725963401346581 0 2.7814963681520442 1.882580830411096 0 2.870614678937029 1.7725963401346581 0 2.7153465651391322 1.7565952050335309 0 2.870614678937029 1.7725963401346581 0 2.7153465651391322 1.7565952050335309 0 2.786129397280769 1.6349001941088239 0 2.5714610040381438 1.7525828953231719 0 2.7153465651391322 1.7565952050335309 0 2.6427234372420072 1.628936974087531 0 2.5714610040381438 1.7525828953231719 0 2.6428571428571388 1.876282085173651 0 2.7153465651391322 1.7565952050335309 0 2.6428571428571388 1.876282085173651 0 2.7814963681520442 1.882580830411096 0 2.7153465651391322 1.7565952050335309 0 2.5712671761093171 1.5052310581929651 0 2.7167234160060199 1.5059542429009301 0 2.6427234372420072 1.628936974087531 0 2.7167234160060199 1.5059542429009301 0 2.6427234372420072 1.628936974087531 0 2.786129397280769 1.6349001941088239 0 2.7153465651391322 1.7565952050335309 0 2.6427234372420072 1.628936974087531 0 2.786129397280769 1.6349001941088239 0 2.7167234160060199 1.5059542429009301 0 2.786129397280769 1.6349001941088239 0 2.870374632579594 1.502783421227085 0 2.786129397280769 1.6349001941088239 0 2.870374632579594 1.502783421227085 0 2.905423741759479 1.6391988482369699 0 2.870614678937029 1.7725963401346581 0 2.786129397280769 1.6349001941088239 0 2.905423741759479 1.6391988482369699 0 3 1.714285714285714 0 2.905423741759479 1.6391988482369699 0 3 1.571428571428571 0 2.870374632579594 1.502783421227085 0 3 1.571428571428571 0 3 1.4285714285714279 0 2.870374632579594 1.502783421227085 0 2.905423741759479 1.6391988482369699 0 3 1.571428571428571 0 2.870374632579594 1.502783421227085 0 3 1.4285714285714279 0 2.9030656089791811 1.3584705572527791 0 3 1.4285714285714279 0 2.9030656089791811 1.3584705572527791 0 3 1.2857142857142849 0 2.9030656089791811 1.3584705572527791 0 2.868688836155401 1.2355313237831811 0 2.786125463576842 1.383677911645713 0 2.870374632579594 1.502783421227085 0 2.9030656089791811 1.3584705572527791 0 2.786125463576842 1.383677911645713 0 3 1.142857142857143 0 2.868688836155401 1.2355313237831811 0 2.8954213132044462 1.104578686795556 0 3 1.142857142857143 0 3 1.2857142857142849 0 2.868688836155401 1.2355313237831811 0 2.9030656089791811 1.3584705572527791 0 3 1.2857142857142849 0 2.868688836155401 1.2355313237831811 0 2.868688836155401 1.2355313237831811 0 2.7814750862709881 1.1221194143447999 0 2.8954213132044462 1.104578686795556 0 2.868688836155401 1.2355313237831811 0 2.7147343810563518 1.251301267871989 0 2.7814750862709881 1.1221194143447999 0 2.868688836155401 1.2355313237831811 0 2.7147343810563518 1.251301267871989 0 2.786125463576842 1.383677911645713 0 2.7147343810563518 1.251301267871989 0 2.6437203892475911 1.3801958981434661 0 2.5728365947067089 1.2514338603666431 0 2.7147343810563518 1.251301267871989 0 2.642474724251239 1.124923408518995 0 2.7814750862709881 1.1221194143447999 0 2.7147343810563518 1.251301267871989 0 2.5728365947067089 1.2514338603666431 0 2.642474724251239 1.124923408518995 0 2.7167234160060199 1.5059542429009301 0 2.870374632579594 1.502783421227085 0 2.786125463576842 1.383677911645713 0 2.7147343810563518 1.251301267871989 0 2.786125463576842 1.383677911645713 0 2.6437203892475911 1.3801958981434661 0 2.5712671761093171 1.5052310581929651 0 2.7167234160060199 1.5059542429009301 0 2.6437203892475911 1.3801958981434661 0 2.7167234160060199 1.5059542429009301 0 2.786125463576842 1.383677911645713 0 2.6437203892475911 1.3801958981434661 0 2.5712671761093171 1.5052310581929651 0 2.6437203892475911 1.3801958981434661 0 2.5003077208249551 1.3799672261976821 0 2.5712671761093171 1.5052310581929651 0 2.4285508356923038 1.5051491012451981 0 2.5003077208249551 1.3799672261976821 0 2.6437203892475911 1.3801958981434661 0 2.5003077208249551 1.3799672261976821 0 2.5728365947067089 1.2514338603666431 0 2.5728365947067089 1.2514338603666431 0 2.5000879977590982 1.1246859085305361 0 2.642474724251239 1.124923408518995 0 2.5728365947067089 1.2514338603666431 0 2.428721567443501 1.25649282465861 0 2.5000879977590982 1.1246859085305361 0 2.5003077208249551 1.3799672261976821 0 2.5728365947067089 1.2514338603666431 0 2.428721567443501 1.25649282465861 0 2.428721567443501 1.25649282465861 0 2.2866681211738742 1.256066682441406 0 2.3571907118004951 1.3811733526815959 0 2.428721567443501 1.25649282465861 0 2.3577140298740269 1.130492812416215 0 2.2866681211738742 1.256066682441406 0 2.428721567443501 1.25649282465861 0 2.3577140298740269 1.130492812416215 0 2.5000879977590982 1.1246859085305361 0 2.3577140298740269 1.130492812416215 0 2.2866681211738742 1.256066682441406 0 2.2198107335135431 1.1256563841824909 0 2.2866681211738742 1.256066682441406 0 2.3571907118004951 1.3811733526815959 0 2.214285714285714 1.3814104258682629 0 2.2857142857142878 1.505128340694611 0 2.3571907118004951 1.3811733526815959 0 2.214285714285714 1.3814104258682629 0 2.4285508356923038 1.5051491012451981 0 2.2857142857142878 1.505128340694611 0 2.3571907118004951 1.3811733526815959 0 2.4285508356923038 1.5051491012451981 0 2.5003077208249551 1.3799672261976821 0 2.3571907118004951 1.3811733526815959 0 2.5003077208249551 1.3799672261976821 0 2.428721567443501 1.25649282465861 0 2.3571907118004951 1.3811733526815959 0 2.3591525644097571 0.90448333979383388 0 2.3690804396265648 0.78389141510404292 0 2.497549379121645 0.87194859075748421 0 2.3591525644097571 0.90448333979383388 0 2.4285714285714279 1 0 2.497549379121645 0.87194859075748421 0 2.3690804396265648 0.78389141510404292 0 2.2467020989286488 0.71318645322081209 0 2.2323719363650798 0.86814175826561746 0 2.3591525644097571 0.90448333979383388 0 2.3690804396265648 0.78389141510404292 0 2.2323719363650798 0.86814175826561746 0 2.3591525644097571 0.90448333979383388 0 2.2857142857142851 1 0 2.2323719363650798 0.86814175826561746 0 2.3577140298740269 1.130492812416215 0 2.2857142857142851 1 0 2.2198107335135431 1.1256563841824909 0 2.3577140298740269 1.130492812416215 0 2.2857142857142851 1 0 2.4285714285714279 1 0 2.3577140298740269 1.130492812416215 0 2.4285714285714279 1 0 2.5000879977590982 1.1246859085305361 0 2.3591525644097571 0.90448333979383388 0 2.2857142857142851 1 0 2.4285714285714279 1 0 2.4285714285714279 1 0 2.5714285714285712 1 0 2.497549379121645 0.87194859075748421 0 2.4285714285714279 1 0 2.5000879977590982 1.1246859085305361 0 2.5714285714285712 1 0 2.5000879977590982 1.1246859085305361 0 2.5714285714285712 1 0 2.642474724251239 1.124923408518995 0 2.497549379121645 0.87194859075748421 0 2.618589574132375 0.78571428571188628 0 2.6328924043665101 0.90513610409542433 0 2.5714285714285712 1 0 2.497549379121645 0.87194859075748421 0 2.6328924043665101 0.90513610409542433 0 2.3690804396265648 0.78389141510404292 0 2.497549379121645 0.87194859075748421 0 2.4948716593059621 0.71428571428343679 0 2.497549379121645 0.87194859075748421 0 2.618589574132375 0.78571428571188628 0 2.4948716593059621 0.71428571428343679 0 2.618589574132375 0.78571428571188628 0 2.7626087828642452 0.86801764400775083 0 2.744186890149765 0.71331043726850263 0 2.618589574132375 0.78571428571188628 0 2.6328924043665101 0.90513610409542433 0 2.7626087828642452 0.86801764400775083 0 2.6328924043665101 0.90513610409542433 0 2.7626087828642452 0.86801764400775083 0 2.714285714285714 1 0 2.7626087828642452 0.86801764400775083 0 2.874409050805995 0.78018926648514575 0 2.744186890149765 0.71331043726850263 0 2.5714285714285712 1 0 2.642474724251239 1.124923408518995 0 2.714285714285714 1 0 2.642474724251239 1.124923408518995 0 2.714285714285714 1 0 2.7814750862709881 1.1221194143447999 0 2.5714285714285712 1 0 2.6328924043665101 0.90513610409542433 0 2.714285714285714 1 0 2.7626087828642452 0.86801764400775083 0 2.714285714285714 1 0 2.8571428571428572 1 0 2.714285714285714 1 0 2.7814750862709881 1.1221194143447999 0 2.8571428571428572 1 0 2.7814750862709881 1.1221194143447999 0 2.8954213132044462 1.104578686795556 0 2.8571428571428572 1 0 2.8571428571428572 1 0 3 1 0 2.8954213132042099 0.895421313204108 0 2.8954213132044462 1.104578686795556 0 2.8571428571428572 1 0 3 1 0 3 1.142857142857143 0 2.8954213132044462 1.104578686795556 0 3 1 0 2.7626087828642452 0.86801764400775083 0 2.874409050805995 0.78018926648514575 0 2.8954213132042099 0.895421313204108 0 2.7626087828642452 0.86801764400775083 0 2.8571428571428572 1 0 2.8954213132042099 0.895421313204108 0 3 1 0 2.8954213132042099 0.895421313204108 0 3 0.85714285714248095 0 2.874409050805995 0.78018926648514575 0 2.8954213132042099 0.895421313204108 0 3 0.85714285714248095 0 2.874409050805995 0.78018926648514575 0 3 0.85714285714248095 0 3 0.71428571428496201 0 2.874409050805995 0.78018926648514575 0 3 0.71428571428496201 0 2.869717803296802 0.64222861727828529 0 2.874409050805995 0.78018926648514575 0 2.869717803296802 0.64222861727828529 0 2.744186890149765 0.71331043726850263 0 2.869717803296802 0.64222861727828529 0 2.8740599863056251 0.49927531931007729 0 2.7446576805156062 0.57126208756431218 0 2.869717803296802 0.64222861727828529 0 3 0.57142857142744297 0 2.8740599863056251 0.49927531931007729 0 3 0.71428571428496201 0 2.869717803296802 0.64222861727828529 0 3 0.57142857142744297 0 3 0.57142857142744297 0 3 0.42857142857032021 0 2.8740599863056251 0.49927531931007729 0 3 0.42857142857032021 0 2.8740599863056251 0.49927531931007729 0 2.875698076300893 0.35415439180319042 0 2.8740599863056251 0.49927531931007729 0 2.752171560420507 0.42857142856854402 0 2.875698076300893 0.35415439180319042 0 2.8740599863056251 0.49927531931007729 0 2.752171560420507 0.42857142856854402 0 2.7446576805156062 0.57126208756431218 0 2.752171560420507 0.42857142856854402 0 2.6201734641978431 0.35661818314175592 0 2.6198899606611801 0.49948637524748601 0 2.752171560420507 0.42857142856854402 0 2.7446576805156062 0.57126208756431218 0 2.6198899606611801 0.49948637524748601 0 2.7446576805156062 0.57126208756431218 0 2.6187395327714542 0.64269698385323981 0 2.6198899606611801 0.49948637524748601 0 2.744186890149765 0.71331043726850263 0 2.7446576805156062 0.57126208756431218 0 2.6187395327714542 0.64269698385323981 0 2.618589574132375 0.78571428571188628 0 2.744186890149765 0.71331043726850263 0 2.6187395327714542 0.64269698385323981 0 2.869717803296802 0.64222861727828529 0 2.744186890149765 0.71331043726850263 0 2.7446576805156062 0.57126208756431218 0 2.8571428571428572 0 0 2.895979424212793 0.1040205757871324 0 2.7710799917251951 0.12873413335171449 0 2.8571428571428572 0 0 3 0 0 2.895979424212793 0.1040205757871324 0 3 0 0 3 0.14285714285686729 0 2.895979424212793 0.1040205757871324 0 3 0.14285714285686729 0 2.895979424212793 0.1040205757871324 0 2.8828959187492971 0.2161673249238161 0 2.895979424212793 0.1040205757871324 0 2.8828959187492971 0.2161673249238161 0 2.7710799917251951 0.12873413335171449 0 3 0.14285714285686729 0 2.8828959187492971 0.2161673249238161 0 3 0.28571428571359381 0 2.8828959187492971 0.2161673249238161 0 3 0.28571428571359381 0 2.875698076300893 0.35415439180319042 0 3 0.42857142857032021 0 3 0.28571428571359381 0 2.875698076300893 0.35415439180319042 0 2.8828959187492971 0.2161673249238161 0 2.875698076300893 0.35415439180319042 0 2.7546180202569031 0.2815234200303981 0 2.752171560420507 0.42857142856854402 0 2.875698076300893 0.35415439180319042 0 2.7546180202569031 0.2815234200303981 0 2.752171560420507 0.42857142856854402 0 2.7546180202569031 0.2815234200303981 0 2.6201734641978431 0.35661818314175592 0 2.7546180202569031 0.2815234200303981 0 2.6281978226174312 0.2120446233090226 0 2.6201734641978431 0.35661818314175592 0 2.7546180202569031 0.2815234200303981 0 2.6281978226174312 0.2120446233090226 0 2.7710799917251951 0.12873413335171449 0 2.8828959187492971 0.2161673249238161 0 2.7546180202569031 0.2815234200303981 0 2.7710799917251951 0.12873413335171449 0 2.6281978226174312 0.2120446233090226 0 2.7710799917251951 0.12873413335171449 0 2.6366338798727531 0.093464308857798578 0 2.7710799917251951 0.12873413335171449 0 2.714285714285714 0 0 2.6366338798727531 0.093464308857798578 0 2.714285714285714 0 0 2.6366338798727531 0.093464308857798578 0 2.5714285714285712 0 0 2.8571428571428572 0 0 2.7710799917251951 0.12873413335171449 0 2.714285714285714 0 0 2.5714285714285712 0 0 2.4981772993068532 0.12654278762825569 0 2.4285714285714279 0 0 2.6366338798727531 0.093464308857798578 0 2.5714285714285712 0 0 2.4981772993068532 0.12654278762825569 0 2.6281978226174312 0.2120446233090226 0 2.6366338798727531 0.093464308857798578 0 2.4981772993068532 0.12654278762825569 0 2.4981772993068532 0.12654278762825569 0 2.4945915486603032 0.27804612003647211 0 2.3627973047133688 0.2085843731968646 0 2.6281978226174312 0.2120446233090226 0 2.4981772993068532 0.12654278762825569 0 2.4945915486603032 0.27804612003647211 0 2.6281978226174312 0.2120446233090226 0 2.4945915486603032 0.27804612003647211 0 2.6201734641978431 0.35661818314175592 0 2.4945915486603032 0.27804612003647211 0 2.6201734641978431 0.35661818314175592 0 2.4932105417127999 0.42593700932760742 0 2.4945915486603032 0.27804612003647211 0 2.3659139839396568 0.35404229584496971 0 2.4932105417127999 0.42593700932760742 0 2.3659139839396568 0.35404229584496971 0 2.2429924675022042 0.42772459507389499 0 2.239801768054869 0.28318912013054048 0 2.3659139839396568 0.35404229584496971 0 2.3627973047133688 0.2085843731968646 0 2.239801768054869 0.28318912013054048 0 2.3627973047133688 0.2085843731968646 0 2.2304843984160652 0.12817051038898469 0 2.239801768054869 0.28318912013054048 0 2.4945915486603032 0.27804612003647211 0 2.3659139839396568 0.35404229584496971 0 2.3627973047133688 0.2085843731968646 0 2.4981772993068532 0.12654278762825569 0 2.3627973047133688 0.2085843731968646 0 2.3571428571428541 0.088385776599927482 0 2.3627973047133688 0.2085843731968646 0 2.3571428571428541 0.088385776599927482 0 2.2304843984160652 0.12817051038898469 0 2.2857142857142851 0 0 2.3571428571428541 0.088385776599927482 0 2.2304843984160652 0.12817051038898469 0 2.2857142857142851 0 0 2.3571428571428541 0.088385776599927482 0 2.4285714285714279 0 0 2.4981772993068532 0.12654278762825569 0 2.3571428571428541 0.088385776599927482 0 2.4285714285714279 0 0 2.4944710246124502 0.57098124216803003 0 2.4948716593059621 0.71428571428343679 0 2.3707808136040498 0.64248101537579039 0 2.618589574132375 0.78571428571188628 0 2.4948716593059621 0.71428571428343679 0 2.6187395327714542 0.64269698385323981 0 2.4944710246124502 0.57098124216803003 0 2.6187395327714542 0.64269698385323981 0 2.6198899606611801 0.49948637524748601 0 2.4944710246124502 0.57098124216803003 0 2.4948716593059621 0.71428571428343679 0 2.6187395327714542 0.64269698385323981 0 2.4944710246124502 0.57098124216803003 0 2.6198899606611801 0.49948637524748601 0 2.4932105417127999 0.42593700932760742 0 2.6201734641978431 0.35661818314175592 0 2.6198899606611801 0.49948637524748601 0 2.4932105417127999 0.42593700932760742 0 2.4944710246124502 0.57098124216803003 0 2.4932105417127999 0.42593700932760742 0 2.3691228671960749 0.4976921519274754 0 2.3659139839396568 0.35404229584496971 0 2.4932105417127999 0.42593700932760742 0 2.3691228671960749 0.4976921519274754 0 2.3659139839396568 0.35404229584496971 0 2.3691228671960749 0.4976921519274754 0 2.2429924675022042 0.42772459507389499 0 2.3691228671960749 0.4976921519274754 0 2.247229121683481 0.57147965461975947 0 2.2429924675022042 0.42772459507389499 0 2.3707808136040498 0.64248101537579039 0 2.2467020989286488 0.71318645322081209 0 2.247229121683481 0.57147965461975947 0 2.3691228671960749 0.4976921519274754 0 2.3707808136040498 0.64248101537579039 0 2.247229121683481 0.57147965461975947 0 2.4944710246124502 0.57098124216803003 0 2.3691228671960749 0.4976921519274754 0 2.3707808136040498 0.64248101537579039 0 2.3690804396265648 0.78389141510404292 0 2.4948716593059621 0.71428571428343679 0 2.3707808136040498 0.64248101537579039 0 2.3690804396265648 0.78389141510404292 0 2.3707808136040498 0.64248101537579039 0 2.2467020989286488 0.71318645322081209 0 2.2467020989286488 0.71318645322081209 0 2.1230850406616231 0.64211163998861709 0 2.120528043488306 0.78018926648583753 0 2.1230850406616231 0.64211163998861709 0 2 0.71428571428496201 0 2.120528043488306 0.78018926648583753 0 2.1230850406616231 0.64211163998861709 0 2.1231105411754938 0.50105200202130029 0 2 0.57142857142744297 0 2.2467020989286488 0.71318645322081209 0 2.1230850406616231 0.64211163998861709 0 2.247229121683481 0.57147965461975947 0 2.1230850406616231 0.64211163998861709 0 2.247229121683481 0.57147965461975947 0 2.1231105411754938 0.50105200202130029 0 2.247229121683481 0.57147965461975947 0 2.2429924675022042 0.42772459507389499 0 2.1231105411754938 0.50105200202130029 0 2.2429924675022042 0.42772459507389499 0 2.1231105411754938 0.50105200202130029 0 2.1204089262615469 0.35723491808527857 0 2.1231105411754938 0.50105200202130029 0 2 0.42857142857032021 0 2.1204089262615469 0.35723491808527857 0 2.1231105411754938 0.50105200202130029 0 2 0.42857142857032021 0 2 0.57142857142744297 0 2 0.42857142857032021 0 1.8756980763008939 0.35415439180319208 0 1.8740599863056251 0.49927531931007818 0 2 0.42857142857032021 0 2 0.57142857142744297 0 1.8740599863056251 0.49927531931007818 0 2 0.71428571428496201 0 2 0.57142857142744297 0 1.8697178032968009 0.64222861727828584 0 2 0.57142857142744297 0 1.8697178032968009 0.64222861727828584 0 1.8740599863056251 0.49927531931007818 0 2 0.71428571428496201 0 1.8697178032968009 0.64222861727828584 0 1.8744090508059921 0.78018926648514741 0 2.1230850406616231 0.64211163998861709 0 2 0.71428571428496201 0 2 0.57142857142744297 0 2.1428571428571428 0 0 2.1045786867956009 0.1045786867955279 0 2 0 0 2.1428571428571428 0 0 2.2304843984160652 0.12817051038898469 0 2.1045786867956009 0.1045786867955279 0 2.2857142857142851 0 0 2.1428571428571428 0 0 2.2304843984160652 0.12817051038898469 0 2.1045786867956009 0.1045786867955279 0 2.1165487808367178 0.2171580770020218 0 2 0.14285714285686729 0 2.2304843984160652 0.12817051038898469 0 2.1045786867956009 0.1045786867955279 0 2.1165487808367178 0.2171580770020218 0 2.2304843984160652 0.12817051038898469 0 2.1165487808367178 0.2171580770020218 0 2.239801768054869 0.28318912013054048 0 2.2429924675022042 0.42772459507389499 0 2.239801768054869 0.28318912013054048 0 2.1204089262615469 0.35723491808527857 0 2.1165487808367178 0.2171580770020218 0 2.239801768054869 0.28318912013054048 0 2.1204089262615469 0.35723491808527857 0 2.1165487808367178 0.2171580770020218 0 2.1204089262615469 0.35723491808527857 0 2 0.28571428571359381 0 2 0.42857142857032021 0 2.1204089262615469 0.35723491808527857 0 2 0.28571428571359381 0 2 0.28571428571359381 0 1.8756980763008939 0.35415439180319208 0 1.882895918749298 0.21616732492381721 0 2 0.42857142857032021 0 2 0.28571428571359381 0 1.8756980763008939 0.35415439180319208 0 2 0.28571428571359381 0 1.882895918749298 0.21616732492381721 0 2 0.14285714285686729 0 2.1165487808367178 0.2171580770020218 0 2 0.28571428571359381 0 2 0.14285714285686729 0 1.882895918749298 0.21616732492381721 0 2 0.14285714285686729 0 1.8959794242127921 0.10402057578713381 0 2 0.14285714285686729 0 1.8959794242127921 0.10402057578713381 0 2 0 0 1.8959794242127921 0.10402057578713381 0 2 0 0 1.857142857142857 0 0 2.1045786867956009 0.1045786867955279 0 2 0.14285714285686729 0 2 0 0 1.714285714285714 0 0 1.857142857142857 0 0 1.7710799917251949 0.1287341333517158 0 1.714285714285714 0 0 1.7710799917251949 0.1287341333517158 0 1.6366338798727531 0.093464308857799619 0 1.8959794242127921 0.10402057578713381 0 1.857142857142857 0 0 1.7710799917251949 0.1287341333517158 0 1.882895918749298 0.21616732492381721 0 1.8959794242127921 0.10402057578713381 0 1.7710799917251949 0.1287341333517158 0 1.7710799917251949 0.1287341333517158 0 1.7546180202569051 0.28152342003040048 0 1.6281978226174321 0.21204462330902529 0 1.882895918749298 0.21616732492381721 0 1.7710799917251949 0.1287341333517158 0 1.7546180202569051 0.28152342003040048 0 1.8756980763008939 0.35415439180319208 0 1.882895918749298 0.21616732492381721 0 1.7546180202569051 0.28152342003040048 0 1.8756980763008939 0.35415439180319208 0 1.7546180202569051 0.28152342003040048 0 1.752171560420509 0.42857142856854807 0 1.7546180202569051 0.28152342003040048 0 1.620173464197844 0.35661818314175942 0 1.752171560420509 0.42857142856854807 0 1.7546180202569051 0.28152342003040048 0 1.620173464197844 0.35661818314175942 0 1.6281978226174321 0.21204462330902529 0 1.493210541712801 0.42593700932760992 0 1.4945915486603041 0.278046120036475 0 1.620173464197844 0.35661818314175942 0 1.4945915486603041 0.278046120036475 0 1.620173464197844 0.35661818314175942 0 1.6281978226174321 0.21204462330902529 0 1.4945915486603041 0.278046120036475 0 1.4981772993068541 0.1265427876282571 0 1.6281978226174321 0.21204462330902529 0 1.7710799917251949 0.1287341333517158 0 1.6281978226174321 0.21204462330902529 0 1.6366338798727531 0.093464308857799619 0 1.4981772993068541 0.1265427876282571 0 1.6281978226174321 0.21204462330902529 0 1.6366338798727531 0.093464308857799619 0 1.4981772993068541 0.1265427876282571 0 1.571428571428571 0 0 1.6366338798727531 0.093464308857799619 0 1.714285714285714 0 0 1.571428571428571 0 0 1.6366338798727531 0.093464308857799619 0 1.744657680515606 0.57126208756431485 0 1.744186890149763 0.71331043726850496 0 1.618739532771454 0.64269698385324336 0 1.744186890149763 0.71331043726850496 0 1.8697178032968009 0.64222861727828584 0 1.8744090508059921 0.78018926648514741 0 1.744657680515606 0.57126208756431485 0 1.744186890149763 0.71331043726850496 0 1.8697178032968009 0.64222861727828584 0 1.744657680515606 0.57126208756431485 0 1.8697178032968009 0.64222861727828584 0 1.8740599863056251 0.49927531931007818 0 1.744657680515606 0.57126208756431485 0 1.8740599863056251 0.49927531931007818 0 1.752171560420509 0.42857142856854807 0 1.8756980763008939 0.35415439180319208 0 1.8740599863056251 0.49927531931007818 0 1.752171560420509 0.42857142856854807 0 1.744657680515606 0.57126208756431485 0 1.752171560420509 0.42857142856854807 0 1.619889960661181 0.49948637524748901 0 1.620173464197844 0.35661818314175942 0 1.752171560420509 0.42857142856854807 0 1.619889960661181 0.49948637524748901 0 1.493210541712801 0.42593700932760992 0 1.620173464197844 0.35661818314175942 0 1.619889960661181 0.49948637524748901 0 1.49447102461245 0.57098124216803303 0 1.493210541712801 0.42593700932760992 0 1.619889960661181 0.49948637524748901 0 1.49447102461245 0.57098124216803303 0 1.619889960661181 0.49948637524748901 0 1.618739532771454 0.64269698385324336 0 1.49447102461245 0.57098124216803303 0 1.4948716593059641 0.71428571428344279 0 1.618739532771454 0.64269698385324336 0 1.744657680515606 0.57126208756431485 0 1.619889960661181 0.49948637524748901 0 1.618739532771454 0.64269698385324336 0 1.744186890149763 0.71331043726850496 0 1.618739532771454 0.64269698385324336 0 1.618589574132369 0.78571428571188717 0 1.4948716593059641 0.71428571428344279 0 1.618739532771454 0.64269698385324336 0 1.618589574132369 0.78571428571188717 0 1.4948716593059641 0.71428571428344279 0 1.497549379121643 0.87194859075748521 0 1.618589574132369 0.78571428571188717 0 1.497549379121643 0.87194859075748521 0 1.6328924043665081 0.90513610409542489 0 1.618589574132369 0.78571428571188717 0 1.497549379121643 0.87194859075748521 0 1.6328924043665081 0.90513610409542489 0 1.571428571428571 1 0 1.6328924043665081 0.90513610409542489 0 1.618589574132369 0.78571428571188717 0 1.7626087828642421 0.86801764400775128 0 1.744186890149763 0.71331043726850496 0 1.618589574132369 0.78571428571188717 0 1.7626087828642421 0.86801764400775128 0 1.6328924043665081 0.90513610409542489 0 1.7626087828642421 0.86801764400775128 0 1.714285714285714 1 0 1.7626087828642421 0.86801764400775128 0 1.857142857142857 1 0 1.895421313204209 0.89542131320410689 0 1.7626087828642421 0.86801764400775128 0 1.8744090508059921 0.78018926648514741 0 1.895421313204209 0.89542131320410689 0 1.744186890149763 0.71331043726850496 0 1.7626087828642421 0.86801764400775128 0 1.8744090508059921 0.78018926648514741 0 1.857142857142857 1 0 1.780189266486452 1.1255909491945031 0 1.895421313204446 1.104578686795554 0 1.857142857142857 1 0 1.714285714285714 1 0 1.780189266486452 1.1255909491945031 0 1.7626087828642421 0.86801764400775128 0 1.857142857142857 1 0 1.714285714285714 1 0 1.714285714285714 1 0 1.6422816724703979 1.1304620449693199 0 1.780189266486452 1.1255909491945031 0 1.714285714285714 1 0 1.571428571428571 1 0 1.6422816724703979 1.1304620449693199 0 1.6328924043665081 0.90513610409542489 0 1.714285714285714 1 0 1.571428571428571 1 0 1.499999999999998 1.1271398115696349 0 1.571428571428571 1 0 1.6422816724703979 1.1304620449693199 0 1.499999999999998 1.1271398115696349 0 1.571152652531757 1.256105255633247 0 1.6422816724703979 1.1304620449693199 0 1.571152652531757 1.256105255633247 0 1.6428585192410321 1.381411220523866 0 1.713319120662252 1.255965391424904 0 1.571152652531757 1.256105255633247 0 1.6422816724703979 1.1304620449693199 0 1.713319120662252 1.255965391424904 0 1.4999999999999949 1.3814104258682569 0 1.42857911129607 1.505132776317748 0 1.5714368297319321 1.505133108628274 0 1.4999999999999949 1.3814104258682569 0 1.5714368297319321 1.505133108628274 0 1.6428585192410321 1.381411220523866 0 1.4999999999999949 1.3814104258682569 0 1.571152652531757 1.256105255633247 0 1.6428585192410321 1.381411220523866 0 1.5714368297319321 1.505133108628274 0 1.7164690164522749 1.505013992076764 0 1.6428585192410321 1.381411220523866 0 1.7164690164522749 1.505013992076764 0 1.6428585192410321 1.381411220523866 0 1.785714285714282 1.38141042586825 0 1.6428585192410321 1.381411220523866 0 1.785714285714282 1.38141042586825 0 1.713319120662252 1.255965391424904 0 1.785714285714282 1.38141042586825 0 1.8680188844933181 1.2374129716465909 0 1.9051363521932001 1.367111946535875 0 1.871948590758401 1.50245062087882 0 1.785714285714282 1.38141042586825 0 1.9051363521932001 1.367111946535875 0 1.7164690164522749 1.505013992076764 0 1.871948590758401 1.50245062087882 0 1.785714285714282 1.38141042586825 0 1.6422816724703979 1.1304620449693199 0 1.780189266486452 1.1255909491945031 0 1.713319120662252 1.255965391424904 0 1.785714285714282 1.38141042586825 0 1.713319120662252 1.255965391424904 0 1.8680188844933181 1.2374129716465909 0 1.780189266486452 1.1255909491945031 0 1.713319120662252 1.255965391424904 0 1.8680188844933181 1.2374129716465909 0 1.780189266486452 1.1255909491945031 0 1.8680188844933181 1.2374129716465909 0 1.895421313204446 1.104578686795554 0 1.8680188844933181 1.2374129716465909 0 2 1.142857142857143 0 1.895421313204446 1.104578686795554 0 1.8680188844933181 1.2374129716465909 0 2 1.2857142857142849 0 1.9051363521932001 1.367111946535875 0 1.8680188844933181 1.2374129716465909 0 2 1.2857142857142849 0 2 1.142857142857143 0 2 1.2857142857142849 0 2 1.142857142857143 0 2.1319792929118409 1.2374367896472369 0 1.871948590758401 1.50245062087882 0 1.9051363521932001 1.367111946535875 0 2 1.4285714285714279 0 2 1.2857142857142849 0 1.9051363521932001 1.367111946535875 0 2 1.4285714285714279 0 2 1.2857142857142849 0 2 1.4285714285714279 0 2.0946158322405029 1.367237727885342 0 2.1268141540049612 1.5030557096254999 0 2.0946158322405029 1.367237727885342 0 2.214285714285714 1.3814104258682629 0 2.1268141540049612 1.5030557096254999 0 2 1.4285714285714279 0 2.0946158322405029 1.367237727885342 0 2.0946158322405029 1.367237727885342 0 2.214285714285714 1.3814104258682629 0 2.1319792929118409 1.2374367896472369 0 2.1268141540049612 1.5030557096254999 0 2.2857142857142878 1.505128340694611 0 2.214285714285714 1.3814104258682629 0 2 1.142857142857143 0 2.1319792929118409 1.2374367896472369 0 2.1045786867955538 1.1045786867955549 0 2.1319792929118409 1.2374367896472369 0 2.2198107335135431 1.1256563841824909 0 2.1045786867955538 1.1045786867955549 0 2 1.2857142857142849 0 2.0946158322405029 1.367237727885342 0 2.1319792929118409 1.2374367896472369 0 2.2866681211738742 1.256066682441406 0 2.214285714285714 1.3814104258682629 0 2.1319792929118409 1.2374367896472369 0 2.2866681211738742 1.256066682441406 0 2.1319792929118409 1.2374367896472369 0 2.2198107335135431 1.1256563841824909 0 2.2857142857142851 1 0 2.2198107335135431 1.1256563841824909 0 2.1428571428571428 1 0 2.1045786867955538 1.1045786867955549 0 2.1428571428571428 1 0 2 1 0 2.2198107335135431 1.1256563841824909 0 2.1045786867955538 1.1045786867955549 0 2.1428571428571428 1 0 2.1428571428571428 1 0 2.1045786867957932 0.89542131320410567 0 2 1 0 2.2857142857142851 1 0 2.1428571428571428 1 0 2.2323719363650798 0.86814175826561746 0 2.1428571428571428 1 0 2.2323719363650798 0.86814175826561746 0 2.1045786867957932 0.89542131320410567 0 2.2467020989286488 0.71318645322081209 0 2.2323719363650798 0.86814175826561746 0 2.120528043488306 0.78018926648583753 0 2.2323719363650798 0.86814175826561746 0 2.120528043488306 0.78018926648583753 0 2.1045786867957932 0.89542131320410567 0 2.120528043488306 0.78018926648583753 0 2.1045786867957932 0.89542131320410567 0 2 0.85714285714248095 0 2.1045786867957932 0.89542131320410567 0 2 0.85714285714248095 0 2 1 0 2 0.71428571428496201 0 2.120528043488306 0.78018926648583753 0 2 0.85714285714248095 0 2 0.71428571428496201 0 1.8744090508059921 0.78018926648514741 0 2 0.85714285714248095 0 1.8744090508059921 0.78018926648514741 0 2 0.85714285714248095 0 1.895421313204209 0.89542131320410689 0 2 0.85714285714248095 0 1.895421313204209 0.89542131320410689 0 2 1 0 1.857142857142857 1 0 1.895421313204209 0.89542131320410689 0 2 1 0 2 1.142857142857143 0 1.895421313204446 1.104578686795554 0 2 1 0 1.857142857142857 1 0 1.895421313204446 1.104578686795554 0 2 1 0 2 1.142857142857143 0 2.1045786867955538 1.1045786867955549 0 2 1 0 
</DataArray>
</Points>
<Cells>
<DataArray type="UInt32" Name="connectivity" format="ascii">
0 1 2 3 4 5 6 7 8 9 10 11 12 13 14 15 16 17 18 19 20 21 22 23 24 25 26 27 28 29 30 31 32 33 34 35 36 37 38 39 40 41 42 43 44 45 46 47 48 49 50 51 52 53 54 55 56 57 58 59 60 61 62 63 64 65 66 67 68 69 70 71 72 73 74 75 76 77 78 79 80 81 82 83 84 85 86 87 88 89 90 91 92 93 94 95 96 97 98 99 100 101 102 103 104 105 106 107 108 109 110 111 112 113 114 115 116 117 118 119 120 121 122 123 124 125 126 127 128 129 130 131 132 133 134 135 136 137 138 139 140 141 142 143 144 145 146 147 148 149 150 151 152 153 154 155 156 157 158 159 160 161 162 163 164 165 166 167 168 169 170 171 172 173 174 175 176 177 178 179 180 181 182 183 184 185 186 187 188 189 190 191 192 193 194 195 196 197 198 199 200 201 202 203 204 205 206 207 208 209 210 211 212 213 214 215 216 217 218 219 220 221 222 223 224 225 226 227 228 229 230 231 232 233 234 235 236 237 238 239 240 241 242 243 244 245 246 247 248 249 250 251 252 253 254 255 256 257 258 259 260 261 262 263 264 265 266 267 268 269 270 271 272 273 274 275 276 277 278 279 280 281 282 283 284 285 286 287 288 289 290 291 292 293 294 295 296 297 298 299 300 301 302 303 304 305 306 307 308 309 310 311 312 313 314 315 316 317 318 319 320 321 322 323 324 325 326 327 328 329 330 331 332 333 334 335 336 337 338 339 340 341 342 343 344 345 346 347 348 349 350 351 352 353 354 355 356 357 358 359 360 361 362 363 364 365 366 367 368 369 370 371 372 373 374 375 376 377 378 379 380 381 382 383 384 385 386 387 388 389 390 391 392 393 394 395 396 397 398 399 400 401 402 403 404 405 406 407 408 409 410 411 412 413 414 415 416 417 418 419 420 421 422 423 424 425 426 427 428 429 430 431 432 433 434 435 436 437 438 439 440 441 442 443 444 445 446 447 448 449 450 451 452 453 454 455 456 457 458 459 460 461 462 463 464 465 466 467 468 469 470 471 472 473 474 475 476 477 478 479 480 481 482 483 484 485 486 487 488 489 490 491 492 493 494 495 496 497 498 499 500 501 502 503 504 505 506 507 508 509 510 511 512 513 514 515 516 517 518 519 520 521 522 523 524 525 526 527 528 529 530 531 532 533 534 535 536 537 538 539 540 541 542 543 544 545 546 547 548 549 550 551 552 553 554 555 556 557 558 559 560 561 562 563 564 565 566 567 568 569 570 571 572 573 574 575 576 577 578 579 580 581 582 583 584 585 586 587 588 589 590 591 592 593 594 595 596 597 598 599 600 601 602 603 604 605 606 607 608 609 610 611 612 613 614 615 616 617 618 619 620 621 622 623 624 625 626 627 628 629 630 631 632 633 634 635 636 637 638 639 640 641 642 643 644 645 646 647 648 649 650 651 652 653 654 655 656 657 658 659 660 661 662 663 664 665 666 667 668 669 670 671 672 673 674 675 676 677 678 679 680 681 682 683 684 685 686 687 688 689 690 691 692 693 694 695 696 697 698 699 700 701 702 703 704 705 706 707 708 709 710 711 712 713 714 715 716 717 718 719 720 721 722 723 724 725 726 727 728 729 730 731 732 733 734 735 736 737 738 739 740 741 742 743 744 745 746 747 748 749 750 751 752 753 754 755 756 757 758 759 760 761 762 763 764 765 766 767 768 769 770 771 772 773 774 775 776 777 778 779 780 781 782 783 784 785 786 787 788 789 790 791 792 793 794 795 796 797 798 799 800 801 802 803 804 805 806 807 808 809 810 811 812 813 814 815 816 817 818 819 820 821 822 823 824 825 826 827 828 829 830 831 832 833 834 835 836 837 838 839 840 841 842 843 844 845 846 847 848 849 850 851 852 853 854 855 856 857 858 859 860 861 862 863 864 865 866 867 868 869 870 871 872 873 874 875 876 877 878 879 880 881 882 883 884 885 886 887 888 889 890 891 892 893 894 895 896 897 898 899 900 901 902 903 904 905 906 907 908 909 910 911 912 913 914 915 916 917 918 919 920 921 922 923 924 925 926 927 928 929 930 931 932 933 934 935 936 937 938 939 940 941 942 943 944 945 946 947 948 949 950 951 952 953 954 955 956 957 958 959 960 961 962 963 964 965 966 967 968 969 970 971 972 973 974 975 976 977 978 979 980 981 982 983 984 985 986 987 988 989 990 991 992 993 994 995 996 997 998 999 1000 1001 1002 1003 1004 1005 1006 1007 1008 1009 1010 1011 1012 1013 1014 1015 1016 1017 1018 1019 1020 1021 1022 1023 1024 1025 1026 1027 1028 1029 1030 1031 1032 1033 1034 1035 1036 1037 1038 1039 1040 1041 1042 1043 1044 1045 1046 1047 1048 1049 1050 1051 1052 1053 1054 1055 1056 1057 1058 1059 1060 1061 1062 1063 1064 1065 1066 1067 1068 1069 1070 1071 1072 1073 1074 1075 1076 1077 1078 1079 1080 1081 1082 1083 1084 1085 1086 1087 1088 1089 1090 1091 1092 1093 1094 1095 1096 1097 1098 1099 1100 1101 1102 1103 1104 1105 1106 1107 1108 1109 1110 1111 1112 1113 1114 1115 1116 1117 1118 1119 1120 1121 1122 1123 1124 1125 1126 1127 1128 1129 1130 1131 1132 1133 1134 1135 1136 1137 1138 1139 1140 1141 1142 1143 1144 1145 1146 1147 1148 1149 1150 1151 1152 1153 1154 1155 1156 1157 1158 1159 1160 1161 1162 1163 1164 1165 1166 1167 1168 1169 1170 1171 1172 1173 1174 1175 1176 1177 1178 1179 1180 1181 1182 1183 1184 1185 1186 1187 1188 1189 1190 1191 1192 1193 1194 1195 1196 1197 1198 1199 1200 1201 1202 1203 1204 1205 1206 1207 1208 1209 1210 1211 1212 1213 1214 1215 1216 1217 1218 1219 1220 1221 1222 1223 1224 1225 1226 1227 1228 1229 1230 1231 1232 1233 1234 1235 1236 1237 1238 1239 1240 1241 1242 1243 1244 1245 1246 1247 1248 1249 1250 1251 1252 1253 1254 1255 1256 1257 1258 1259 1260 1261 1262 1263 1264 1265 1266 1267 1268 1269 1270 1271 1272 1273 1274 1275 1276 1277 1278 1279 1280 1281 1282 1283 1284 1285 1286 1287 1288 1289 1290 1291 1292 1293 1294 1295 1296 1297 1298 1299 1300 1301 1302 1303 1304 1305 1306 1307 1308 1309 1310 1311 1312 1313 1314 1315 1316 1317 1318 1319 1320 1321 1322 1323 1324 1325 1326 1327 1328 1329 1330 1331 1332 1333 1334 1335 1336 1337 1338 1339 1340 1341 1342 1343 1344 1345 1346 1347 1348 1349 1350 1351 1352 1353 1354 1355 1356 1357 1358 1359 1360 1361 1362 1363 1364 1365 1366 1367 1368 1369 1370 1371 1372 1373 1374 1375 1376 1377 1378 1379 1380 1381 1382 1383 1384 1385 1386 1387 1388 1389 1390 1391 1392 1393 1394 1395 1396 1397 1398 1399 1400 1401 1402 1403 1404 1405 1406 1407 1408 1409 1410 1411 1412 1413 1414 1415 1416 1417 1418 1419 1420 1421 1422 1423 1424 1425 1426 1427 1428 1429 1430 1431 1432 1433 1434 1435 1436 1437 1438 1439 1440 1441 1442 1443 1444 1445 1446 1447 1448 1449 1450 1451 1452 1453 1454 1455 1456 1457 1458 1459 1460 1461 1462 1463 1464 1465 1466 1467 1468 1469 1470 1471 1472 1473 1474 1475 1476 1477 1478 1479 1480 1481 1482 1483 1484 1485 1486 1487 1488 1489 1490 1491 1492 1493 1494 1495 1496 1497 1498 1499 1500 1501 1502 1503 1504 1505 1506 1507 1508 1509 1510 1511 1512 1513 1514 1515 1516 1517 1518 1519 1520 1521 1522 1523 1524 1525 1526 1527 1528 1529 1530 1531 1532 1533 1534 1535 1536 1537 1538 1539 1540 1541 1542 1543 1544 1545 1546 1547 1548 1549 1550 1551 1552 1553 1554 1555 1556 1557 1558 1559 1560 1561 1562 1563 1564 1565 1566 1567 1568 1569 1570 1571 1572 1573 1574 1575 1576 1577 1578 1579 1580 1581 1582 1583 1584 1585 1586 1587 1588 1589 1590 1591 1592 1593 1594 1595 1596 1597 1598 1599 1600 1601 1602 1603 1604 1605 1606 1607 1608 1609 1610 1611 1612 1613 1614 1615 1616 1617 1618 1619 1620 1621 1622 1623 1624 1625 1626 1627 1628 1629 1630 1631 1632 1633 1634 1635 1636 1637 1638 1639 1640 1641 1642 1643 1644 1645 1646 1647 1648 1649 1650 1651 1652 1653 1654 1655 1656 1657 1658 1659 1660 1661 1662 1663 1664 1665 1666 1667 1668 1669 1670 1671 1672 1673 1674 1675 1676 1677 1678 1679 1680 1681 1682 1683 1684 1685 1686 1687 1688 1689 1690 1691 1692 1693 1694 1695 1696 1697 1698 1699 1700 1701 1702 1703 1704 1705 1706 1707 1708 1709 1710 1711 1712 1713 1714 1715 1716 1717 1718 1719 1720 1721 1722 1723 1724 1725 1726 1727 1728 1729 1730 1731 1732 1733 1734 1735 1736 1737 1738 1739 1740 1741 1742 1743 1744 1745 1746 1747 1748 1749 1750 1751 1752 1753 1754 1755 1756 1757 1758 1759 1760 1761 1762 1763 1764 1765 1766 1767 1768 1769 1770 1771 1772 1773 1774 1775 1776 1777 1778 1779 1780 1781 1782 1783 1784 1785 1786 1787 1788 1789 1790 1791 1792 1793 1794 1795 1796 1797 1798 1799 1800 1801 1802 1803 1804 1805 1806 1807 1808 1809 1810 1811 1812 1813 1814 1815 1816 1817 1818 1819 1820 1821 1822 1823 1824 1825 1826 1827 1828 1829 1830 1831 1832 1833 1834 1835 1836 1837 1838 1839 1840 1841 1842 1843 1844 1845 1846 1847 1848 1849 1850 1851 1852 1853 1854 1855 1856 1857 1858 1859 1860 1861 1862 1863 1864 1865 1866 1867 1868 1869 1870 1871 1872 1873 1874 1875 1876 1877 1878 1879 1880 1881 1882 1883 1884 1885 1886 1887 1888 1889 1890 1891 1892 1893 1894 1895 1896 1897 1898 1899 1900 1901 1902 1903 1904 1905 1906 1907 1908 1909 1910 1911 1912 1913 1914 1915 1916 1917 1918 1919 1920 1921 1922 1923 1924 1925 1926 1927 1928 1929 1930 1931 1932 1933 1934 1935 1936 1937 1938 1939 1940 1941 1942 1943 1944 1945 1946 1947 1948 1949 1950 1951 1952 1953 1954 1955 1956 1957 1958 1959 1960 1961 1962 1963 1964 1965 1966 1967 1968 1969 1970 1971 1972 1973 1974 1975 1976 1977 1978 1979 1980 1981 1982 1983 1984 1985 1986 1987 1988 1989 1990 1991 1992 1993 1994 1995 1996 1997 1998 1999 2000 2001 2002 2003 2004 2005 2006 2007 2008 2009 2010 2011 2012 2013 2014 2015 2016 2017 2018 2019 2020 2021 2022 2023 2024 2025 2026 2027 2028 2029 2030 2031 2032 2033 2034 2035 2036 2037 2038 2039 2040 2041 2042 2043 2044 2045 2046 2047 2048 2049 2050 2051 2052 2053 2054 2055 2056 2057 2058 2059 2060 2061 2062 2063 2064 2065 2066 2067 2068 2069 2070 2071 2072 2073 2074 2075 2076 2077 2078 2079 2080 2081 2082 2083 2084 2085 2086 2087 2088 2089 2090 2091 2092 2093 2094 2095 2096 2097 2098 2099 2100 2101 2102 2103 2104 2105 2106 2107 2108 2109 2110 2111 2112 2113 2114 2115 2116 2117 2118 2119 2120 2121 2122 2123 2124 2125 2126 2127 2128 2129 2130 2131 2132 2133 2134 2135 2136 2137 2138 2139 2140 2141 2142 2143 2144 2145 2146 2147 2148 2149 2150 2151 2152 2153 2154 2155 2156 2157 2158 2159 2160 2161 2162 2163 2164 2165 2166 2167 2168 2169 2170 2171 2172 2173 2174 2175 2176 2177 2178 2179 2180 2181 2182 2183 2184 2185 2186 2187 2188 2189 2190 2191 2192 2193 2194 2195 2196 2197 2198 2199 2200 2201 2202 2203 2204 2205 2206 2207 2208 2209 2210 2211 2212 2213 2214 2215 2216 2217 2218 2219 2220 2221 2222 2223 2224 2225 2226 2227 2228 2229 2230 2231 2232 2233 2234 2235 2236 2237 2238 2239 2240 2241 2242 2243 2244 2245 2246 2247 2248 2249 2250 2251 2252 2253 2254 2255 2256 2257 2258 2259 2260 2261 2262 2263 2264 2265 2266 2267 2268 2269 2270 2271 2272 2273 2274 2275 2276 2277 2278 2279 2280 2281 2282 2283 2284 2285 2286 2287 2288 2289 2290 2291 2292 2293 2294 2295 2296 2297 2298 2299 2300 2301 2302 2303 2304 2305 2306 2307 2308 2309 2310 2311 2312 2313 2314 2315 2316 2317 2318 2319 2320 2321 2322 2323 2324 2325 2326 2327 2328 2329 2330 2331 2332 2333 2334 2335 2336 2337 2338 2339 2340 2341 2342 2343 2344 2345 2346 2347 2348 2349 2350 2351 2352 2353 2354 2355 2356 2357 2358 2359 2360 2361 2362 2363 2364 2365 2366 2367 2368 2369 2370 2371 2372 2373 2374 2375 2376 2377 2378 2379 2380 2381 2382 2383 2384 2385 2386 2387 2388 2389 2390 2391 2392 2393 2394 2395 2396 2397 2398 2399 2400 2401 2402 2403 2404 2405 2406 2407 2408 2409 2410 2411 2412 2413 2414 2415 2416 2417 2418 2419 2420 2421 2422 2423 2424 2425 2426 2427 2428 2429 2430 2431 2432 2433 2434 2435 2436 2437 2438 2439 2440 2441 2442 2443 2444 2445 2446 2447 2448 2449 2450 2451 2452 2453 2454 2455 2456 2457 2458 2459 2460 2461 2462 2463 2464 2465 2466 2467 2468 2469 2470 2471 2472 2473 2474 2475 2476 2477 2478 2479 2480 2481 2482 2483 2484 2485 2486 2487 2488 2489 2490 2491 2492 2493 2494 2495 2496 2497 2498 2499 2500 2501 2502 2503 2504 2505 2506 2507 2508 2509 2510 2511 2512 2513 2514 2515 2516 2517 2518 2519 2520 2521 2522 2523 2524 2525 2526 2527 2528 2529 2530 2531 2532 2533 2534 2535 2536 2537 2538 2539 2540 2541 2542 2543 2544 2545 2546 2547 2548 2549 2550 2551 2552 2553 2554 2555 2556 2557 2558 2559 2560 2561 2562 2563 2564 2565 2566 2567 2568 2569 2570 2571 2572 2573 2574 2575 2576 2577 2578 2579 2580 2581 2582 2583 2584 2585 2586 2587 2588 2589 2590 2591 2592 2593 2594 2595 2596 2597 2598 2599 2600 2601 2602 2603 2604 2605 2606 2607 2608 2609 2610 2611 2612 2613 2614 2615 2616 2617 2618 2619 2620 2621 2622 2623 2624 2625 2626 2627 2628 2629 2630 2631 2632 2633 2634 2635 2636 2637 2638 2639 2640 2641 2642 2643 2644 2645 2646 2647 2648 2649 2650 2651 2652 2653 2654 2655 2656 2657 2658 2659 2660 2661 2662 2663 2664 2665 2666 2667 2668 2669 2670 2671 2672 2673 2674 2675 2676 2677 2678 2679 2680 2681 2682 2683 2684 2685 2686 2687 2688 2689 2690 2691 2692 2693 2694 2695 2696 2697 2698 2699 2700 2701 2702 2703 2704 2705 2706 2707 2708 2709 2710 2711 2712 2713 2714 2715 2716 2717 2718 2719 2720 2721 2722 2723 2724 2725 2726 2727 2728 2729 2730 2731 2732 2733 2734 2735 2736 2737 2738 2739 2740 2741 2742 2743 2744 2745 2746 2747 2748 2749 2750 2751 2752 2753 2754 2755 2756 2757 2758 2759 2760 2761 2762 2763 2764 2765 2766 2767 2768 2769 2770 2771 2772 2773 2774 2775 2776 2777 2778 2779 2780 2781 2782 2783 2784 2785 2786 2787 2788 2789 2790 2791 2792 2793 2794 2795 2796 2797 2798 2799 2800 2801 2802 2803 2804 2805 2806 2807 2808 2809 2810 2811 2812 2813 2814 2815 2816 2817 2818 2819 2820 2821 2822 2823 2824 2825 2826 2827 2828 2829 2830 2831 2832 2833 2834 2835 2836 2837 2838 2839 2840 2841 2842 2843 2844 2845 2846 2847 2848 2849 2850 2851 2852 2853 2854 2855 2856 2857 2858 2859 2860 2861 2862 2863 2864 2865 2866 2867 2868 2869 2870 2871 2872 2873 2874 2875 2876 2877 2878 2879 2880 2881 2882 2883 2884 2885 2886 2887 2888 2889 2890 2891 2892 2893 2894 2895 2896 2897 2898 2899 2900 2901 2902 2903 2904 2905 2906 2907 2908 2909 2910 2911 2912 2913 2914 2915 2916 2917 2918 2919 2920 2921 2922 2923 2924 2925 2926 2927 2928 2929 2930 2931 2932 2933 2934 2935 2936 2937 2938 2939 2940 2941 2942 2943 2944 2945 2946 2947 2948 2949 2950 2951 2952 2953 2954 2955 2956 2957 2958 2959 2960 2961 2962 2963 2964 2965 2966 2967 2968 2969 2970 2971 2972 2973 2974 2975 2976 2977 2978 2979 2980 2981 2982 2983 2984 2985 2986 2987 2988 2989 2990 2991 2992 2993 2994 2995 2996 2997 2998 2999 3000 3001 3002 3003 3004 3005 3006 3007 3008 3009 3010 3011 3012 3013 3014 3015 3016 3017 3018 3019 3020 3021 3022 3023 3024 3025 3026 3027 3028 3029 3030 3031 3032 3033 3034 3035 3036 3037 3038 3039 3040 3041 3042 3043 3044 3045 3046 3047 3048 3049 3050 3051 3052 3053 3054 3055 3056 3057 3058 3059 3060 3061 3062 3063 3064 3065 3066 3067 3068 3069 3070 3071 3072 3073 3074 3075 3076 3077 3078 3079 3080 3081 3082 3083 3084 3085 3086 3087 3088 3089 3090 3091 3092 3093 3094 3095 3096 3097 3098 3099 3100 3101 3102 3103 3104 3105 3106 3107 3108 3109 3110 3111 3112 3113 3114 3115 3116 3117 3118 3119 3120 3121 3122 3123 3124 3125 3126 3127 3128 3129 3130 3131 3132 3133 3134 3135 3136 3137 3138 3139 3140 3141 3142 3143 3144 3145 3146 3147 3148 3149 3150 3151 3152 3153 3154 3155 3156 3157 3158 3159 3160 3161 3162 3163 3164 3165 3166 3167 3168 3169 3170 3171 3172 3173 3174 3175 3176 3177 3178 3179 3180 3181 3182 3183 3184 3185 
</DataArray>
<DataArray type="UInt32" Name="offsets" format="ascii">
3 6 9 12 15 18 21 24 27 30 33 36 39 42 45 48 51 54 57 60 63 66 69 72 75 78 81 84 87 90 93 96 99 102 105 108 111 114 117 120 123 126 129 132 135 138 141 144 147 150 153 156 159 162 165 168 171 174 177 180 183 186 189 192 195 198 201 204 207 210 213 216 219 222 225 228 231 234 237 240 243 246 249 252 255 258 261 264 267 270 273 276 279 282 285 288 291 294 297 300 303 306 309 312 315 318 321 324 327 330 333 336 339 342 345 348 351 354 357 360 363 366 369 372 375 378 381 384 387 390 393 396 399 402 405 408 411 414 417 420 423 426 429 432 435 438 441 444 447 450 453 456 459 462 465 468 471 474 477 480 483 486 489 492 495 498 501 504 507 510 513 516 519 522 525 528 531 534 537 540 543 546 549 552 555 558 561 564 567 570 573 576 579 582 585 588 591 594 597 600 603 606 609 612 615 618 621 624 627 630 633 636 639 642 645 648 651 654 657 660 663 666 669 672 675 678 681 684 687 690 693 696 699 702 705 708 711 714 717 720 723 726 729 732 735 738 741 744 747 750 753 756 759 762 765 768 771 774 777 780 783 786 789 792 795 798 801 804 807 810 813 816 819 822 825 828 831 834 837 840 843 846 849 852 855 858 861 864 867 870 873 876 879 882 885 888 891 894 897 900 903 906 909 912 915 918 921 924 927 930 933 936 939 942 945 948 951 954 957 960 963 966 969 972 975 978 981 984 987 990 993 996 999 1002 1005 1008 1011 1014 1017 1020 1023 1026 1029 1032 1035 1038 1041 1044 1047 1050 1053 1056 1059 1062 1065 1068 1071 1074 1077 1080 1083 1086 1089 1092 1095 1098 1101 1104 1107 1110 1113 1116 1119 1122 1125 1128 1131 1134 1137 1140 1143 1146 1149 1152 1155 1158 1161 1164 1167 1170 1173 1176 1179 1182 1185 1188 1191 1194 1197 1200 1203 1206 1209 1212 1215 1218 1221 1224 1227 1230 1233 1236 1239 1242 1245 1248 1251 1254 1257 1260 1263 1266 1269 1272 1275 1278 1281 1284 1287 1290 1293 1296 1299 1302 1305 1308 1311 1314 1317 1320 1323 1326 1329 1332 1335 1338 1341 1344 1347 1350 1353 1356 1359 1362 1365 1368 1371 1374 1377 1380 1383 1386 1389 1392 1395 1398 1401 1404 1407 1410 1413 1416 1419 1422 1425 1428 1431 1434 1437 1440 1443 1446 1449 1452 1455 1458 1461 1464 1467 1470 1473 1476 1479 1482 1485 1488 1491 1494 1497 1500 1503 1506 1509 1512 1515 1518 1521 1524 1527 1530 1533 1536 1539 1542 1545 1548 1551 1554 1557 1560 1563 1566 1569 1572 1575 1578 1581 1584 1587 1590 1593 1596 1599 1602 1605 1608 1611 1614 1617 1620 1623 1626 1629 1632 1635 1638 1641 1644 1647 1650 1653 1656 1659 1662 1665 1668 1671 1674 1677 1680 1683 1686 1689 1692 1695 1698 1701 1704 1707 1710 1713 1716 1719 1722 1725 1728 1731 1734 1737 1740 1743 1746 1749 1752 1755 1758 1761 1764 1767 1770 1773 1776 1779 1782 1785 1788 1791 1794 1797 1800 1803 1806 1809 1812 1815 1818 1821 1824 1827 1830 1833 1836 1839 1842 1845 1848 1851 1854 1857 1860 1863 1866 1869 1872 1875 1878 1881 1884 1887 1890 1893 1896 1899 1902 1905 1908 1911 1914 1917 1920 1923 1926 1929 1932 1935 1938 1941 1944 1947 1950 1953 1956 1959 1962 1965 1968 1971 1974 1977 1980 1983 1986 1989 1992 1995 1998 2001 2004 2007 2010 2013 2016 2019 2022 2025 2028 2031 2034 2037 2040 2043 2046 2049 2052 2055 2058 2061 2064 2067 2070 2073 2076 2079 2082 2085 2088 2091 2094 2097 2100 2103 2106 2109 2112 2115 2118 2121 2124 2127 2130 2133 2136 2139 2142 2145 2148 2151 2154 2157 2160 2163 2166 2169 2172 2175 2178 2181 2184 2187 2190 2193 2196 2199 2202 2205 2208 2211 2214 2217 2220 2223 2226 2229 2232 2235 2238 2241 2244 2247 2250 2253 2256 2259 2262 2265 2268 2271 2274 2277 2280 2283 2286 2289 2292 2295 2298 2301 2304 2307 2310 2313 2316 2319 2322 2325 2328 2331 2334 2337 2340 2343 2346 2349 2352 2355 2358 2361 2364 2367 2370 2373 2376 2379 2382 2385 2388 2391 2394 2397 2400 2403 2406 2409 2412 2415 2418 2421 2424 2427 2430 2433 2436 2439 2442 2445 2448 2451 2454 2457 2460 2463 2466 2469 2472 2475 2478 2481 2484 2487 2490 2493 2496 2499 2502 2505 2508 2511 2514 2517 2520 2523 2526 2529 2532 2535 2538 2541 2544 2547 2550 2553 2556 2559 2562 2565 2568 2571 2574 2577 2580 2583 2586 2589 2592 2595 2598 2601 2604 2607 2610 2613 2616 2619 2622 2625 2628 2631 2634 2637 2640 2643 2646 2649 2652 2655 2658 2661 2664 2667 2670 2673 2676 2679 2682 2685 2688 2691 2694 2697 2700 2703 2706 2709 2712 2715 2718 2721 2724 2727 2730 2733 2736 2739 2742 2745 2748 2751 2754 2757 2760 2763 2766 2769 2772 2775 2778 2781 2784 2787 2790 2793 2796 2799 2802 2805 2808 2811 2814 2817 2820 2823 2826 2829 2832 2835 2838 2841 2844 2847 2850 2853 2856 2859 2862 2865 2868 2871 2874 2877 2880 2883 2886 2889 2892 2895 2898 2901 2904 2907 2910 2913 2916 2919 2922 2925 2928 2931 2934 2937 2940 2943 2946 2949 2952 2955 2958 2961 2964 2967 2970 2973 2976 2979 2982 2985 2988 2991 2994 2997 3000 3003 3006 3009 3012 3015 3018 3021 3024 3027 3030 3033 3036 3039 3042 3045 3048 3051 3054 3057 3060 3063 3066 3069 3072 3075 3078 3081 3084 3087 3090 3093 3096 3099 3102 3105 3108 3111 3114 3117 3120 3123 3126 3129 3132 3135 3138 3141 3144 3147 3150 3153 3156 3159 3162 3165 3168 3171 3174 3177 3180 3183 3186 
</DataArray>
<DataArray type="UInt32" Name="types" format="ascii">
5 5 5 5 5 5 5 5 5 5 5 5 5 5 5 5 5 5 5 5 5 5 5 5 5 5 5 5 5 5 5 5 5 5 5 5 5 5 5 5 5 5 5 5 5 5 5 5 5 5 5 5 5 5 5 5 5 5 5 5 5 5 5 5 5 5 5 5 5 5 5 5 5 5 5 5 5 5 5 5 5 5 5 5 5 5 5 5 5 5 5 5 5 5 5 5 5 5 5 5 5 5 5 5 5 5 5 5 5 5 5 5 5 5 5 5 5 5 5 5 5 5 5 5 5 5 5 5 5 5 5 5 5 5 5 5 5 5 5 5 5 5 5 5 5 5 5 5 5 5 5 5 5 5 5 5 5 5 5 5 5 5 5 5 5 5 5 5 5 5 5 5 5 5 5 5 5 5 5 5 5 5 5 5 5 5 5 5 5 5 5 5 5 5 5 5 5 5 5 5 5 5 5 5 5 5 5 5 5 5 5 5 5 5 5 5 5 5 5 5 5 5 5 5 5 5 5 5 5 5 5 5 5 5 5 5 5 5 5 5 5 5 5 5 5 5 5 5 5 5 5 5 5 5 5 5 5 5 5 5 5 5 5 5 5 5 5 5 5 5 5 5 5 5 5 5 5 5 5 5 5 5 5 5 5 5 5 5 5 5 5 5 5 5 5 5 5 5 5 5 5 5 5 5 5 5 5 5 5 5 5 5 5 5 5 5 5 5 5 5 5 5 5 5 5 5 5 5 5 5 5 5 5 5 5 5 5 5 5 5 5 5 5 5 5 5 5 5 5 5 5 5 5 5 5 5 5 5 5 5 5 5 5 5 5 5 5 5 5 5 5 5 5 5 5 5 5 5 5 5 5 5 5 5 5 5 5 5 5 5 5 5 5 5 5 5 5 5 5 5 5 5 5 5 5 5 5 5 5 5 5 5 5 5 5 5 5 5 5 5 5 5 5 5 5 5 5 5 5 5 5 5 5 5 5 5 5 5 5 5 5 5 5 5 5 5 5 5 5 5 5 5 5 5 5 5 5 5 5 5 5 5 5 5 5 5 5 5 5 5 5 5 5 5 5 5 5 5 5 5 5 5 5 5 5 5 5 5 5 5 5 5 5 5 5 5 5 5 5 5 5 5 5 5 5 5 5 5 5 5 5 5 5 5 5 5 5 5 5 5 5 5 5 5 5 5 5 5 5 5 5 5 5 5 5 5 5 5 5 5 5 5 5 5 5 5 5 5 5 5 5 5 5 5 5 5 5 5 5 5 5 5 5 5 5 5 5 5 5 5 5 5 5 5 5 5 5 5 5 5 5 5 5 5 5 5 5 5 5 5 5 5 5 5 5 5 5 5 5 5 5 5 5 5 5 5 5 5 5 5 5 5 5 5 5 5 5 5 5 5 5 5 5 5 5 5 5 5 5 5 5 5 5 5 5 5 5 5 5 5 5 5 5 5 5 5 5 5 5 5 5 5 5 5 5 5 5 5 5 5 5 5 5 5 5 5 5 5 5 5 5 5 5 5 5 5 5 5 5 5 5 5 5 5 5 5 5 5 5 5 5 5 5 5 5 5 5 5 5 5 5 5 5 5 5 5 5 5 5 5 5 5 5 5 5 5 5 5 5 5 5 5 5 5 5 5 5 5 5 5 5 5 5 5 5 5 5 5 5 5 5 5 5 5 5 5 5 5 5 5 5 5 5 5 5 5 5 5 5 5 5 5 5 5 5 5 5 5 5 5 5 5 5 5 5 5 5 5 5 5 5 5 5 5 5 5 5 5 5 5 5 5 5 5 5 5 5 5 5 5 5 5 5 5 5 5 5 5 5 5 5 5 5 5 5 5 5 5 5 5 5 5 5 5 5 5 5 5 5 5 5 5 5 5 5 5 5 5 5 5 5 5 5 5 5 5 5 5 5 5 5 5 5 5 5 5 5 5 5 5 5 5 5 5 5 5 5 5 5 5 5 5 5 5 5 5 5 5 5 5 5 5 5 5 5 5 5 5 5 5 5 5 5 5 5 5 5 5 5 5 5 5 5 5 5 5 5 5 5 5 5 5 5 5 5 5 5 5 5 5 5 5 5 5 5 5 5 5 5 5 5 5 5 5 5 5 5 5 5 5 5 5 5 5 5 5 5 5 5 5 5 5 5 5 5 5 5 5 5 5 5 5 5 5 5 5 5 5 5 5 5 5 5 5 5 5 5 5 5 5 5 5 5 5 5 5 5 5 5 5 5 5 5 5 5 5 5 5 5 5 5 5 5 5 5 5 5 5 5 5 5 5 5 5 5 5 5 5 5 5 5 5 5 5 5 5 5 5 5 5 5 5 5 5 5 5 5 5 5 5 5 5 5 5 5 5 5 5 5 5 5 5 5 5 5 5 5 5 5 5 5 5 
</DataArray>
</Cells>
<PointData Scalars="" Vectors="displacement," Tensors="">
<DataArray type="Float64" Name="displacement" NumberOfComponents="3" format="ascii">
7.1795294734243575e-05 7.1349928035396791e-05 0 0.0001565700902411654 0.14282951679562902 0 0.099304793476602746 0.10022596645427186 0 7.1795294734243575e-05 7.1349928035396791e-05 0 0.099304793476602746 0.10022596645427186 0 0.14282810917619743 0.00015711250819627176 0 0.0001565700902411654 0.14282951679562902 0 0.099304793476602746 0.10022596645427186 0 0.10717489138546508 0.20950754928429421 0 0.099304793476602746 0.10022596645427186 0 0.217173630573679 0.12031101002604409 0 0.10717489138546508 0.20950754928429421 0 0.099304793476602746 0.10022596645427186 0 0.14282810917619743 0.00015711250819627176 0 0.217173630573679 0.12031101002604409 0 0.14282810917619743 0.00015711250819627176 0 0.28570251119012297 0.00013015581614160877 0 0.217173630573679 0.12031101002604409 0 0.34964147657467592 0.085297316680789229 0 0.28570251119012297 0.00013015581614160877 0 0.42854474829020694 0.0001360214715455515 0 0.34964147657467592 0.085297316680789229 0 0.28570251119012297 0.00013015581614160877 0 0.217173630573679 0.12031101002604409 0 0.34964147657467592 0.085297316680789229 0 0.217173630573679 0.12031101002604409 0 0.34089129825833042 0.19781511135950491 0 0.217173630573679 0.12031101002604409 0 0.21960669071608013 0.26860649860604702 0 0.10717489138546508 0.20950754928429421 0 0.217173630573679 0.12031101002604409 0 0.34089129825833042 0.19781511135950491 0 0.21960669071608013 0.26860649860604702 0 0.34089129825833042 0.19781511135950491 0 0.21960669071608013 0.26860649860604702 0 0.32877441587160816 0.33882509733766009 0 0.21960669071608013 0.26860649860604702 0 0.32877441587160816 0.33882509733766009 0 0.2104351798077175 0.41464112101736467 0 0.21960669071608013 0.26860649860604702 0 0.10859236108571903 0.34619805015686089 0 0.2104351798077175 0.41464112101736467 0 0.21960669071608013 0.26860649860604702 0 0.10859236108571903 0.34619805015686089 0 0.10717489138546508 0.20950754928429421 0 0.10859236108571903 0.34619805015686089 0 0.0001301651924135271 0.28570924190179781 0 0.10717489138546508 0.20950754928429421 0 0.10859236108571903 0.34619805015686089 0 0.0001301651924135271 0.28570924190179781 0 0.0001336455453762282 0.42855960133021809 0 0.0001565700902411654 0.14282951679562902 0 0.0001301651924135271 0.28570924190179781 0 0.10717489138546508 0.20950754928429421 0 0.61198894538513593 0.080383492536729204 0 0.57313993395163243 0.19234131048025344 0 0.71459897893468149 0.11221327405560219 0 0.71423068917009713 0.00013198769723285069 0 0.61198894538513593 0.080383492536729204 0 0.71459897893468149 0.11221327405560219 0 0.61198894538513593 0.080383492536729204 0 0.57139406561993566 0.0001309126244104413 0 0.47533003640388111 0.11290826271535746 0 0.71423068917009713 0.00013198769723285069 0 0.61198894538513593 0.080383492536729204 0 0.57139406561993566 0.0001309126244104413 0 0.61198894538513593 0.080383492536729204 0 0.47533003640388111 0.11290826271535746 0 0.57313993395163243 0.19234131048025344 0 0.57139406561993566 0.0001309126244104413 0 0.47533003640388111 0.11290826271535746 0 0.42854474829020694 0.0001360214715455515 0 0.34964147657467592 0.085297316680789229 0 0.47533003640388111 0.11290826271535746 0 0.42854474829020694 0.0001360214715455515 0 0.34964147657467592 0.085297316680789229 0 0.34089129825833042 0.19781511135950491 0 0.47533003640388111 0.11290826271535746 0 0.34089129825833042 0.19781511135950491 0 0.47533003640388111 0.11290826271535746 0 0.44689566584929513 0.26561720212885404 0 0.32877441587160816 0.33882509733766009 0 0.44689566584929513 0.26561720212885404 0 0.42092493806980585 0.40864050920550771 0 0.34089129825833042 0.19781511135950491 0 0.32877441587160816 0.33882509733766009 0 0.44689566584929513 0.26561720212885404 0 0.44689566584929513 0.26561720212885404 0 0.53282280835280571 0.33617619114716774 0 0.42092493806980585 0.40864050920550771 0 0.47533003640388111 0.11290826271535746 0 0.44689566584929513 0.26561720212885404 0 0.57313993395163243 0.19234131048025344 0 0.44689566584929513 0.26561720212885404 0 0.57313993395163243 0.19234131048025344 0 0.53282280835280571 0.33617619114716774 0 0.53282280835280571 0.33617619114716774 0 0.60108569315994076 0.41300349419619881 0 0.64676932192767345 0.26593353048658536 0 0.57313993395163243 0.19234131048025344 0 0.53282280835280571 0.33617619114716774 0 0.64676932192767345 0.26593353048658536 0 0.57313993395163243 0.19234131048025344 0 0.64676932192767345 0.26593353048658536 0 0.71459897893468149 0.11221327405560219 0 0.49947014896492825 0.48237278866041672 0 0.5643282439019025 0.5594244067108336 0 0.60108569315994076 0.41300349419619881 0 0.53282280835280571 0.33617619114716774 0 0.49947014896492825 0.48237278866041672 0 0.60108569315994076 0.41300349419619881 0 0.53282280835280571 0.33617619114716774 0 0.49947014896492825 0.48237278866041672 0 0.42092493806980585 0.40864050920550771 0 0.49947014896492825 0.48237278866041672 0 0.42092493806980585 0.40864050920550771 0 0.39787857797823534 0.55421961185797963 0 0.32877441587160816 0.33882509733766009 0 0.42092493806980585 0.40864050920550771 0 0.31172693939833973 0.48263768482128155 0 0.42092493806980585 0.40864050920550771 0 0.31172693939833973 0.48263768482128155 0 0.39787857797823534 0.55421961185797963 0 0.29731595192545263 0.62801125629353571 0 0.37822472296374177 0.70316924617535859 0 0.39787857797823534 0.55421961185797963 0 0.31172693939833973 0.48263768482128155 0 0.29731595192545263 0.62801125629353571 0 0.39787857797823534 0.55421961185797963 0 0.29731595192545263 0.62801125629353571 0 0.37822472296374177 0.70316924617535859 0 0.284266597578615 0.7738201054497218 0 0.37822472296374177 0.70316924617535859 0 0.39787857797823534 0.55421961185797963 0 0.47203239498344207 0.62886920321222417 0 0.49947014896492825 0.48237278866041672 0 0.39787857797823534 0.55421961185797963 0 0.47203239498344207 0.62886920321222417 0 0.37822472296374177 0.70316924617535859 0 0.47203239498344207 0.62886920321222417 0 0.45325003604550823 0.77615020745061747 0 0.47203239498344207 0.62886920321222417 0 0.45325003604550823 0.77615020745061747 0 0.53698355382146723 0.70690259173241055 0 0.49947014896492825 0.48237278866041672 0 0.47203239498344207 0.62886920321222417 0 0.5643282439019025 0.5594244067108336 0 0.47203239498344207 0.62886920321222417 0 0.5643282439019025 0.5594244067108336 0 0.53698355382146723 0.70690259173241055 0 0.10500454962085587 0.49145907056005722 0 0.0001336455453762282 0.42855960133021809 0 0.00012957140610679263 0.57141938477488796 0 0.10859236108571903 0.34619805015686089 0 0.10500454962085587 0.49145907056005722 0 0.0001336455453762282 0.42855960133021809 0 0.10859236108571903 0.34619805015686089 0 0.10500454962085587 0.49145907056005722 0 0.2104351798077175 0.41464112101736467 0 0.32877441587160816 0.33882509733766009 0 0.31172693939833973 0.48263768482128155 0 0.2104351798077175 0.41464112101736467 0 0.31172693939833973 0.48263768482128155 0 0.2104351798077175 0.41464112101736467 0 0.20635239779864831 0.55838068000242247 0 0.10500454962085587 0.49145907056005722 0 0.2104351798077175 0.41464112101736467 0 0.20635239779864831 0.55838068000242247 0 0.20635239779864831 0.55838068000242247 0 0.19757135017011154 0.70244216520280722 0 0.10384922877659342 0.63512240609820891 0 0.29731595192545263 0.62801125629353571 0 0.20635239779864831 0.55838068000242247 0 0.19757135017011154 0.70244216520280722 0 0.31172693939833973 0.48263768482128155 0 0.29731595192545263 0.62801125629353571 0 0.20635239779864831 0.55838068000242247 0 0.29731595192545263 0.62801125629353571 0 0.19757135017011154 0.70244216520280722 0 0.284266597578615 0.7738201054497218 0 0.19757135017011154 0.70244216520280722 0 0.10384922877659342 0.63512240609820891 0 0.096211281137302693 0.77440182573489291 0 0.10500454962085587 0.49145907056005722 0 0.20635239779864831 0.55838068000242247 0 0.10384922877659342 0.63512240609820891 0 0.10384922877659342 0.63512240609820891 0 0.00012957140610679263 0.57141938477488796 0 0.00012741015609525445 0.71427733131228377 0 0.10500454962085587 0.49145907056005722 0 0.10384922877659342 0.63512240609820891 0 0.00012957140610679263 0.57141938477488796 0 0.10384922877659342 0.63512240609820891 0 0.00012741015609525445 0.71427733131228377 0 0.096211281137302693 0.77440182573489291 0 0.00012741015609525445 0.71427733131228377 0 0.096211281137302693 0.77440182573489291 0 0.00012491802884225992 0.85713668074888516 0 0.096211281137302693 0.77440182573489291 0 0.077810809865299202 0.89155964571636392 0 0.17569501806997076 0.8600735545226349 0 0.077810809865299202 0.89155964571636392 0 0.10343776267580715 0.99590811634681753 0 0.17569501806997076 0.8600735545226349 0 0.077810809865299202 0.89155964571636392 0 0.00012491802884225992 0.85713668074888516 0 0.00012367900729959205 0.99999486283490246 0 0.096211281137302693 0.77440182573489291 0 0.077810809865299202 0.89155964571636392 0 0.00012491802884225992 0.85713668074888516 0 0.077810809865299202 0.89155964571636392 0 0.00012367900729959205 0.99999486283490246 0 0.10343776267580715 0.99590811634681753 0 0.10343776267580715 0.99590811634681753 0 0.074453590863497218 1.1021100327009523 0 0.15264052741516315 1.1122668803469467 0 0.00012367900729959205 0.99999486283490246 0 0.10343776267580715 0.99590811634681753 0 0.074453590863497218 1.1021100327009523 0 0.00012367900729959205 0.99999486283490246 0 0.074453590863497218 1.1021100327009523 0 0.00012221297714941001 1.1428537603080158 0 0.24692643706975706 1.115021125802887 0 0.20395049302177543 0.99336310253569993 0 0.30019219094143601 0.99241589913826056 0 0.24692643706975706 1.115021125802887 0 0.15264052741516315 1.1122668803469467 0 0.20395049302177543 0.99336310253569993 0 0.10343776267580715 0.99590811634681753 0 0.15264052741516315 1.1122668803469467 0 0.20395049302177543 0.99336310253569993 0 0.10343776267580715 0.99590811634681753 0 0.20395049302177543 0.99336310253569993 0 0.17569501806997076 0.8600735545226349 0 0.20395049302177543 0.99336310253569993 0 0.26526069267563207 0.89605657373356884 0 0.30019219094143601 0.99241589913826056 0 0.20395049302177543 0.99336310253569993 0 0.26526069267563207 0.89605657373356884 0 0.17569501806997076 0.8600735545226349 0 0.26526069267563207 0.89605657373356884 0 0.17569501806997076 0.8600735545226349 0 0.284266597578615 0.7738201054497218 0 0.19757135017011154 0.70244216520280722 0 0.096211281137302693 0.77440182573489291 0 0.17569501806997076 0.8600735545226349 0 0.19757135017011154 0.70244216520280722 0 0.17569501806997076 0.8600735545226349 0 0.284266597578615 0.7738201054497218 0 0.37822472296374177 0.70316924617535859 0 0.284266597578615 0.7738201054497218 0 0.35879772878682714 0.86188794505860711 0 0.37822472296374177 0.70316924617535859 0 0.35879772878682714 0.86188794505860711 0 0.45325003604550823 0.77615020745061747 0 0.26526069267563207 0.89605657373356884 0 0.35879772878682714 0.86188794505860711 0 0.30019219094143601 0.99241589913826056 0 0.26526069267563207 0.89605657373356884 0 0.284266597578615 0.7738201054497218 0 0.35879772878682714 0.86188794505860711 0 0.45325003604550823 0.77615020745061747 0 0.52100857780185328 0.86552028810749593 0 0.53698355382146723 0.70690259173241055 0 0.35879772878682714 0.86188794505860711 0 0.4407209524201724 0.89828342003233441 0 0.3906320211804179 0.99321702274813906 0 0.35879772878682714 0.86188794505860711 0 0.45325003604550823 0.77615020745061747 0 0.4407209524201724 0.89828342003233441 0 0.4407209524201724 0.89828342003233441 0 0.47390654326684689 0.99528386368384314 0 0.52100857780185328 0.86552028810749593 0 0.45325003604550823 0.77615020745061747 0 0.4407209524201724 0.89828342003233441 0 0.52100857780185328 0.86552028810749593 0 0.4407209524201724 0.89828342003233441 0 0.47390654326684689 0.99528386368384314 0 0.3906320211804179 0.99321702274813906 0 0.3906320211804179 0.99321702274813906 0 0.42283009991258375 1.1189822981618858 0 0.33873102842705616 1.117830915518784 0 0.47390654326684689 0.99528386368384314 0 0.3906320211804179 0.99321702274813906 0 0.42283009991258375 1.1189822981618858 0 0.47390654326684689 0.99528386368384314 0 0.42283009991258375 1.1189822981618858 0 0.49830586612762967 1.1184383215961951 0 0.35879772878682714 0.86188794505860711 0 0.3906320211804179 0.99321702274813906 0 0.30019219094143601 0.99241589913826056 0 0.3906320211804179 0.99321702274813906 0 0.30019219094143601 0.99241589913826056 0 0.33873102842705616 1.117830915518784 0 0.24692643706975706 1.115021125802887 0 0.30019219094143601 0.99241589913826056 0 0.33873102842705616 1.117830915518784 0 0.24692643706975706 1.115021125802887 0 0.33873102842705616 1.117830915518784 0 0.28764975681964444 1.2393918582110535 0 0.33873102842705616 1.117830915518784 0 0.28764975681964444 1.2393918582110535 0 0.37507485913400401 1.2441669955825527 0 0.28764975681964444 1.2393918582110535 0 0.37507485913400401 1.2441669955825527 0 0.32744263361001685 1.3674081564844003 0 0.42283009991258375 1.1189822981618858 0 0.4551312411836938 1.2448069683916079 0 0.49830586612762967 1.1184383215961951 0 0.42283009991258375 1.1189822981618858 0 0.33873102842705616 1.117830915518784 0 0.37507485913400401 1.2441669955825527 0 0.42283009991258375 1.1189822981618858 0 0.37507485913400401 1.2441669955825527 0 0.4551312411836938 1.2448069683916079 0 0.37507485913400401 1.2441669955825527 0 0.4551312411836938 1.2448069683916079 0 0.41180631436113313 1.3695278821821559 0 0.4551312411836938 1.2448069683916079 0 0.41180631436113313 1.3695278821821559 0 0.48760993270727426 1.368549438338057 0 0.37507485913400401 1.2441669955825527 0 0.41180631436113313 1.3695278821821559 0 0.32744263361001685 1.3674081564844003 0 0.41180631436113313 1.3695278821821559 0 0.36955643460778803 1.4944000399883361 0 0.449655113873552 1.4948243409648208 0 0.41180631436113313 1.3695278821821559 0 0.36955643460778803 1.4944000399883361 0 0.32744263361001685 1.3674081564844003 0 0.41180631436113313 1.3695278821821559 0 0.449655113873552 1.4948243409648208 0 0.48760993270727426 1.368549438338057 0 0.28764975681964444 1.2393918582110535 0 0.32744263361001685 1.3674081564844003 0 0.23797841095652714 1.3641059011680119 0 0.36955643460778803 1.4944000399883361 0 0.32744263361001685 1.3674081564844003 0 0.2823080518734738 1.4931172784721327 0 0.32744263361001685 1.3674081564844003 0 0.2823080518734738 1.4931172784721327 0 0.23797841095652714 1.3641059011680119 0 0.2823080518734738 1.4931172784721327 0 0.23797841095652714 1.3641059011680119 0 0.18790751824629121 1.4945227883547603 0 0.23797841095652714 1.3641059011680119 0 0.14261532285008208 1.3613567082638158 0 0.19423830055529301 1.2365000471131113 0 0.14261532285008208 1.3613567082638158 0 0.18790751824629121 1.4945227883547603 0 0.08693132666578908 1.4981690810110191 0 0.23797841095652714 1.3641059011680119 0 0.14261532285008208 1.3613567082638158 0 0.18790751824629121 1.4945227883547603 0 0.08693132666578908 1.4981690810110191 0 0.00012085878031253571 1.4285706104801774 0 0.06117059801101276 1.3563936482709935 0 0.08693132666578908 1.4981690810110191 0 0.00012085878031253571 1.4285706104801774 0 0.00012080881274415141 1.5714293720459698 0 0.00012085878031253571 1.4285706104801774 0 0.06117059801101276 1.3563936482709935 0 0.0001209494867639478 1.285712378981162 0 0.14261532285008208 1.3613567082638158 0 0.06117059801101276 1.3563936482709935 0 0.089542639852590547 1.2284253773506373 0 0.14261532285008208 1.3613567082638158 0 0.08693132666578908 1.4981690810110191 0 0.06117059801101276 1.3563936482709935 0 0.089542639852590547 1.2284253773506373 0 0.0001209494867639478 1.285712378981162 0 0.00012221297714941001 1.1428537603080158 0 0.06117059801101276 1.3563936482709935 0 0.089542639852590547 1.2284253773506373 0 0.0001209494867639478 1.285712378981162 0 0.074453590863497218 1.1021100327009523 0 0.089542639852590547 1.2284253773506373 0 0.00012221297714941001 1.1428537603080158 0 0.074453590863497218 1.1021100327009523 0 0.15264052741516315 1.1122668803469467 0 0.089542639852590547 1.2284253773506373 0 0.15264052741516315 1.1122668803469467 0 0.089542639852590547 1.2284253773506373 0 0.19423830055529301 1.2365000471131113 0 0.24692643706975706 1.115021125802887 0 0.28764975681964444 1.2393918582110535 0 0.19423830055529301 1.2365000471131113 0 0.24692643706975706 1.115021125802887 0 0.15264052741516315 1.1122668803469467 0 0.19423830055529301 1.2365000471131113 0 0.28764975681964444 1.2393918582110535 0 0.23797841095652714 1.3641059011680119 0 0.19423830055529301 1.2365000471131113 0 0.14261532285008208 1.3613567082638158 0 0.089542639852590547 1.2284253773506373 0 0.19423830055529301 1.2365000471131113 0 1.0554693948003646 1.2901693079514138 0 0.83147435066695463 1.3591544500162165 0 0.8220159667381417 1.2221288593628499 0 1.0554693948003646 1.2901693079514138 0 1.0304737597680125 1.1406862190236822 0 0.8220159667381417 1.2221288593628499 0 1.0304737597680125 1.1406862190236822 0 0.8220159667381417 1.2221288593628499 0 0.79658834912925935 1.1107072439149861 0 1.0554693948003646 1.2901693079514138 0 1.0304737597680125 1.1406862190236822 0 1.2892624105851507 1.2238534354080446 0 1.0304737597680125 1.1406862190236822 0 1.2892624105851507 1.2238534354080446 0 1.2488887049472164 1.1097329988792377 0 1.2892624105851507 1.2238534354080446 0 1.5031792862455267 1.1397495318217434 0 1.5091742295768893 1.2931730400477073 0 1.2892624105851507 1.2238534354080446 0 1.2488887049472164 1.1097329988792377 0 1.5031792862455267 1.1397495318217434 0 1.2892624105851507 1.2238534354080446 0 1.2858509992750682 1.3604552872708957 0 1.5091742295768893 1.2931730400477073 0 1.0554693948003646 1.2901693079514138 0 1.2892624105851507 1.2238534354080446 0 1.2858509992750682 1.3604552872708957 0 1.2858509992750682 1.3604552872708957 0 1.5091742295768893 1.2931730400477073 0 1.5092121613842999 1.4310365024470302 0 1.2858509992750682 1.3604552872708957 0 1.2869582820858805 1.4999857228343807 0 1.5092121613842999 1.4310365024470302 0 1.2858509992750682 1.3604552872708957 0 1.2869582820858805 1.4999857228343807 0 1.059622253336201 1.4288999299642933 0 1.2869582820858805 1.4999857228343807 0 1.059622253336201 1.4288999299642933 0 1.0608843523500604 1.5691931684633149 0 1.0554693948003646 1.2901693079514138 0 1.2858509992750682 1.3604552872708957 0 1.059622253336201 1.4288999299642933 0 1.0554693948003646 1.2901693079514138 0 1.059622253336201 1.4288999299642933 0 0.83147435066695463 1.3591544500162165 0 1.059622253336201 1.4288999299642933 0 0.8250657248995148 1.4999937470017488 0 1.0608843523500604 1.5691931684633149 0 1.059622253336201 1.4288999299642933 0 0.83147435066695463 1.3591544500162165 0 0.8250657248995148 1.4999937470017488 0 0.8250657248995148 1.4999937470017488 0 0.58966115452106826 1.42913457695484 0 0.58964111346218484 1.5708593864624292 0 0.83147435066695463 1.3591544500162165 0 0.8250657248995148 1.4999937470017488 0 0.58966115452106826 1.42913457695484 0 0.58966115452106826 1.42913457695484 0 0.5301455636797886 1.4975567790267774 0 0.58964111346218484 1.5708593864624292 0 0.58966115452106826 1.42913457695484 0 0.54753164755471195 1.3594427200167238 0 0.59350489542163831 1.2870075620753081 0 0.83147435066695463 1.3591544500162165 0 0.58966115452106826 1.42913457695484 0 0.59350489542163831 1.2870075620753081 0 0.449655113873552 1.4948243409648208 0 0.5301455636797886 1.4975567790267774 0 0.48760993270727426 1.368549438338057 0 0.5301455636797886 1.4975567790267774 0 0.54753164755471195 1.3594427200167238 0 0.48760993270727426 1.368549438338057 0 0.58966115452106826 1.42913457695484 0 0.5301455636797886 1.4975567790267774 0 0.54753164755471195 1.3594427200167238 0 0.54753164755471195 1.3594427200167238 0 0.48760993270727426 1.368549438338057 0 0.53548147754280639 1.2322110597082525 0 0.4551312411836938 1.2448069683916079 0 0.48760993270727426 1.368549438338057 0 0.53548147754280639 1.2322110597082525 0 0.54753164755471195 1.3594427200167238 0 0.53548147754280639 1.2322110597082525 0 0.59350489542163831 1.2870075620753081 0 0.53548147754280639 1.2322110597082525 0 0.60147522764797412 1.1449123602362481 0 0.55703023581409605 1.1046258123965218 0 0.53548147754280639 1.2322110597082525 0 0.49830586612762967 1.1184383215961951 0 0.55703023581409605 1.1046258123965218 0 0.4551312411836938 1.2448069683916079 0 0.53548147754280639 1.2322110597082525 0 0.49830586612762967 1.1184383215961951 0 0.83147435066695463 1.3591544500162165 0 0.59350489542163831 1.2870075620753081 0 0.8220159667381417 1.2221288593628499 0 0.53548147754280639 1.2322110597082525 0 0.59350489542163831 1.2870075620753081 0 0.60147522764797412 1.1449123602362481 0 0.60147522764797412 1.1449123602362481 0 0.8220159667381417 1.2221288593628499 0 0.79658834912925935 1.1107072439149861 0 0.59350489542163831 1.2870075620753081 0 0.60147522764797412 1.1449123602362481 0 0.8220159667381417 1.2221288593628499 0 0.79658834912925935 1.1107072439149861 0 0.6140919390533478 1.0025111164435594 0 0.87402237084672652 1.0093694550233552 0 0.60147522764797412 1.1449123602362481 0 0.79658834912925935 1.1107072439149861 0 0.6140919390533478 1.0025111164435594 0 0.60147522764797412 1.1449123602362481 0 0.6140919390533478 1.0025111164435594 0 0.55703023581409605 1.1046258123965218 0 0.6140919390533478 1.0025111164435594 0 0.81591596522709497 0.90440110831599752 0 0.87402237084672652 1.0093694550233552 0 0.47390654326684689 0.99528386368384314 0 0.49830586612762967 1.1184383215961951 0 0.54881286303518961 0.99868046483167572 0 0.6140919390533478 1.0025111164435594 0 0.55703023581409605 1.1046258123965218 0 0.54881286303518961 0.99868046483167572 0 0.49830586612762967 1.1184383215961951 0 0.55703023581409605 1.1046258123965218 0 0.54881286303518961 0.99868046483167572 0 0.6140919390533478 1.0025111164435594 0 0.54881286303518961 0.99868046483167572 0 0.57989957201716313 0.89444703680639315 0 0.47390654326684689 0.99528386368384314 0 0.54881286303518961 0.99868046483167572 0 0.52100857780185328 0.86552028810749593 0 0.54881286303518961 0.99868046483167572 0 0.52100857780185328 0.86552028810749593 0 0.57989957201716313 0.89444703680639315 0 0.57989957201716313 0.89444703680639315 0 0.59141887071736443 0.77893220002679109 0 0.6317673777906454 0.85955876814724841 0 0.52100857780185328 0.86552028810749593 0 0.57989957201716313 0.89444703680639315 0 0.59141887071736443 0.77893220002679109 0 0.52100857780185328 0.86552028810749593 0 0.59141887071736443 0.77893220002679109 0 0.53698355382146723 0.70690259173241055 0 0.81591596522709497 0.90440110831599752 0 0.6317673777906454 0.85955876814724841 0 0.85932789805106879 0.79202766508042755 0 0.6140919390533478 1.0025111164435594 0 0.81591596522709497 0.90440110831599752 0 0.6317673777906454 0.85955876814724841 0 0.6140919390533478 1.0025111164435594 0 0.57989957201716313 0.89444703680639315 0 0.6317673777906454 0.85955876814724841 0 0.59141887071736443 0.77893220002679109 0 0.6317673777906454 0.85955876814724841 0 0.6560048504531637 0.71628721428814068 0 0.6317673777906454 0.85955876814724841 0 0.85932789805106879 0.79202766508042755 0 0.6560048504531637 0.71628721428814068 0 0.85932789805106879 0.79202766508042755 0 1.0437591229415935 0.88464152868547896 0 1.0847150936304975 0.73479760796673022 0 1.0437591229415935 0.88464152868547896 0 1.2827746685316044 0.80870264869783481 0 1.0847150936304975 0.73479760796673022 0 1.0437591229415935 0.88464152868547896 0 1.1273736470187976 1.0145237386497674 0 1.2596300958771482 0.92398606837470909 0 0.81591596522709497 0.90440110831599752 0 0.85932789805106879 0.79202766508042755 0 1.0437591229415935 0.88464152868547896 0 0.81591596522709497 0.90440110831599752 0 1.0437591229415935 0.88464152868547896 0 0.87402237084672652 1.0093694550233552 0 1.0437591229415935 0.88464152868547896 0 0.87402237084672652 1.0093694550233552 0 1.1273736470187976 1.0145237386497674 0 1.0304737597680125 1.1406862190236822 0 1.1273736470187976 1.0145237386497674 0 1.2488887049472164 1.1097329988792377 0 1.0304737597680125 1.1406862190236822 0 0.87402237084672652 1.0093694550233552 0 1.1273736470187976 1.0145237386497674 0 1.0304737597680125 1.1406862190236822 0 0.79658834912925935 1.1107072439149861 0 0.87402237084672652 1.0093694550233552 0 1.2488887049472164 1.1097329988792377 0 1.3762052691125581 1.0173361783485368 0 1.5031792862455267 1.1397495318217434 0 1.1273736470187976 1.0145237386497674 0 1.2488887049472164 1.1097329988792377 0 1.3762052691125581 1.0173361783485368 0 1.1273736470187976 1.0145237386497674 0 1.3762052691125581 1.0173361783485368 0 1.2596300958771482 0.92398606837470909 0 1.3762052691125581 1.0173361783485368 0 1.4958355196306599 0.8948418656013295 0 1.6237979503979174 1.0173298964615738 0 1.4958355196306599 0.8948418656013295 0 1.2596300958771482 0.92398606837470909 0 1.2827746685316044 0.80870264869783481 0 1.3762052691125581 1.0173361783485368 0 1.4958355196306599 0.8948418656013295 0 1.2596300958771482 0.92398606837470909 0 1.0437591229415935 0.88464152868547896 0 1.2596300958771482 0.92398606837470909 0 1.2827746685316044 0.80870264869783481 0 1.4958355196306599 0.8948418656013295 0 1.2827746685316044 0.80870264869783481 0 1.4917344279192966 0.74369454604554797 0 1.2827746685316044 0.80870264869783481 0 1.4917344279192966 0.74369454604554797 0 1.2949056726361303 0.6725051575331813 0 1.4917344279192966 0.74369454604554797 0 1.4915413137172673 0.60602209528535023 0 1.2949056726361303 0.6725051575331813 0 1.4915413137172673 0.60602209528535023 0 1.2949056726361303 0.6725051575331813 0 1.3049532657808176 0.53241900170699019 0 1.2949056726361303 0.6725051575331813 0 1.1057835572171586 0.59703812134782008 0 1.3049532657808176 0.53241900170699019 0 1.2827746685316044 0.80870264869783481 0 1.2949056726361303 0.6725051575331813 0 1.0847150936304975 0.73479760796673022 0 0.85932789805106879 0.79202766508042755 0 1.0847150936304975 0.73479760796673022 0 0.88710560192283094 0.65588580293220122 0 1.0847150936304975 0.73479760796673022 0 1.1057835572171586 0.59703812134782008 0 0.88710560192283094 0.65588580293220122 0 1.1057835572171586 0.59703812134782008 0 0.88710560192283094 0.65588580293220122 0 0.91880577585212619 0.51628868865706912 0 1.2949056726361303 0.6725051575331813 0 1.0847150936304975 0.73479760796673022 0 1.1057835572171586 0.59703812134782008 0 1.1057835572171586 0.59703812134782008 0 1.1261373324451449 0.45599086510926595 0 1.3049532657808176 0.53241900170699019 0 1.1057835572171586 0.59703812134782008 0 1.1261373324451449 0.45599086510926595 0 0.91880577585212619 0.51628868865706912 0 1.1261373324451449 0.45599086510926595 0 0.91880577585212619 0.51628868865706912 0 0.95742141242799073 0.37298739276757104 0 1.1261373324451449 0.45599086510926595 0 1.3049532657808176 0.53241900170699019 0 1.3165878444815036 0.39099323182303031 0 1.4902789845548832 0.46506838738543882 0 1.3049532657808176 0.53241900170699019 0 1.3165878444815036 0.39099323182303031 0 1.4915413137172673 0.60602209528535023 0 1.4902789845548832 0.46506838738543882 0 1.3049532657808176 0.53241900170699019 0 0.5643282439019025 0.5594244067108336 0 0.53698355382146723 0.70690259173241055 0 0.61579832496590658 0.6380669913210234 0 0.5643282439019025 0.5594244067108336 0 0.61579832496590658 0.6380669913210234 0 0.65258401152477752 0.49234860496588623 0 0.59141887071736443 0.77893220002679109 0 0.53698355382146723 0.70690259173241055 0 0.61579832496590658 0.6380669913210234 0 0.59141887071736443 0.77893220002679109 0 0.61579832496590658 0.6380669913210234 0 0.6560048504531637 0.71628721428814068 0 0.61579832496590658 0.6380669913210234 0 0.68829982313876559 0.57236888516217721 0 0.65258401152477752 0.49234860496588623 0 0.61579832496590658 0.6380669913210234 0 0.68829982313876559 0.57236888516217721 0 0.6560048504531637 0.71628721428814068 0 0.85932789805106879 0.79202766508042755 0 0.6560048504531637 0.71628721428814068 0 0.88710560192283094 0.65588580293220122 0 0.68829982313876559 0.57236888516217721 0 0.6560048504531637 0.71628721428814068 0 0.88710560192283094 0.65588580293220122 0 0.68829982313876559 0.57236888516217721 0 0.88710560192283094 0.65588580293220122 0 0.91880577585212619 0.51628868865706912 0 0.68829982313876559 0.57236888516217721 0 0.91880577585212619 0.51628868865706912 0 0.73122568199281734 0.42769859725173581 0 0.91880577585212619 0.51628868865706912 0 0.73122568199281734 0.42769859725173581 0 0.95742141242799073 0.37298739276757104 0 0.68829982313876559 0.57236888516217721 0 0.73122568199281734 0.42769859725173581 0 0.65258401152477752 0.49234860496588623 0 0.73122568199281734 0.42769859725173581 0 0.65258401152477752 0.49234860496588623 0 0.70010445431845458 0.347264282731505 0 0.65258401152477752 0.49234860496588623 0 0.60108569315994076 0.41300349419619881 0 0.70010445431845458 0.347264282731505 0 0.5643282439019025 0.5594244067108336 0 0.65258401152477752 0.49234860496588623 0 0.60108569315994076 0.41300349419619881 0 0.64676932192767345 0.26593353048658536 0 0.76110689705391621 0.20627263777744903 0 0.71459897893468149 0.11221327405560219 0 0.64676932192767345 0.26593353048658536 0 0.70010445431845458 0.347264282731505 0 0.76110689705391621 0.20627263777744903 0 0.60108569315994076 0.41300349419619881 0 0.64676932192767345 0.26593353048658536 0 0.70010445431845458 0.347264282731505 0 0.70010445431845458 0.347264282731505 0 0.76110689705391621 0.20627263777744903 0 0.78893246447607457 0.28255114802038217 0 0.76110689705391621 0.20627263777744903 0 0.78893246447607457 0.28255114802038217 0 0.8699519325133227 0.13818849371738565 0 0.73122568199281734 0.42769859725173581 0 0.70010445431845458 0.347264282731505 0 0.78893246447607457 0.28255114802038217 0 0.73122568199281734 0.42769859725173581 0 0.78893246447607457 0.28255114802038217 0 0.95742141242799073 0.37298739276757104 0 0.78893246447607457 0.28255114802038217 0 0.95742141242799073 0.37298739276757104 0 1.0069736016837192 0.23287916753143009 0 0.78893246447607457 0.28255114802038217 0 1.0069736016837192 0.23287916753143009 0 0.8699519325133227 0.13818849371738565 0 1.0069736016837192 0.23287916753143009 0 1.0462402028486868 0.1168658366876542 0 0.8699519325133227 0.13818849371738565 0 1.0462402028486868 0.1168658366876542 0 0.99979502855338809 0.00013384284938412142 0 1.1428169347384214 0.00016539750246965951 0 1.0462402028486868 0.1168658366876542 0 0.99979502855338809 0.00013384284938412142 0 0.8699519325133227 0.13818849371738565 0 0.99979502855338809 0.00013384284938412142 0 0.8699519325133227 0.13818849371738565 0 0.83197767422283764 0.092109036490122392 0 0.76110689705391621 0.20627263777744903 0 0.83197767422283764 0.092109036490122392 0 0.71459897893468149 0.11221327405560219 0 0.76110689705391621 0.20627263777744903 0 0.8699519325133227 0.13818849371738565 0 0.83197767422283764 0.092109036490122392 0 0.99979502855338809 0.00013384284938412142 0 0.83197767422283764 0.092109036490122392 0 0.85709112835574286 0.00012571414858324838 0 0.83197767422283764 0.092109036490122392 0 0.85709112835574286 0.00012571414858324838 0 0.71459897893468149 0.11221327405560219 0 0.71423068917009713 0.00013198769723285069 0 0.85709112835574286 0.00012571414858324838 0 0.71459897893468149 0.11221327405560219 0 1.3323692236295535 0.24153781785016767 0 1.493055318920685 0.31644967728292944 0 1.4979746390911652 0.15279986561414369 0 1.3323692236295535 0.24153781785016767 0 1.493055318920685 0.31644967728292944 0 1.3165878444815036 0.39099323182303031 0 1.4902789845548832 0.46506838738543882 0 1.493055318920685 0.31644967728292944 0 1.3165878444815036 0.39099323182303031 0 1.3323692236295535 0.24153781785016767 0 1.3165878444815036 0.39099323182303031 0 1.1564348138853815 0.31200121797844449 0 1.1261373324451449 0.45599086510926595 0 1.3165878444815036 0.39099323182303031 0 1.1564348138853815 0.31200121797844449 0 1.1261373324451449 0.45599086510926595 0 0.95742141242799073 0.37298739276757104 0 1.1564348138853815 0.31200121797844449 0 0.95742141242799073 0.37298739276757104 0 1.0069736016837192 0.23287916753143009 0 1.1564348138853815 0.31200121797844449 0 1.0069736016837192 0.23287916753143009 0 1.1564348138853815 0.31200121797844449 0 1.1898305393269772 0.15063884638859212 0 1.3323692236295535 0.24153781785016767 0 1.1564348138853815 0.31200121797844449 0 1.1898305393269772 0.15063884638859212 0 1.0069736016837192 0.23287916753143009 0 1.0462402028486868 0.1168658366876542 0 1.1898305393269772 0.15063884638859212 0 1.0462402028486868 0.1168658366876542 0 1.1898305393269772 0.15063884638859212 0 1.1428169347384214 0.00016539750246965951 0 1.1898305393269772 0.15063884638859212 0 1.2856761056382016 0.00015950524419867056 0 1.3435437272586235 0.10674219734254328 0 1.1898305393269772 0.15063884638859212 0 1.1428169347384214 0.00016539750246965951 0 1.2856761056382016 0.00015950524419867056 0 1.2856761056382016 0.00015950524419867056 0 1.3435437272586235 0.10674219734254328 0 1.4285621106934614 0.00016200159062114232 0 1.3323692236295535 0.24153781785016767 0 1.3435437272586235 0.10674219734254328 0 1.4979746390911652 0.15279986561414369 0 1.3323692236295535 0.24153781785016767 0 1.1898305393269772 0.15063884638859212 0 1.3435437272586235 0.10674219734254328 0 1.4979746390911652 0.15279986561414369 0 1.4285621106934614 0.00016200159062114232 0 1.5714376656403759 0.00016165134553269964 0 1.3435437272586235 0.10674219734254328 0 1.4979746390911652 0.15279986561414369 0 1.4285621106934614 0.00016200159062114232 0 1.4979746390911652 0.15279986561414369 0 1.5714376656403759 0.00016165134553269964 0 1.6501654139268414 0.11263694174639219 0 1.5714376656403759 0.00016165134553269964 0 1.6501654139268414 0.11263694174639219 0 1.7143241006907415 0.00015995042376305957 0 1.6501654139268414 0.11263694174639219 0 1.6571252254179902 0.24540901984461616 0 1.8122475122366197 0.1511385279213189 0 1.4979746390911652 0.15279986561414369 0 1.6501654139268414 0.11263694174639219 0 1.6571252254179902 0.24540901984461616 0 1.493055318920685 0.31644967728292944 0 1.4979746390911652 0.15279986561414369 0 1.6571252254179902 0.24540901984461616 0 1.6571252254179902 0.24540901984461616 0 1.6645122921298576 0.39415905470581725 0 1.8354029865032679 0.31071969266577693 0 1.493055318920685 0.31644967728292944 0 1.6571252254179902 0.24540901984461616 0 1.6645122921298576 0.39415905470581725 0 1.4902789845548832 0.46506838738543882 0 1.493055318920685 0.31644967728292944 0 1.6645122921298576 0.39415905470581725 0 1.8354029865032679 0.31071969266577693 0 2.0353271014794045 0.37046767397781721 0 1.8665848856136098 0.45727346322399876 0 1.8354029865032679 0.31071969266577693 0 1.9918655725520837 0.23192888166949993 0 2.0353271014794045 0.37046767397781721 0 1.6645122921298576 0.39415905470581725 0 1.8354029865032679 0.31071969266577693 0 1.8665848856136098 0.45727346322399876 0 1.6571252254179902 0.24540901984461616 0 1.8354029865032679 0.31071969266577693 0 1.8122475122366197 0.1511385279213189 0 1.8354029865032679 0.31071969266577693 0 1.8122475122366197 0.1511385279213189 0 1.9918655725520837 0.23192888166949993 0 1.8122475122366197 0.1511385279213189 0 1.9541469207411917 0.11627399252101712 0 1.9918655725520837 0.23192888166949993 0 1.6501654139268414 0.11263694174639219 0 1.8122475122366197 0.1511385279213189 0 1.7143241006907415 0.00015995042376305957 0 1.8122475122366197 0.1511385279213189 0 1.7143241006907415 0.00015995042376305957 0 1.8571831742153468 0.00016523125321463294 0 1.8122475122366197 0.1511385279213189 0 1.8571831742153468 0.00016523125321463294 0 1.9541469207411917 0.11627399252101712 0 2.0002048080903791 0.00013380954533896632 0 2.1301716155873307 0.13814790573628727 0 1.9541469207411917 0.11627399252101712 0 1.8571831742153468 0.00016523125321463294 0 2.0002048080903791 0.00013380954533896632 0 1.9541469207411917 0.11627399252101712 0 2.0002048080903791 0.00013380954533896632 0 2.1301716155873307 0.13814790573628727 0 2.1672965482999276 0.091532284547034687 0 2.1301716155873307 0.13814790573628727 0 1.9541469207411917 0.11627399252101712 0 1.9918655725520837 0.23192888166949993 0 2.142908811085031 0.00012592166441926955 0 2.2819269375754478 0.11232600590877737 0 2.2857696742815965 0.0001316300555029792 0 2.142908811085031 0.00012592166441926955 0 2.1672965482999276 0.091532284547034687 0 2.2819269375754478 0.11232600590877737 0 2.0002048080903791 0.00013380954533896632 0 2.142908811085031 0.00012592166441926955 0 2.1672965482999276 0.091532284547034687 0 2.1672965482999276 0.091532284547034687 0 2.2819269375754478 0.11232600590877737 0 2.2356432561299613 0.20224673166805265 0 2.1301716155873307 0.13814790573628727 0 2.1672965482999276 0.091532284547034687 0 2.2356432561299613 0.20224673166805265 0 2.2819269375754478 0.11232600590877737 0 2.2356432561299613 0.20224673166805265 0 2.3514041780725026 0.26295531081481982 0 2.2356432561299613 0.20224673166805265 0 2.2990102123941374 0.34292721626504691 0 2.2111620862985286 0.28256537154148925 0 2.2356432561299613 0.20224673166805265 0 2.2990102123941374 0.34292721626504691 0 2.3514041780725026 0.26295531081481982 0 2.2990102123941374 0.34292721626504691 0 2.3514041780725026 0.26295531081481982 0 2.399041907554762 0.41274216560200766 0 2.1301716155873307 0.13814790573628727 0 1.9918655725520837 0.23192888166949993 0 2.2111620862985286 0.28256537154148925 0 2.1301716155873307 0.13814790573628727 0 2.2356432561299613 0.20224673166805265 0 2.2111620862985286 0.28256537154148925 0 2.2990102123941374 0.34292721626504691 0 2.2111620862985286 0.28256537154148925 0 2.2687533008551743 0.42772723064707058 0 2.2111620862985286 0.28256537154148925 0 2.0353271014794045 0.37046767397781721 0 2.2687533008551743 0.42772723064707058 0 1.9918655725520837 0.23192888166949993 0 2.2111620862985286 0.28256537154148925 0 2.0353271014794045 0.37046767397781721 0 2.0353271014794045 0.37046767397781721 0 2.2687533008551743 0.42772723064707058 0 2.0760261822763661 0.51483460877235354 0 2.2687533008551743 0.42772723064707058 0 2.3483453129524694 0.49150536047794158 0 2.311669774460082 0.57240534121428421 0 2.2687533008551743 0.42772723064707058 0 2.311669774460082 0.57240534121428421 0 2.0760261822763661 0.51483460877235354 0 2.2990102123941374 0.34292721626504691 0 2.399041907554762 0.41274216560200766 0 2.3483453129524694 0.49150536047794158 0 2.2990102123941374 0.34292721626504691 0 2.2687533008551743 0.42772723064707058 0 2.3483453129524694 0.49150536047794158 0 2.399041907554762 0.41274216560200766 0 2.3483453129524694 0.49150536047794158 0 2.4402961861468651 0.55889343097087807 0 2.3483453129524694 0.49150536047794158 0 2.3872908668687329 0.63712309254370536 0 2.4402961861468651 0.55889343097087807 0 2.3872908668687329 0.63712309254370536 0 2.4402961861468651 0.55889343097087807 0 2.4696774900369793 0.70438781746662094 0 2.3483453129524694 0.49150536047794158 0 2.3872908668687329 0.63712309254370536 0 2.311669774460082 0.57240534121428421 0 2.3872908668687329 0.63712309254370536 0 2.3439301937126422 0.71630193478958615 0 2.4122785000321838 0.77728658395587291 0 2.3872908668687329 0.63712309254370536 0 2.4696774900369793 0.70438781746662094 0 2.4122785000321838 0.77728658395587291 0 2.311669774460082 0.57240534121428421 0 2.3439301937126422 0.71630193478958615 0 2.1005540739598612 0.65666120926440708 0 2.311669774460082 0.57240534121428421 0 2.1005540739598612 0.65666120926440708 0 2.0760261822763661 0.51483460877235354 0 2.3872908668687329 0.63712309254370536 0 2.311669774460082 0.57240534121428421 0 2.3439301937126422 0.71630193478958615 0 2.3439301937126422 0.71630193478958615 0 2.1005540739598612 0.65666120926440708 0 2.1317615274046373 0.79238053898911276 0 2.1005540739598612 0.65666120926440708 0 1.9000336981754569 0.73546432501229209 0 2.1317615274046373 0.79238053898911276 0 2.1005540739598612 0.65666120926440708 0 1.8811025955423564 0.5974207118071525 0 1.9000336981754569 0.73546432501229209 0 2.1005540739598612 0.65666120926440708 0 1.8811025955423564 0.5974207118071525 0 2.0760261822763661 0.51483460877235354 0 1.8811025955423564 0.5974207118071525 0 1.9000336981754569 0.73546432501229209 0 1.6883889827683218 0.67307951997936644 0 1.9000336981754569 0.73546432501229209 0 1.6883889827683218 0.67307951997936644 0 1.696719967541658 0.81081259738266342 0 1.4917344279192966 0.74369454604554797 0 1.6883889827683218 0.67307951997936644 0 1.696719967541658 0.81081259738266342 0 1.4917344279192966 0.74369454604554797 0 1.4915413137172673 0.60602209528535023 0 1.6883889827683218 0.67307951997936644 0 1.4915413137172673 0.60602209528535023 0 1.6883889827683218 0.67307951997936644 0 1.6787798761986257 0.53459907307395571 0 1.8811025955423564 0.5974207118071525 0 1.6883889827683218 0.67307951997936644 0 1.6787798761986257 0.53459907307395571 0 1.4915413137172673 0.60602209528535023 0 1.4902789845548832 0.46506838738543882 0 1.6787798761986257 0.53459907307395571 0 1.4902789845548832 0.46506838738543882 0 1.6645122921298576 0.39415905470581725 0 1.6787798761986257 0.53459907307395571 0 1.6645122921298576 0.39415905470581725 0 1.6787798761986257 0.53459907307395571 0 1.8665848856136098 0.45727346322399876 0 2.0353271014794045 0.37046767397781721 0 1.8665848856136098 0.45727346322399876 0 2.0760261822763661 0.51483460877235354 0 1.8811025955423564 0.5974207118071525 0 1.8665848856136098 0.45727346322399876 0 2.0760261822763661 0.51483460877235354 0 1.8811025955423564 0.5974207118071525 0 1.6787798761986257 0.53459907307395571 0 1.8665848856136098 0.45727346322399876 0 2.9998699302071699 0.28570924900320238 0 2.8948761873311302 0.34946312208902852 0 2.9998662593420673 0.42855960317877084 0 2.9998699302071699 0.28570924900320238 0 2.8948761873311302 0.34946312208902852 0 2.893372099976343 0.21045715176185875 0 2.8948761873311302 0.34946312208902852 0 2.893372099976343 0.21045715176185875 0 2.7854151376963836 0.27015000430167785 0 2.9998699302071699 0.28570924900320238 0 2.893372099976343 0.21045715176185875 0 2.9998434470567314 0.14282950218540741 0 2.893372099976343 0.21045715176185875 0 2.9998434470567314 0.14282950218540741 0 2.9001716364751453 0.10076380661475123 0 2.999928172822361 7.1383234664928064e-05 0 2.8571719309198995 0.00015703577030953461 0 2.9001716364751453 0.10076380661475123 0 2.9998434470567314 0.14282950218540741 0 2.999928172822361 7.1383234664928064e-05 0 2.9001716364751453 0.10076380661475123 0 2.8571719309198995 0.00015703577030953461 0 2.9001716364751453 0.10076380661475123 0 2.7813139397609015 0.11972377228550971 0 2.893372099976343 0.21045715176185875 0 2.9001716364751453 0.10076380661475123 0 2.7813139397609015 0.11972377228550971 0 2.8571719309198995 0.00015703577030953461 0 2.7813139397609015 0.11972377228550971 0 2.7142974657823316 0.00013025607013321662 0 2.7813139397609015 0.11972377228550971 0 2.7142974657823316 0.00013025607013321662 0 2.6555036996052812 0.080408377442812012 0 2.7142974657823316 0.00013025607013321662 0 2.6555036996052812 0.080408377442812012 0 2.5714552337752541 0.00013597045291696526 0 2.7813139397609015 0.11972377228550971 0 2.6555036996052812 0.080408377442812012 0 2.6666140219657102 0.1933725403208453 0 2.893372099976343 0.21045715176185875 0 2.7813139397609015 0.11972377228550971 0 2.7854151376963836 0.27015000430167785 0 2.7813139397609015 0.11972377228550971 0 2.6666140219657102 0.1933725403208453 0 2.7854151376963836 0.27015000430167785 0 2.8948761873311302 0.34946312208902852 0 2.7854151376963836 0.27015000430167785 0 2.7935094688590958 0.41398191990507999 0 2.7854151376963836 0.27015000430167785 0 2.6823828207817262 0.33608604134494785 0 2.7935094688590958 0.41398191990507999 0 2.6666140219657102 0.1933725403208453 0 2.7854151376963836 0.27015000430167785 0 2.6823828207817262 0.33608604134494785 0 2.6823828207817262 0.33608604134494785 0 2.5606886223877239 0.25822884155796805 0 2.5880271047318661 0.4060642004490374 0 2.5606886223877239 0.25822884155796805 0 2.4745580602554953 0.3361025729964523 0 2.5880271047318661 0.4060642004490374 0 2.5606886223877239 0.25822884155796805 0 2.5280787597590915 0.11296517404969365 0 2.4312327212097151 0.19259811607419511 0 2.6666140219657102 0.1933725403208453 0 2.5606886223877239 0.25822884155796805 0 2.5280787597590915 0.11296517404969365 0 2.6666140219657102 0.1933725403208453 0 2.6823828207817262 0.33608604134494785 0 2.5606886223877239 0.25822884155796805 0 2.6555036996052812 0.080408377442812012 0 2.6666140219657102 0.1933725403208453 0 2.5280787597590915 0.11296517404969365 0 2.6555036996052812 0.080408377442812012 0 2.5714552337752541 0.00013597045291696526 0 2.5280787597590915 0.11296517404969365 0 2.5714552337752541 0.00013597045291696526 0 2.5280787597590915 0.11296517404969365 0 2.4286056945313828 0.00013107271584076352 0 2.5280787597590915 0.11296517404969365 0 2.3906066620485733 0.081795702926991412 0 2.4312327212097151 0.19259811607419511 0 2.5280787597590915 0.11296517404969365 0 2.3906066620485733 0.081795702926991412 0 2.4286056945313828 0.00013107271584076352 0 2.3906066620485733 0.081795702926991412 0 2.4286056945313828 0.00013107271584076352 0 2.2857696742815965 0.0001316300555029792 0 2.2819269375754478 0.11232600590877737 0 2.3906066620485733 0.081795702926991412 0 2.2857696742815965 0.0001316300555029792 0 2.2819269375754478 0.11232600590877737 0 2.3906066620485733 0.081795702926991412 0 2.4312327212097151 0.19259811607419511 0 2.2819269375754478 0.11232600590877737 0 2.3514041780725026 0.26295531081481982 0 2.4312327212097151 0.19259811607419511 0 2.5606886223877239 0.25822884155796805 0 2.4312327212097151 0.19259811607419511 0 2.4745580602554953 0.3361025729964523 0 2.3514041780725026 0.26295531081481982 0 2.4312327212097151 0.19259811607419511 0 2.4745580602554953 0.3361025729964523 0 2.3514041780725026 0.26295531081481982 0 2.399041907554762 0.41274216560200766 0 2.4745580602554953 0.3361025729964523 0 2.399041907554762 0.41274216560200766 0 2.4745580602554953 0.3361025729964523 0 2.5067656668654519 0.48167268705677191 0 2.4745580602554953 0.3361025729964523 0 2.5067656668654519 0.48167268705677191 0 2.5880271047318661 0.4060642004490374 0 2.399041907554762 0.41274216560200766 0 2.5067656668654519 0.48167268705677191 0 2.4402961861468651 0.55889343097087807 0 2.5067656668654519 0.48167268705677191 0 2.4402961861468651 0.55889343097087807 0 2.5345683959895395 0.62850648245830043 0 2.4402961861468651 0.55889343097087807 0 2.4696774900369793 0.70438781746662094 0 2.5345683959895395 0.62850648245830043 0 2.4696774900369793 0.70438781746662094 0 2.5345683959895395 0.62850648245830043 0 2.5566256268844199 0.77493138474266876 0 2.5345683959895395 0.62850648245830043 0 2.6289416674757442 0.70049869778773999 0 2.5566256268844199 0.77493138474266876 0 2.5067656668654519 0.48167268705677191 0 2.5345683959895395 0.62850648245830043 0 2.6099205113071791 0.55377715977823116 0 2.5345683959895395 0.62850648245830043 0 2.6099205113071791 0.55377715977823116 0 2.6289416674757442 0.70049869778773999 0 2.6289416674757442 0.70049869778773999 0 2.7104234090538717 0.627814146374997 0 2.724334305270677 0.77207875727326003 0 2.6099205113071791 0.55377715977823116 0 2.6965285306082261 0.48053936026340721 0 2.7104234090538717 0.627814146374997 0 2.6099205113071791 0.55377715977823116 0 2.6289416674757442 0.70049869778773999 0 2.7104234090538717 0.627814146374997 0 2.6099205113071791 0.55377715977823116 0 2.5880271047318661 0.4060642004490374 0 2.6965285306082261 0.48053936026340721 0 2.5067656668654519 0.48167268705677191 0 2.6099205113071791 0.55377715977823116 0 2.5880271047318661 0.4060642004490374 0 2.6823828207817262 0.33608604134494785 0 2.5880271047318661 0.4060642004490374 0 2.6965285306082261 0.48053936026340721 0 2.6823828207817262 0.33608604134494785 0 2.7935094688590958 0.41398191990507999 0 2.6965285306082261 0.48053936026340721 0 2.7935094688590958 0.41398191990507999 0 2.8000438870063187 0.55881281887938694 0 2.8973828116613913 0.49338217313503963 0 2.7935094688590958 0.41398191990507999 0 2.6965285306082261 0.48053936026340721 0 2.8000438870063187 0.55881281887938694 0 2.6965285306082261 0.48053936026340721 0 2.7104234090538717 0.627814146374997 0 2.8000438870063187 0.55881281887938694 0 2.7104234090538717 0.627814146374997 0 2.809289851450842 0.70255125590599143 0 2.8000438870063187 0.55881281887938694 0 2.7104234090538717 0.627814146374997 0 2.809289851450842 0.70255125590599143 0 2.724334305270677 0.77207875727326003 0 2.809289851450842 0.70255125590599143 0 2.8000438870063187 0.55881281887938694 0 2.9018201949447038 0.63533260742553277 0 2.8000438870063187 0.55881281887938694 0 2.9018201949447038 0.63533260742553277 0 2.8973828116613913 0.49338217313503963 0 2.809289851450842 0.70255125590599143 0 2.9018201949447038 0.63533260742553277 0 2.9076462402455547 0.77460324349624377 0 2.9018201949447038 0.63533260742553277 0 2.9998725136063307 0.71427731066357025 0 2.9076462402455547 0.77460324349624377 0 2.9018201949447038 0.63533260742553277 0 2.9998725136063307 0.71427731066357025 0 2.9998705520987921 0.57141941167439414 0 2.9018201949447038 0.63533260742553277 0 2.9998705520987921 0.57141941167439414 0 2.8973828116613913 0.49338217313503963 0 2.9998705520987921 0.57141941167439414 0 2.8973828116613913 0.49338217313503963 0 2.9998662593420673 0.42855960317877084 0 2.8948761873311302 0.34946312208902852 0 2.7935094688590958 0.41398191990507999 0 2.8973828116613913 0.49338217313503963 0 2.8948761873311302 0.34946312208902852 0 2.8973828116613913 0.49338217313503963 0 2.9998662593420673 0.42855960317877084 0 2.9255632949065173 1.1021202330479751 0 2.9998763652974048 0.99999489084963611 0 2.9998777411952577 1.1428537366307656 0 2.9255632949065173 1.1021202330479751 0 2.8965676386265891 0.99591286617843944 0 2.9998763652974048 0.99999489084963611 0 2.9255632949065173 1.1021202330479751 0 2.8965676386265891 0.99591286617843944 0 2.8456360972326147 1.116262498373036 0 2.8965676386265891 0.99591286617843944 0 2.9998763652974048 0.99999489084963611 0 2.9222235556507035 0.89156219422178362 0 2.9998763652974048 0.99999489084963611 0 2.9998750261837475 0.85713665641770798 0 2.9222235556507035 0.89156219422178362 0 2.9998750261837475 0.85713665641770798 0 2.9076462402455547 0.77460324349624377 0 2.9222235556507035 0.89156219422178362 0 2.9998725136063307 0.71427731066357025 0 2.9998750261837475 0.85713665641770798 0 2.9076462402455547 0.77460324349624377 0 2.8965676386265891 0.99591286617843944 0 2.9222235556507035 0.89156219422178362 0 2.8279441442375708 0.86029558185275468 0 2.9076462402455547 0.77460324349624377 0 2.9222235556507035 0.89156219422178362 0 2.8279441442375708 0.86029558185275468 0 2.809289851450842 0.70255125590599143 0 2.9076462402455547 0.77460324349624377 0 2.8279441442375708 0.86029558185275468 0 2.809289851450842 0.70255125590599143 0 2.8279441442375708 0.86029558185275468 0 2.724334305270677 0.77207875727326003 0 2.8279441442375708 0.86029558185275468 0 2.724334305270677 0.77207875727326003 0 2.7402125063226577 0.89546297011632181 0 2.8279441442375708 0.86029558185275468 0 2.7402125063226577 0.89546297011632181 0 2.7960474894830969 0.99336790755079241 0 2.7402125063226577 0.89546297011632181 0 2.7960474894830969 0.99336790755079241 0 2.6998160989600852 0.99241109741841205 0 2.8965676386265891 0.99591286617843944 0 2.8279441442375708 0.86029558185275468 0 2.7960474894830969 0.99336790755079241 0 2.8965676386265891 0.99591286617843944 0 2.7960474894830969 0.99336790755079241 0 2.8456360972326147 1.116262498373036 0 2.7960474894830969 0.99336790755079241 0 2.7526449373779314 1.1178365203419698 0 2.6998160989600852 0.99241109741841205 0 2.7960474894830969 0.99336790755079241 0 2.8456360972326147 1.116262498373036 0 2.7526449373779314 1.1178365203419698 0 2.7526449373779314 1.1178365203419698 0 2.6619462457246761 1.1184331891608916 0 2.6998160989600852 0.99241109741841205 0 2.6619462457246761 1.1184331891608916 0 2.6998160989600852 0.99241109741841205 0 2.6094081304176644 0.99321121956173752 0 2.6998160989600852 0.99241109741841205 0 2.6443796252796727 0.86183409583603976 0 2.6094081304176644 0.99321121956173752 0 2.724334305270677 0.77207875727326003 0 2.7402125063226577 0.89546297011632181 0 2.6443796252796727 0.86183409583603976 0 2.7402125063226577 0.89546297011632181 0 2.6998160989600852 0.99241109741841205 0 2.6443796252796727 0.86183409583603976 0 2.6289416674757442 0.70049869778773999 0 2.724334305270677 0.77207875727326003 0 2.6443796252796727 0.86183409583603976 0 2.6289416674757442 0.70049869778773999 0 2.6443796252796727 0.86183409583603976 0 2.5566256268844199 0.77493138474266876 0 2.6443796252796727 0.86183409583603976 0 2.562983920576241 0.89748104346358393 0 2.5566256268844199 0.77493138474266876 0 2.6443796252796727 0.86183409583603976 0 2.562983920576241 0.89748104346358393 0 2.6094081304176644 0.99321121956173752 0 2.4696774900369793 0.70438781746662094 0 2.5566256268844199 0.77493138474266876 0 2.4839539824341359 0.86258024995037808 0 2.562983920576241 0.89748104346358393 0 2.5566256268844199 0.77493138474266876 0 2.4839539824341359 0.86258024995037808 0 2.562983920576241 0.89748104346358393 0 2.526073411644802 0.9952804954445208 0 2.4839539824341359 0.86258024995037808 0 2.562983920576241 0.89748104346358393 0 2.526073411644802 0.9952804954445208 0 2.6094081304176644 0.99321121956173752 0 2.6619462457246761 1.1184331891608916 0 2.6094081304176644 0.99321121956173752 0 2.5747947172625887 1.12039250074439 0 2.526073411644802 0.9952804954445208 0 2.6094081304176644 0.99321121956173752 0 2.5747947172625887 1.12039250074439 0 2.526073411644802 0.9952804954445208 0 2.5747947172625887 1.12039250074439 0 2.4990669101228598 1.1217504943806191 0 2.5747947172625887 1.12039250074439 0 2.5405262297354296 1.2419383174225567 0 2.4990669101228598 1.1217504943806191 0 2.6619462457246761 1.1184331891608916 0 2.5747947172625887 1.12039250074439 0 2.6249906851806024 1.2443774372140965 0 2.5747947172625887 1.12039250074439 0 2.6249906851806024 1.2443774372140965 0 2.5405262297354296 1.2419383174225567 0 2.6249906851806024 1.2443774372140965 0 2.5405262297354296 1.2419383174225567 0 2.5822295314321804 1.3660782047588249 0 2.5405262297354296 1.2419383174225567 0 2.5822295314321804 1.3660782047588249 0 2.5059308487276364 1.3678419217571769 0 2.546141433525813 1.4944127310744753 0 2.5822295314321804 1.3660782047588249 0 2.5059308487276364 1.3678419217571769 0 2.628696004554063 1.4932794214376603 0 2.5822295314321804 1.3660782047588249 0 2.6698200548181177 1.3681919905083821 0 2.546141433525813 1.4944127310744753 0 2.628696004554063 1.4932794214376603 0 2.5822295314321804 1.3660782047588249 0 2.6249906851806024 1.2443774372140965 0 2.5822295314321804 1.3660782047588249 0 2.6698200548181177 1.3681919905083821 0 2.628696004554063 1.4932794214376603 0 2.6698200548181177 1.3681919905083821 0 2.7157963329291182 1.4945405689196973 0 2.6698200548181177 1.3681919905083821 0 2.7157963329291182 1.4945405689196973 0 2.7598304333156989 1.369185987067316 0 2.6698200548181177 1.3681919905083821 0 2.7118609317014983 1.2438100865638786 0 2.7598304333156989 1.369185987067316 0 2.6249906851806024 1.2443774372140965 0 2.6698200548181177 1.3681919905083821 0 2.7118609317014983 1.2438100865638786 0 2.6619462457246761 1.1184331891608916 0 2.6249906851806024 1.2443774372140965 0 2.7118609317014983 1.2438100865638786 0 2.7526449373779314 1.1178365203419698 0 2.6619462457246761 1.1184331891608916 0 2.7118609317014983 1.2438100865638786 0 2.8456360972326147 1.116262498373036 0 2.7526449373779314 1.1178365203419698 0 2.8034615582702123 1.2435372236091986 0 2.7526449373779314 1.1178365203419698 0 2.7118609317014983 1.2438100865638786 0 2.8034615582702123 1.2435372236091986 0 2.8456360972326147 1.116262498373036 0 2.8034615582702123 1.2435372236091986 0 2.9079303267821501 1.2302923793666061 0 2.8034615582702123 1.2435372236091986 0 2.852411244295495 1.3677079966840298 0 2.9079303267821501 1.2302923793666061 0 2.7118609317014983 1.2438100865638786 0 2.8034615582702123 1.2435372236091986 0 2.7598304333156989 1.369185987067316 0 2.8034615582702123 1.2435372236091986 0 2.7598304333156989 1.369185987067316 0 2.852411244295495 1.3677079966840298 0 2.7598304333156989 1.369185987067316 0 2.807058329025975 1.4948053276052296 0 2.852411244295495 1.3677079966840298 0 2.7157963329291182 1.4945405689196973 0 2.7598304333156989 1.369185987067316 0 2.807058329025975 1.4948053276052296 0 2.807058329025975 1.4948053276052296 0 2.852411244295495 1.3677079966840298 0 2.9120271593649236 1.4975346743120537 0 2.852411244295495 1.3677079966840298 0 2.9339403484556374 1.3583682537245678 0 2.9079303267821501 1.2302923793666061 0 2.852411244295495 1.3677079966840298 0 2.9339403484556374 1.3583682537245678 0 2.9120271593649236 1.4975346743120537 0 2.9339403484556374 1.3583682537245678 0 2.9120271593649236 1.4975346743120537 0 2.9998791635481439 1.4285706132991833 0 2.9120271593649236 1.4975346743120537 0 2.9998791635481439 1.4285706132991833 0 2.9998791665881681 1.5714293886321318 0 2.9339403484556374 1.3583682537245678 0 2.9998791635481439 1.4285706132991833 0 2.9998790689761701 1.2857123972516313 0 2.9339403484556374 1.3583682537245678 0 2.9998790689761701 1.2857123972516313 0 2.9079303267821501 1.2302923793666061 0 2.9998790689761701 1.2857123972516313 0 2.9079303267821501 1.2302923793666061 0 2.9998777411952577 1.1428537366307656 0 2.9255632949065173 1.1021202330479751 0 2.8456360972326147 1.116262498373036 0 2.9079303267821501 1.2302923793666061 0 2.9255632949065173 1.1021202330479751 0 2.9079303267821501 1.2302923793666061 0 2.9998777411952577 1.1428537366307656 0 1.8726771299296272 1.0145271030373517 0 2.1259783410675444 1.0093642546388024 0 1.9474718373278221 0.88472861337395092 0 2.1259783410675444 1.0093642546388024 0 2.2034203616819452 1.1107134663113731 0 1.9730773739261915 1.1383931236936968 0 1.8726771299296272 1.0145271030373517 0 1.7443387568724096 1.1052899865776216 0 1.9730773739261915 1.1383931236936968 0 1.8726771299296272 1.0145271030373517 0 2.1259783410675444 1.0093642546388024 0 1.9730773739261915 1.1383931236936968 0 1.7443387568724096 1.1052899865776216 0 1.6237979503979174 1.0173298964615738 0 1.5031792862455267 1.1397495318217434 0 1.3762052691125581 1.0173361783485368 0 1.6237979503979174 1.0173298964615738 0 1.5031792862455267 1.1397495318217434 0 1.8726771299296272 1.0145271030373517 0 1.7443387568724096 1.1052899865776216 0 1.6237979503979174 1.0173298964615738 0 1.8726771299296272 1.0145271030373517 0 1.6237979503979174 1.0173298964615738 0 1.7268578535609145 0.92481421732450031 0 1.7268578535609145 0.92481421732450031 0 1.696719967541658 0.81081259738266342 0 1.9474718373278221 0.88472861337395092 0 1.4958355196306599 0.8948418656013295 0 1.6237979503979174 1.0173298964615738 0 1.7268578535609145 0.92481421732450031 0 1.4958355196306599 0.8948418656013295 0 1.7268578535609145 0.92481421732450031 0 1.696719967541658 0.81081259738266342 0 1.4958355196306599 0.8948418656013295 0 1.4917344279192966 0.74369454604554797 0 1.696719967541658 0.81081259738266342 0 1.9000336981754569 0.73546432501229209 0 1.696719967541658 0.81081259738266342 0 1.9474718373278221 0.88472861337395092 0 1.8726771299296272 1.0145271030373517 0 1.7268578535609145 0.92481421732450031 0 1.9474718373278221 0.88472861337395092 0 2.1259783410675444 1.0093642546388024 0 1.9474718373278221 0.88472861337395092 0 2.1840781947269714 0.90436782849472808 0 1.9474718373278221 0.88472861337395092 0 2.1317615274046373 0.79238053898911276 0 2.1840781947269714 0.90436782849472808 0 1.9000336981754569 0.73546432501229209 0 1.9474718373278221 0.88472861337395092 0 2.1317615274046373 0.79238053898911276 0 2.3439301937126422 0.71630193478958615 0 2.1317615274046373 0.79238053898911276 0 2.3681508136645117 0.85952232781705029 0 2.3439301937126422 0.71630193478958615 0 2.3681508136645117 0.85952232781705029 0 2.4122785000321838 0.77728658395587291 0 2.3681508136645117 0.85952232781705029 0 2.4200431991483495 0.89444870098489693 0 2.3858838075745568 1.002509955404191 0 2.1317615274046373 0.79238053898911276 0 2.3681508136645117 0.85952232781705029 0 2.1840781947269714 0.90436782849472808 0 2.3681508136645117 0.85952232781705029 0 2.1840781947269714 0.90436782849472808 0 2.3858838075745568 1.002509955404191 0 2.4696774900369793 0.70438781746662094 0 2.4122785000321838 0.77728658395587291 0 2.4839539824341359 0.86258024995037808 0 2.4122785000321838 0.77728658395587291 0 2.4200431991483495 0.89444870098489693 0 2.4839539824341359 0.86258024995037808 0 2.3681508136645117 0.85952232781705029 0 2.4122785000321838 0.77728658395587291 0 2.4200431991483495 0.89444870098489693 0 2.4200431991483495 0.89444870098489693 0 2.4839539824341359 0.86258024995037808 0 2.4511956518997953 0.99867357620615971 0 2.526073411644802 0.9952804954445208 0 2.4839539824341359 0.86258024995037808 0 2.4511956518997953 0.99867357620615971 0 2.4200431991483495 0.89444870098489693 0 2.4511956518997953 0.99867357620615971 0 2.3858838075745568 1.002509955404191 0 2.4511956518997953 0.99867357620615971 0 2.4429769115826936 1.1046399778810672 0 2.4990669101228598 1.1217504943806191 0 2.4511956518997953 0.99867357620615971 0 2.4429769115826936 1.1046399778810672 0 2.3858838075745568 1.002509955404191 0 2.526073411644802 0.9952804954445208 0 2.4511956518997953 0.99867357620615971 0 2.4990669101228598 1.1217504943806191 0 2.1259783410675444 1.0093642546388024 0 2.1840781947269714 0.90436782849472808 0 2.3858838075745568 1.002509955404191 0 2.4429769115826936 1.1046399778810672 0 2.3858838075745568 1.002509955404191 0 2.3985350406149641 1.1449083588258033 0 2.3858838075745568 1.002509955404191 0 2.2034203616819452 1.1107134663113731 0 2.3985350406149641 1.1449083588258033 0 2.1259783410675444 1.0093642546388024 0 2.3858838075745568 1.002509955404191 0 2.2034203616819452 1.1107134663113731 0 2.2034203616819452 1.1107134663113731 0 2.3985350406149641 1.1449083588258033 0 2.1833270013553565 1.2251524071726607 0 2.3985350406149641 1.1449083588258033 0 2.4065094913600573 1.2870078818270718 0 2.1833270013553565 1.2251524071726607 0 2.3985350406149641 1.1449083588258033 0 2.4065094913600573 1.2870078818270718 0 2.4622527780082386 1.2312383427430784 0 2.4065094913600573 1.2870078818270718 0 2.1833270013553565 1.2251524071726607 0 2.180922338886341 1.3608423478893974 0 2.5405262297354296 1.2419383174225567 0 2.4990669101228598 1.1217504943806191 0 2.4622527780082386 1.2312383427430784 0 2.4429769115826936 1.1046399778810672 0 2.4990669101228598 1.1217504943806191 0 2.4622527780082386 1.2312383427430784 0 2.4429769115826936 1.1046399778810672 0 2.3985350406149641 1.1449083588258033 0 2.4622527780082386 1.2312383427430784 0 2.4065094913600573 1.2870078818270718 0 2.4622527780082386 1.2312383427430784 0 2.4490944661197753 1.3574888257624345 0 2.5405262297354296 1.2419383174225567 0 2.4622527780082386 1.2312383427430784 0 2.5059308487276364 1.3678419217571769 0 2.4622527780082386 1.2312383427430784 0 2.5059308487276364 1.3678419217571769 0 2.4490944661197753 1.3574888257624345 0 2.4490944661197753 1.3574888257624345 0 2.4691489101222226 1.4981944889654237 0 2.4103397613892676 1.4291506021175804 0 2.5059308487276364 1.3678419217571769 0 2.4490944661197753 1.3574888257624345 0 2.4691489101222226 1.4981944889654237 0 2.546141433525813 1.4944127310744753 0 2.5059308487276364 1.3678419217571769 0 2.4691489101222226 1.4981944889654237 0 2.4065094913600573 1.2870078818270718 0 2.180922338886341 1.3608423478893974 0 2.4103397613892676 1.4291506021175804 0 2.4065094913600573 1.2870078818270718 0 2.4490944661197753 1.3574888257624345 0 2.4103397613892676 1.4291506021175804 0 2.4691489101222226 1.4981944889654237 0 2.4103397613892676 1.4291506021175804 0 2.410348252294864 1.5708547484112667 0 2.4103397613892676 1.4291506021175804 0 2.1812215573240565 1.4999959625982842 0 2.410348252294864 1.5708547484112667 0 2.180922338886341 1.3608423478893974 0 2.4103397613892676 1.4291506021175804 0 2.1812215573240565 1.4999959625982842 0 2.180922338886341 1.3608423478893974 0 2.1812215573240565 1.4999959625982842 0 1.9550485501471744 1.430661243406858 0 1.9550485501471744 1.430661243406858 0 1.9543528688796925 1.2903171779783904 0 1.7325307931653129 1.3612394382448501 0 2.180922338886341 1.3608423478893974 0 1.9550485501471744 1.430661243406858 0 1.9543528688796925 1.2903171779783904 0 2.1833270013553565 1.2251524071726607 0 2.180922338886341 1.3608423478893974 0 1.9543528688796925 1.2903171779783904 0 1.9543528688796925 1.2903171779783904 0 1.9730773739261915 1.1383931236936968 0 1.7367461477155144 1.2213335857965633 0 2.1833270013553565 1.2251524071726607 0 1.9543528688796925 1.2903171779783904 0 1.9730773739261915 1.1383931236936968 0 2.2034203616819452 1.1107134663113731 0 2.1833270013553565 1.2251524071726607 0 1.9730773739261915 1.1383931236936968 0 1.7443387568724096 1.1052899865776216 0 1.5031792862455267 1.1397495318217434 0 1.7367461477155144 1.2213335857965633 0 1.5031792862455267 1.1397495318217434 0 1.7367461477155144 1.2213335857965633 0 1.5091742295768893 1.2931730400477073 0 1.7443387568724096 1.1052899865776216 0 1.9730773739261915 1.1383931236936968 0 1.7367461477155144 1.2213335857965633 0 1.9543528688796925 1.2903171779783904 0 1.7367461477155144 1.2213335857965633 0 1.7325307931653129 1.3612394382448501 0 1.7367461477155144 1.2213335857965633 0 1.5091742295768893 1.2931730400477073 0 1.7325307931653129 1.3612394382448501 0 1.5091742295768893 1.2931730400477073 0 1.7325307931653129 1.3612394382448501 0 1.5092121613842999 1.4310365024470302 0 1.9550485501471744 1.430661243406858 0 1.7325307931653129 1.3612394382448501 0 1.7315382911242736 1.5000228457733884 0 1.7325307931653129 1.3612394382448501 0 1.5092121613842999 1.4310365024470302 0 1.7315382911242736 1.5000228457733884 0 1.5092121613842999 1.4310365024470302 0 1.5092075647420775 1.5689475912687516 0 1.7315382911242736 1.5000228457733884 0 1.5092075647420775 1.5689475912687516 0 1.7315382911242736 1.5000228457733884 0 1.7308995539482142 1.6381822129514538 0 1.7315382911242736 1.5000228457733884 0 1.7308995539482142 1.6381822129514538 0 1.9548765991824932 1.56953613108941 0 1.5092075647420775 1.5689475912687516 0 1.7308995539482142 1.6381822129514538 0 1.5089496901136221 1.708889336650143 0 1.7308995539482142 1.6381822129514538 0 1.5089496901136221 1.708889336650143 0 1.7325766545069978 1.7745435155772882 0 1.7308995539482142 1.6381822129514538 0 1.7325766545069978 1.7745435155772882 0 1.9535437487854921 1.7076088201306245 0 1.7325766545069978 1.7745435155772882 0 1.974332319405333 1.8585016632830769 0 1.7475406870020678 1.891226812377194 0 1.7325766545069978 1.7745435155772882 0 1.5042893831484603 1.8586973096859107 0 1.7475406870020678 1.891226812377194 0 1.5089496901136221 1.708889336650143 0 1.7325766545069978 1.7745435155772882 0 1.5042893831484603 1.8586973096859107 0 1.974332319405333 1.8585016632830769 0 1.9535437487854921 1.7076088201306245 0 2.18090024698181 1.7752465661141319 0 1.974332319405333 1.8585016632830769 0 2.18090024698181 1.7752465661141319 0 2.2034506624010457 1.8892342610516659 0 1.7325766545069978 1.7745435155772882 0 1.974332319405333 1.8585016632830769 0 1.9535437487854921 1.7076088201306245 0 1.9535437487854921 1.7076088201306245 0 2.1808408030757209 1.6392403415037811 0 2.18090024698181 1.7752465661141319 0 1.9535437487854921 1.7076088201306245 0 1.9548765991824932 1.56953613108941 0 2.1808408030757209 1.6392403415037811 0 1.7308995539482142 1.6381822129514538 0 1.9535437487854921 1.7076088201306245 0 1.9548765991824932 1.56953613108941 0 1.9550485501471744 1.430661243406858 0 1.7315382911242736 1.5000228457733884 0 1.9548765991824932 1.56953613108941 0 2.1812215573240565 1.4999959625982842 0 1.9548765991824932 1.56953613108941 0 2.1808408030757209 1.6392403415037811 0 2.1812215573240565 1.4999959625982842 0 1.9550485501471744 1.430661243406858 0 1.9548765991824932 1.56953613108941 0 2.1812215573240565 1.4999959625982842 0 2.410348252294864 1.5708547484112667 0 2.1808408030757209 1.6392403415037811 0 2.410348252294864 1.5708547484112667 0 2.452965342714144 1.6425247246494978 0 2.4065510810122732 1.7129610833548992 0 2.410348252294864 1.5708547484112667 0 2.1808408030757209 1.6392403415037811 0 2.4065510810122732 1.7129610833548992 0 2.546141433525813 1.4944127310744753 0 2.4691489101222226 1.4981944889654237 0 2.5117736518212808 1.6190515133641545 0 2.4691489101222226 1.4981944889654237 0 2.410348252294864 1.5708547484112667 0 2.452965342714144 1.6425247246494978 0 2.4691489101222226 1.4981944889654237 0 2.452965342714144 1.6425247246494978 0 2.5117736518212808 1.6190515133641545 0 2.452965342714144 1.6425247246494978 0 2.5117736518212808 1.6190515133641545 0 2.4643164617130675 1.7650657046761025 0 2.5117736518212808 1.6190515133641545 0 2.4643164617130675 1.7650657046761025 0 2.5438170866230614 1.7498929136598667 0 2.452965342714144 1.6425247246494978 0 2.4643164617130675 1.7650657046761025 0 2.4065510810122732 1.7129610833548992 0 2.4643164617130675 1.7650657046761025 0 2.5005687396452503 1.8799795107354536 0 2.443081209181631 1.895345138815437 0 2.4643164617130675 1.7650657046761025 0 2.3985920740742248 1.8550631950806409 0 2.443081209181631 1.895345138815437 0 2.4643164617130675 1.7650657046761025 0 2.5005687396452503 1.8799795107354536 0 2.5438170866230614 1.7498929136598667 0 2.1808408030757209 1.6392403415037811 0 2.18090024698181 1.7752465661141319 0 2.4065510810122732 1.7129610833548992 0 2.4643164617130675 1.7650657046761025 0 2.4065510810122732 1.7129610833548992 0 2.3985920740742248 1.8550631950806409 0 2.18090024698181 1.7752465661141319 0 2.4065510810122732 1.7129610833548992 0 2.3985920740742248 1.8550631950806409 0 2.18090024698181 1.7752465661141319 0 2.3985920740742248 1.8550631950806409 0 2.2034506624010457 1.8892342610516659 0 2.2034506624010457 1.8892342610516659 0 2.3859753363509468 1.9974191749053798 0 2.1259859171503321 1.9905090947792812 0 2.3985920740742248 1.8550631950806409 0 2.2034506624010457 1.8892342610516659 0 2.3859753363509468 1.9974191749053798 0 2.3985920740742248 1.8550631950806409 0 2.3859753363509468 1.9974191749053798 0 2.443081209181631 1.895345138815437 0 2.3859753363509468 1.9974191749053798 0 2.1840738249137446 2.0954480405409357 0 2.1259859171503321 1.9905090947792812 0 2.5005687396452503 1.8799795107354536 0 2.4513180024717731 2.0012699070427544 0 2.5263902154955229 2.0046692106338497 0 2.3859753363509468 1.9974191749053798 0 2.443081209181631 1.895345138815437 0 2.4513180024717731 2.0012699070427544 0 2.5005687396452503 1.8799795107354536 0 2.443081209181631 1.895345138815437 0 2.4513180024717731 2.0012699070427544 0 2.3859753363509468 1.9974191749053798 0 2.4513180024717731 2.0012699070427544 0 2.4203386304721044 2.1053638303605133 0 2.4513180024717731 2.0012699070427544 0 2.4731550192608669 2.1282784737646279 0 2.5263902154955229 2.0046692106338497 0 2.4513180024717731 2.0012699070427544 0 2.4731550192608669 2.1282784737646279 0 2.4203386304721044 2.1053638303605133 0 2.4731550192608669 2.1282784737646279 0 2.4203386304721044 2.1053638303605133 0 2.4111099866447665 2.2342240982118406 0 2.4203386304721044 2.1053638303605133 0 2.4111099866447665 2.2342240982118406 0 2.3682694195220342 2.1402453741816343 0 2.4731550192608669 2.1282784737646279 0 2.4111099866447665 2.2342240982118406 0 2.4905451908365057 2.2526142187779197 0 2.3859753363509468 1.9974191749053798 0 2.1840738249137446 2.0954480405409357 0 2.3682694195220342 2.1402453741816343 0 2.1840738249137446 2.0954480405409357 0 2.3682694195220342 2.1402453741816343 0 2.1429324224000155 2.2082907647951542 0 2.3859753363509468 1.9974191749053798 0 2.4203386304721044 2.1053638303605133 0 2.3682694195220342 2.1402453741816343 0 2.4111099866447665 2.2342240982118406 0 2.3682694195220342 2.1402453741816343 0 2.3439783041741937 2.2833019500440792 0 2.3682694195220342 2.1402453741816343 0 2.1429324224000155 2.2082907647951542 0 2.3439783041741937 2.2833019500440792 0 2.1429324224000155 2.2082907647951542 0 1.9554324667282772 2.1120604585375835 0 1.9160069984191634 2.2627792161347027 0 2.1840738249137446 2.0954480405409357 0 2.1429324224000155 2.2082907647951542 0 1.9554324667282772 2.1120604585375835 0 2.1840738249137446 2.0954480405409357 0 1.9554324667282772 2.1120604585375835 0 2.1259859171503321 1.9905090947792812 0 1.9554324667282772 2.1120604585375835 0 1.7377918774008758 2.0724333532180457 0 1.8726470474185537 1.9853678634768139 0 1.9554324667282772 2.1120604585375835 0 1.7216262733752439 2.1871069765041313 0 1.9160069984191634 2.2627792161347027 0 1.7216262733752439 2.1871069765041313 0 1.5052127632830639 2.1038198790570171 0 1.5082558173095695 2.2560963937836473 0 1.5052127632830639 2.1038198790570171 0 1.7377918774008758 2.0724333532180457 0 1.6237764202509755 1.9825533375600646 0 1.7216262733752439 2.1871069765041313 0 1.5052127632830639 2.1038198790570171 0 1.7377918774008758 2.0724333532180457 0 1.9554324667282772 2.1120604585375835 0 1.7216262733752439 2.1871069765041313 0 1.7377918774008758 2.0724333532180457 0 1.7377918774008758 2.0724333532180457 0 1.6237764202509755 1.9825533375600646 0 1.8726470474185537 1.9853678634768139 0 1.5052127632830639 2.1038198790570171 0 1.6237764202509755 1.9825533375600646 0 1.3762039792497285 1.9825575376198759 0 1.5042893831484603 1.8586973096859107 0 1.6237764202509755 1.9825533375600646 0 1.7475406870020678 1.891226812377194 0 1.5042893831484603 1.8586973096859107 0 1.6237764202509755 1.9825533375600646 0 1.3762039792497285 1.9825575376198759 0 1.6237764202509755 1.9825533375600646 0 1.7475406870020678 1.891226812377194 0 1.8726470474185537 1.9853678634768139 0 1.974332319405333 1.8585016632830769 0 2.1259859171503321 1.9905090947792812 0 1.8726470474185537 1.9853678634768139 0 1.974332319405333 1.8585016632830769 0 1.7475406870020678 1.891226812377194 0 1.8726470474185537 1.9853678634768139 0 1.974332319405333 1.8585016632830769 0 2.2034506624010457 1.8892342610516659 0 2.1259859171503321 1.9905090947792812 0 1.9554324667282772 2.1120604585375835 0 2.1259859171503321 1.9905090947792812 0 1.8726470474185537 1.9853678634768139 0 2.9998777177792162 1.8571463368059877 0 2.9078794821955651 1.7646525617697244 0 2.9255239326405054 1.8979062132409452 0 2.9078794821955651 1.7646525617697244 0 2.8457300601562174 1.8786595214901463 0 2.9255239326405054 1.8979062132409452 0 2.9998777177792162 1.8571463368059877 0 2.9078794821955651 1.7646525617697244 0 2.9998790620924001 1.7142875943509979 0 2.9078794821955651 1.7646525617697244 0 2.9998790620924001 1.7142875943509979 0 2.934417910468972 1.6336296017970331 0 2.9998790620924001 1.7142875943509979 0 2.9998791665881681 1.5714293886321318 0 2.934417910468972 1.6336296017970331 0 2.9120271593649236 1.4975346743120537 0 2.9998791665881681 1.5714293886321318 0 2.934417910468972 1.6336296017970331 0 2.9120271593649236 1.4975346743120537 0 2.934417910468972 1.6336296017970331 0 2.8537350724450832 1.6198589258386999 0 2.9078794821955651 1.7646525617697244 0 2.934417910468972 1.6336296017970331 0 2.8537350724450832 1.6198589258386999 0 2.807058329025975 1.4948053276052296 0 2.9120271593649236 1.4975346743120537 0 2.8537350724450832 1.6198589258386999 0 2.807058329025975 1.4948053276052296 0 2.8537350724450832 1.6198589258386999 0 2.7601378481595513 1.6200950214024916 0 2.7157963329291182 1.4945405689196973 0 2.807058329025975 1.4948053276052296 0 2.7601378481595513 1.6200950214024916 0 2.8537350724450832 1.6198589258386999 0 2.7601378481595513 1.6200950214024916 0 2.8037631128367813 1.7471241977108267 0 2.7601378481595513 1.6200950214024916 0 2.8037631128367813 1.7471241977108267 0 2.7120174079928692 1.7472339766097782 0 2.9078794821955651 1.7646525617697244 0 2.8537350724450832 1.6198589258386999 0 2.8037631128367813 1.7471241977108267 0 2.9078794821955651 1.7646525617697244 0 2.8037631128367813 1.7471241977108267 0 2.8457300601562174 1.8786595214901463 0 2.8037631128367813 1.7471241977108267 0 2.8457300601562174 1.8786595214901463 0 2.7531842643703133 1.8748191460607297 0 2.8037631128367813 1.7471241977108267 0 2.7531842643703133 1.8748191460607297 0 2.7120174079928692 1.7472339766097782 0 2.7531842643703133 1.8748191460607297 0 2.6622283931139963 1.8781349494592721 0 2.7120174079928692 1.7472339766097782 0 2.6622283931139963 1.8781349494592721 0 2.7120174079928692 1.7472339766097782 0 2.6243230173517373 1.7474375525709023 0 2.7120174079928692 1.7472339766097782 0 2.6711386660509229 1.6198331783778979 0 2.6243230173517373 1.7474375525709023 0 2.7601378481595513 1.6200950214024916 0 2.7120174079928692 1.7472339766097782 0 2.6711386660509229 1.6198331783778979 0 2.7157963329291182 1.4945405689196973 0 2.7601378481595513 1.6200950214024916 0 2.6711386660509229 1.6198331783778979 0 2.628696004554063 1.4932794214376603 0 2.7157963329291182 1.4945405689196973 0 2.6711386660509229 1.6198331783778979 0 2.6711386660509229 1.6198331783778979 0 2.5872165361658044 1.6203720139178157 0 2.6243230173517373 1.7474375525709023 0 2.628696004554063 1.4932794214376603 0 2.6711386660509229 1.6198331783778979 0 2.5872165361658044 1.6203720139178157 0 2.546141433525813 1.4944127310744753 0 2.628696004554063 1.4932794214376603 0 2.5872165361658044 1.6203720139178157 0 2.546141433525813 1.4944127310744753 0 2.5117736518212808 1.6190515133641545 0 2.5872165361658044 1.6203720139178157 0 2.5117736518212808 1.6190515133641545 0 2.5872165361658044 1.6203720139178157 0 2.5438170866230614 1.7498929136598667 0 2.5872165361658044 1.6203720139178157 0 2.5438170866230614 1.7498929136598667 0 2.6243230173517373 1.7474375525709023 0 2.6622283931139963 1.8781349494592721 0 2.6243230173517373 1.7474375525709023 0 2.576994905726024 1.8742274808515975 0 2.5438170866230614 1.7498929136598667 0 2.6243230173517373 1.7474375525709023 0 2.576994905726024 1.8742274808515975 0 2.5005687396452503 1.8799795107354536 0 2.5438170866230614 1.7498929136598667 0 2.576994905726024 1.8742274808515975 0 2.5005687396452503 1.8799795107354536 0 2.576994905726024 1.8742274808515975 0 2.5263902154955229 2.0046692106338497 0 2.576994905726024 1.8742274808515975 0 2.6095270314679584 2.0069435713846784 0 2.5263902154955229 2.0046692106338497 0 2.6622283931139963 1.8781349494592721 0 2.576994905726024 1.8742274808515975 0 2.6095270314679584 2.0069435713846784 0 2.6095270314679584 2.0069435713846784 0 2.5263902154955229 2.0046692106338497 0 2.551519455704121 2.1326521045116564 0 2.4731550192608669 2.1282784737646279 0 2.5263902154955229 2.0046692106338497 0 2.551519455704121 2.1326521045116564 0 2.4731550192608669 2.1282784737646279 0 2.4905451908365057 2.2526142187779197 0 2.551519455704121 2.1326521045116564 0 2.4905451908365057 2.2526142187779197 0 2.582396360131145 2.2597524185716402 0 2.551519455704121 2.1326521045116564 0 2.582396360131145 2.2597524185716402 0 2.551519455704121 2.1326521045116564 0 2.643183253169231 2.1338116356203307 0 2.6095270314679584 2.0069435713846784 0 2.551519455704121 2.1326521045116564 0 2.643183253169231 2.1338116356203307 0 2.582396360131145 2.2597524185716402 0 2.643183253169231 2.1338116356203307 0 2.6792314128846022 2.2603074904360967 0 2.643183253169231 2.1338116356203307 0 2.6792314128846022 2.2603074904360967 0 2.7390493796609823 2.1330159001550317 0 2.643183253169231 2.1338116356203307 0 2.6998671183005758 2.007722266455215 0 2.7390493796609823 2.1330159001550317 0 2.6095270314679584 2.0069435713846784 0 2.643183253169231 2.1338116356203307 0 2.6998671183005758 2.007722266455215 0 2.6622283931139963 1.8781349494592721 0 2.6095270314679584 2.0069435713846784 0 2.6998671183005758 2.007722266455215 0 2.7531842643703133 1.8748191460607297 0 2.6622283931139963 1.8781349494592721 0 2.6998671183005758 2.007722266455215 0 2.8457300601562174 1.8786595214901463 0 2.7531842643703133 1.8748191460607297 0 2.7960356673240638 2.0067933908861839 0 2.7531842643703133 1.8748191460607297 0 2.6998671183005758 2.007722266455215 0 2.7960356673240638 2.0067933908861839 0 2.8457300601562174 1.8786595214901463 0 2.7960356673240638 2.0067933908861839 0 2.8964630485997294 2.0041494308156254 0 2.7960356673240638 2.0067933908861839 0 2.8374026106590544 2.1280658272170756 0 2.8964630485997294 2.0041494308156254 0 2.6998671183005758 2.007722266455215 0 2.7960356673240638 2.0067933908861839 0 2.7390493796609823 2.1330159001550317 0 2.7960356673240638 2.0067933908861839 0 2.7390493796609823 2.1330159001550317 0 2.8374026106590544 2.1280658272170756 0 2.7390493796609823 2.1330159001550317 0 2.7816499291808254 2.2578197309865979 0 2.8374026106590544 2.1280658272170756 0 2.6792314128846022 2.2603074904360967 0 2.7390493796609823 2.1330159001550317 0 2.7816499291808254 2.2578197309865979 0 2.7816499291808254 2.2578197309865979 0 2.8374026106590544 2.1280658272170756 0 2.8986641665894486 2.2385999233032403 0 2.8374026106590544 2.1280658272170756 0 2.9221313255406827 2.1084979733772453 0 2.8986641665894486 2.2385999233032403 0 2.8374026106590544 2.1280658272170756 0 2.9221313255406827 2.1084979733772453 0 2.8964630485997294 2.0041494308156254 0 2.8986641665894486 2.2385999233032403 0 2.9998754187651113 2.1428635268301663 0 2.9998715394319282 2.2857225320243044 0 2.9221313255406827 2.1084979733772453 0 2.8986641665894486 2.2385999233032403 0 2.9998754187651113 2.1428635268301663 0 2.9221313255406827 2.1084979733772453 0 2.9998754187651113 2.1428635268301663 0 2.9998761912665803 2.0000051564026449 0 2.9221313255406827 2.1084979733772453 0 2.9998761912665803 2.0000051564026449 0 2.8964630485997294 2.0041494308156254 0 2.8457300601562174 1.8786595214901463 0 2.8964630485997294 2.0041494308156254 0 2.9255239326405054 1.8979062132409452 0 2.9998761912665803 2.0000051564026449 0 2.8964630485997294 2.0041494308156254 0 2.9255239326405054 1.8979062132409452 0 2.9998777177792162 1.8571463368059877 0 2.9998761912665803 2.0000051564026449 0 2.9255239326405054 1.8979062132409452 0 2.9998651560614467 2.5714404068328487 0 2.8941309541377387 2.5065272213690091 0 2.9182339726220143 2.647422037341884 0 2.8941309541377387 2.5065272213690091 0 2.8143537605702127 2.6369462181289358 0 2.9182339726220143 2.647422037341884 0 2.9998651560614467 2.5714404068328487 0 2.8941309541377387 2.5065272213690091 0 2.999871554638156 2.4285804726883247 0 2.999871554638156 2.4285804726883247 0 2.9998715394319282 2.2857225320243044 0 2.9238970471012888 2.366548614992861 0 2.8941309541377387 2.5065272213690091 0 2.999871554638156 2.4285804726883247 0 2.9238970471012888 2.366548614992861 0 2.8986641665894486 2.2385999233032403 0 2.9998715394319282 2.2857225320243044 0 2.9238970471012888 2.366548614992861 0 2.8986641665894486 2.2385999233032403 0 2.9238970471012888 2.366548614992861 0 2.8282549537356165 2.3801594093280745 0 2.8941309541377387 2.5065272213690091 0 2.9238970471012888 2.366548614992861 0 2.8282549537356165 2.3801594093280745 0 2.7816499291808254 2.2578197309865979 0 2.8986641665894486 2.2385999233032403 0 2.8282549537356165 2.3801594093280745 0 2.7816499291808254 2.2578197309865979 0 2.8282549537356165 2.3801594093280745 0 2.7189972410738337 2.3856937609784921 0 2.6792314128846022 2.2603074904360967 0 2.7816499291808254 2.2578197309865979 0 2.7189972410738337 2.3856937609784921 0 2.8282549537356165 2.3801594093280745 0 2.7189972410738337 2.3856937609784921 0 2.7668181398947844 2.510236547979066 0 2.7189972410738337 2.3856937609784921 0 2.7668181398947844 2.510236547979066 0 2.650193552079839 2.5126639129250474 0 2.8941309541377387 2.5065272213690091 0 2.8282549537356165 2.3801594093280745 0 2.7668181398947844 2.510236547979066 0 2.8941309541377387 2.5065272213690091 0 2.7668181398947844 2.510236547979066 0 2.8143537605702127 2.6369462181289358 0 2.7668181398947844 2.510236547979066 0 2.8143537605702127 2.6369462181289358 0 2.6937818841369374 2.6368797641031594 0 2.7668181398947844 2.510236547979066 0 2.6937818841369374 2.6368797641031594 0 2.650193552079839 2.5126639129250474 0 2.6937818841369374 2.6368797641031594 0 2.5745554414821874 2.6386191428614616 0 2.650193552079839 2.5126639129250474 0 2.5745554414821874 2.6386191428614616 0 2.650193552079839 2.5126639129250474 0 2.5409618362176931 2.5116685355911659 0 2.650193552079839 2.5126639129250474 0 2.612616469845868 2.3857699153325589 0 2.5409618362176931 2.5116685355911659 0 2.7189972410738337 2.3856937609784921 0 2.650193552079839 2.5126639129250474 0 2.612616469845868 2.3857699153325589 0 2.6792314128846022 2.2603074904360967 0 2.7189972410738337 2.3856937609784921 0 2.612616469845868 2.3857699153325589 0 2.582396360131145 2.2597524185716402 0 2.6792314128846022 2.2603074904360967 0 2.612616469845868 2.3857699153325589 0 2.612616469845868 2.3857699153325589 0 2.5104585034230076 2.3810882766345318 0 2.5409618362176931 2.5116685355911659 0 2.582396360131145 2.2597524185716402 0 2.612616469845868 2.3857699153325589 0 2.5104585034230076 2.3810882766345318 0 2.4905451908365057 2.2526142187779197 0 2.582396360131145 2.2597524185716402 0 2.5104585034230076 2.3810882766345318 0 2.4905451908365057 2.2526142187779197 0 2.5104585034230076 2.3810882766345318 0 2.4243086634374595 2.3770797959538577 0 2.5104585034230076 2.3810882766345318 0 2.4388614701906404 2.509394119053197 0 2.4243086634374595 2.3770797959538577 0 2.5104585034230076 2.3810882766345318 0 2.4388614701906404 2.509394119053197 0 2.5409618362176931 2.5116685355911659 0 2.5745554414821874 2.6386191428614616 0 2.5409618362176931 2.5116685355911659 0 2.461727278911177 2.6390547032686551 0 2.4388614701906404 2.509394119053197 0 2.5409618362176931 2.5116685355911659 0 2.461727278911177 2.6390547032686551 0 2.4388614701906404 2.509394119053197 0 2.461727278911177 2.6390547032686551 0 2.3636174267859471 2.6341496507133315 0 2.461727278911177 2.6390547032686551 0 2.3709002486953872 2.7673433753615049 0 2.3636174267859471 2.6341496507133315 0 2.5745554414821874 2.6386191428614616 0 2.461727278911177 2.6390547032686551 0 2.4894029633268269 2.763947996782659 0 2.461727278911177 2.6390547032686551 0 2.4894029633268269 2.763947996782659 0 2.3709002486953872 2.7673433753615049 0 2.4894029633268269 2.763947996782659 0 2.3709002486953872 2.7673433753615049 0 2.3948844593748033 2.8853959578711237 0 2.3709002486953872 2.7673433753615049 0 2.3948844593748033 2.8853959578711237 0 2.2688348840077439 2.8936072106115631 0 2.2857711576362942 2.9998697966759162 0 2.3948844593748033 2.8853959578711237 0 2.2688348840077439 2.8936072106115631 0 2.4286048747727427 2.999868185635536 0 2.3948844593748033 2.8853959578711237 0 2.5264894876601911 2.8861959726455391 0 2.2857711576362942 2.9998697966759162 0 2.4286048747727427 2.999868185635536 0 2.3948844593748033 2.8853959578711237 0 2.4894029633268269 2.763947996782659 0 2.3948844593748033 2.8853959578711237 0 2.5264894876601911 2.8861959726455391 0 2.4286048747727427 2.999868185635536 0 2.5264894876601911 2.8861959726455391 0 2.571455757851107 2.9998648288130338 0 2.5264894876601911 2.8861959726455391 0 2.571455757851107 2.9998648288130338 0 2.6608264240208799 2.8813937154267326 0 2.5264894876601911 2.8861959726455391 0 2.6141370941570554 2.7626249601504411 0 2.6608264240208799 2.8813937154267326 0 2.4894029633268269 2.763947996782659 0 2.5264894876601911 2.8861959726455391 0 2.6141370941570554 2.7626249601504411 0 2.5745554414821874 2.6386191428614616 0 2.4894029633268269 2.763947996782659 0 2.6141370941570554 2.7626249601504411 0 2.6937818841369374 2.6368797641031594 0 2.5745554414821874 2.6386191428614616 0 2.6141370941570554 2.7626249601504411 0 2.6937818841369374 2.6368797641031594 0 2.6141370941570554 2.7626249601504411 0 2.7412226057054006 2.7602980230465666 0 2.8143537605702127 2.6369462181289358 0 2.6937818841369374 2.6368797641031594 0 2.7412226057054006 2.7602980230465666 0 2.8143537605702127 2.6369462181289358 0 2.7412226057054006 2.7602980230465666 0 2.8805520470129982 2.7725489460055193 0 2.7412226057054006 2.7602980230465666 0 2.7916007652865775 2.8835696998057152 0 2.8805520470129982 2.7725489460055193 0 2.6141370941570554 2.7626249601504411 0 2.7412226057054006 2.7602980230465666 0 2.6608264240208799 2.8813937154267326 0 2.7412226057054006 2.7602980230465666 0 2.6608264240208799 2.8813937154267326 0 2.7916007652865775 2.8835696998057152 0 2.571455757851107 2.9998648288130338 0 2.6608264240208799 2.8813937154267326 0 2.7142971824131785 2.9998692611518258 0 2.6608264240208799 2.8813937154267326 0 2.7142971824131785 2.9998692611518258 0 2.7916007652865775 2.8835696998057152 0 2.7142971824131785 2.9998692611518258 0 2.7916007652865775 2.8835696998057152 0 2.8571721523033422 2.9998429665114386 0 2.7916007652865775 2.8835696998057152 0 2.900262364263575 2.8992244813542292 0 2.8805520470129982 2.7725489460055193 0 2.7916007652865775 2.8835696998057152 0 2.900262364263575 2.8992244813542292 0 2.8571721523033422 2.9998429665114386 0 2.900262364263575 2.8992244813542292 0 2.9999283129989838 2.9999286262266871 0 2.9998427952307472 2.857170575171347 0 2.900262364263575 2.8992244813542292 0 2.8571721523033422 2.9998429665114386 0 2.9999283129989838 2.9999286262266871 0 2.900262364263575 2.8992244813542292 0 2.9998427952307472 2.857170575171347 0 2.8805520470129982 2.7725489460055193 0 2.9998427952307472 2.857170575171347 0 2.8805520470129982 2.7725489460055193 0 2.9998710913303412 2.7142903893231436 0 2.8143537605702127 2.6369462181289358 0 2.8805520470129982 2.7725489460055193 0 2.9182339726220143 2.647422037341884 0 2.9998651560614467 2.5714404068328487 0 2.9182339726220143 2.647422037341884 0 2.9998710913303412 2.7142903893231436 0 2.8805520470129982 2.7725489460055193 0 2.9182339726220143 2.647422037341884 0 2.9998710913303412 2.7142903893231436 0 1.8672535763090878 2.5426053963661435 0 1.6922757244857127 2.4650632486364787 0 1.8940196037968329 2.4029859851797113 0 1.8672535763090878 2.5426053963661435 0 1.8940196037968329 2.4029859851797113 0 2.0797911256586898 2.4844584154297396 0 1.8672535763090878 2.5426053963661435 0 2.0797911256586898 2.4844584154297396 0 2.0372587800580733 2.6264162894672292 0 1.8672535763090878 2.5426053963661435 0 1.6922757244857127 2.4650632486364787 0 1.6767739228705858 2.605374701198035 0 1.5074742703958488 2.5319699019888788 0 1.6922757244857127 2.4650632486364787 0 1.6767739228705858 2.605374701198035 0 1.5074742703958488 2.5319699019888788 0 1.6922757244857127 2.4650632486364787 0 1.5078497360361964 2.3932986803239125 0 1.6922757244857127 2.4650632486364787 0 1.7061476894300376 2.3264006553778596 0 1.8940196037968329 2.4029859851797113 0 1.6922757244857127 2.4650632486364787 0 1.7061476894300376 2.3264006553778596 0 1.5078497360361964 2.3932986803239125 0 1.7061476894300376 2.3264006553778596 0 1.5078497360361964 2.3932986803239125 0 1.5082558173095695 2.2560963937836473 0 1.7216262733752439 2.1871069765041313 0 1.7061476894300376 2.3264006553778596 0 1.5082558173095695 2.2560963937836473 0 1.7216262733752439 2.1871069765041313 0 1.7061476894300376 2.3264006553778596 0 1.9160069984191634 2.2627792161347027 0 1.7061476894300376 2.3264006553778596 0 1.9160069984191634 2.2627792161347027 0 1.8940196037968329 2.4029859851797113 0 1.9160069984191634 2.2627792161347027 0 1.8940196037968329 2.4029859851797113 0 2.1128811373816325 2.3443162854172659 0 1.8940196037968329 2.4029859851797113 0 2.1128811373816325 2.3443162854172659 0 2.0797911256586898 2.4844584154297396 0 2.1429324224000155 2.2082907647951542 0 1.9160069984191634 2.2627792161347027 0 2.1128811373816325 2.3443162854172659 0 2.1429324224000155 2.2082907647951542 0 2.3439783041741937 2.2833019500440792 0 2.1128811373816325 2.3443162854172659 0 2.3439783041741937 2.2833019500440792 0 2.3116034703375141 2.4276572904516391 0 2.3674414423930346 2.3599879705528553 0 2.3116034703375141 2.4276572904516391 0 2.1128811373816325 2.3443162854172659 0 2.0797911256586898 2.4844584154297396 0 2.3439783041741937 2.2833019500440792 0 2.3116034703375141 2.4276572904516391 0 2.1128811373816325 2.3443162854172659 0 2.4111099866447665 2.2342240982118406 0 2.4905451908365057 2.2526142187779197 0 2.4243086634374595 2.3770797959538577 0 2.4111099866447665 2.2342240982118406 0 2.3439783041741937 2.2833019500440792 0 2.3674414423930346 2.3599879705528553 0 2.4111099866447665 2.2342240982118406 0 2.3674414423930346 2.3599879705528553 0 2.4243086634374595 2.3770797959538577 0 2.3116034703375141 2.4276572904516391 0 2.3674414423930346 2.3599879705528553 0 2.3493143091191695 2.505912136773869 0 2.3674414423930346 2.3599879705528553 0 2.4243086634374595 2.3770797959538577 0 2.3493143091191695 2.505912136773869 0 2.4388614701906404 2.509394119053197 0 2.4243086634374595 2.3770797959538577 0 2.3493143091191695 2.505912136773869 0 2.3493143091191695 2.505912136773869 0 2.2686363837389383 2.5717440705991881 0 2.2857049852931914 2.6514964253484474 0 2.3493143091191695 2.505912136773869 0 2.3636174267859471 2.6341496507133315 0 2.2857049852931914 2.6514964253484474 0 2.4388614701906404 2.509394119053197 0 2.3493143091191695 2.505912136773869 0 2.3636174267859471 2.6341496507133315 0 2.3116034703375141 2.4276572904516391 0 2.0797911256586898 2.4844584154297396 0 2.2686363837389383 2.5717440705991881 0 2.3116034703375141 2.4276572904516391 0 2.3493143091191695 2.505912136773869 0 2.2686363837389383 2.5717440705991881 0 2.0797911256586898 2.4844584154297396 0 2.2686363837389383 2.5717440705991881 0 2.0372587800580733 2.6264162894672292 0 2.2686363837389383 2.5717440705991881 0 2.0372587800580733 2.6264162894672292 0 2.2107187442714138 2.7173390390475816 0 2.0372587800580733 2.6264162894672292 0 2.2107187442714138 2.7173390390475816 0 1.9923859625664881 2.7656658895400867 0 2.2686363837389383 2.5717440705991881 0 2.2107187442714138 2.7173390390475816 0 2.2857049852931914 2.6514964253484474 0 2.2107187442714138 2.7173390390475816 0 2.2531422322414891 2.7793455559424398 0 2.1301475049321947 2.8618982672357038 0 2.2107187442714138 2.7173390390475816 0 1.9923859625664881 2.7656658895400867 0 2.1301475049321947 2.8618982672357038 0 2.3709002486953872 2.7673433753615049 0 2.3636174267859471 2.6341496507133315 0 2.2531422322414891 2.7793455559424398 0 2.2107187442714138 2.7173390390475816 0 2.2857049852931914 2.6514964253484474 0 2.2531422322414891 2.7793455559424398 0 2.3636174267859471 2.6341496507133315 0 2.2857049852931914 2.6514964253484474 0 2.2531422322414891 2.7793455559424398 0 2.3709002486953872 2.7673433753615049 0 2.2531422322414891 2.7793455559424398 0 2.2688348840077439 2.8936072106115631 0 2.2531422322414891 2.7793455559424398 0 2.1681521354962845 2.9081863235792462 0 2.1301475049321947 2.8618982672357038 0 2.2531422322414891 2.7793455559424398 0 2.2688348840077439 2.8936072106115631 0 2.1681521354962845 2.9081863235792462 0 2.1681521354962845 2.9081863235792462 0 2.142907386583849 2.9998729886840318 0 2.0002055038197968 2.9998666684244291 0 2.2688348840077439 2.8936072106115631 0 2.1681521354962845 2.9081863235792462 0 2.142907386583849 2.9998729886840318 0 2.2857711576362942 2.9998697966759162 0 2.2688348840077439 2.8936072106115631 0 2.142907386583849 2.9998729886840318 0 1.9923859625664881 2.7656658895400867 0 1.9537098574596032 2.8830938565997752 0 2.1301475049321947 2.8618982672357038 0 2.1681521354962845 2.9081863235792462 0 2.1301475049321947 2.8618982672357038 0 2.0002055038197968 2.9998666684244291 0 1.9537098574596032 2.8830938565997752 0 2.1301475049321947 2.8618982672357038 0 2.0002055038197968 2.9998666684244291 0 1.9537098574596032 2.8830938565997752 0 2.0002055038197968 2.9998666684244291 0 1.8571827308013498 2.9998347485819905 0 1.9537098574596032 2.8830938565997752 0 1.8571827308013498 2.9998347485819905 0 1.8141438745342573 2.8481559586848486 0 1.8571827308013498 2.9998347485819905 0 1.71432412578489 2.999840042988752 0 1.8141438745342573 2.8481559586848486 0 1.71432412578489 2.999840042988752 0 1.8141438745342573 2.8481559586848486 0 1.6532206176122977 2.8860746107516841 0 1.9923859625664881 2.7656658895400867 0 1.9537098574596032 2.8830938565997752 0 1.8141438745342573 2.8481559586848486 0 1.9923859625664881 2.7656658895400867 0 1.8141438745342573 2.8481559586848486 0 1.838875522148981 2.6861314495487147 0 1.8141438745342573 2.8481559586848486 0 1.838875522148981 2.6861314495487147 0 1.6656354880032767 2.7527604348690082 0 1.8672535763090878 2.5426053963661435 0 1.838875522148981 2.6861314495487147 0 1.6767739228705858 2.605374701198035 0 1.8672535763090878 2.5426053963661435 0 2.0372587800580733 2.6264162894672292 0 1.838875522148981 2.6861314495487147 0 2.0372587800580733 2.6264162894672292 0 1.9923859625664881 2.7656658895400867 0 1.838875522148981 2.6861314495487147 0 1.5074742703958488 2.5319699019888788 0 1.5079061108034553 2.6779963647207534 0 1.6767739228705858 2.605374701198035 0 1.5079061108034553 2.6779963647207534 0 1.6767739228705858 2.605374701198035 0 1.6656354880032767 2.7527604348690082 0 1.838875522148981 2.6861314495487147 0 1.6767739228705858 2.605374701198035 0 1.6656354880032767 2.7527604348690082 0 1.5079061108034553 2.6779963647207534 0 1.6656354880032767 2.7527604348690082 0 1.5028978435063725 2.8436818253698135 0 1.6656354880032767 2.7527604348690082 0 1.5028978435063725 2.8436818253698135 0 1.6532206176122977 2.8860746107516841 0 1.8141438745342573 2.8481559586848486 0 1.6656354880032767 2.7527604348690082 0 1.6532206176122977 2.8860746107516841 0 1.71432412578489 2.999840042988752 0 1.6532206176122977 2.8860746107516841 0 1.5714376430666441 2.9998383473282106 0 1.5028978435063725 2.8436818253698135 0 1.5714376430666441 2.9998383473282106 0 1.4285621550677132 2.9998379853600681 0 1.5028978435063725 2.8436818253698135 0 1.6532206176122977 2.8860746107516841 0 1.5714376430666441 2.9998383473282106 0 1.5028978435063725 2.8436818253698135 0 1.4285621550677132 2.9998379853600681 0 1.344089567269481 2.8832743042908988 0 1.4285621550677132 2.9998379853600681 0 1.344089567269481 2.8832743042908988 0 1.285676738325197 2.9998405009689275 0 1.344089567269481 2.8832743042908988 0 1.1945461784251565 2.8458055695469517 0 1.3574203279432788 2.7522170626458 0 1.5028978435063725 2.8436818253698135 0 1.344089567269481 2.8832743042908988 0 1.3574203279432788 2.7522170626458 0 1.1428164240386478 2.9998343665587743 0 1.1945461784251565 2.8458055695469517 0 1.0464093185926193 2.8831703321845836 0 1.1428164240386478 2.9998343665587743 0 1.285676738325197 2.9998405009689275 0 1.1945461784251565 2.8458055695469517 0 1.344089567269481 2.8832743042908988 0 1.285676738325197 2.9998405009689275 0 1.1945461784251565 2.8458055695469517 0 1.1945461784251565 2.8458055695469517 0 1.0144605459490839 2.7650047873786301 0 1.0464093185926193 2.8831703321845836 0 1.1945461784251565 2.8458055695469517 0 1.1719889749143872 2.6848440536044018 0 1.0144605459490839 2.7650047873786301 0 1.1945461784251565 2.8458055695469517 0 1.1719889749143872 2.6848440536044018 0 1.3574203279432788 2.7522170626458 0 1.1719889749143872 2.6848440536044018 0 1.3358957351142011 2.6060563884556722 0 1.1390951561932801 2.5436326484333125 0 1.1719889749143872 2.6848440536044018 0 0.96455115371770195 2.6258906885819795 0 1.0144605459490839 2.7650047873786301 0 1.1719889749143872 2.6848440536044018 0 1.1390951561932801 2.5436326484333125 0 0.96455115371770195 2.6258906885819795 0 1.5079061108034553 2.6779963647207534 0 1.5028978435063725 2.8436818253698135 0 1.3574203279432788 2.7522170626458 0 1.1719889749143872 2.6848440536044018 0 1.3574203279432788 2.7522170626458 0 1.3358957351142011 2.6060563884556722 0 1.5074742703958488 2.5319699019888788 0 1.5079061108034553 2.6779963647207534 0 1.3358957351142011 2.6060563884556722 0 1.5079061108034553 2.6779963647207534 0 1.3574203279432788 2.7522170626458 0 1.3358957351142011 2.6060563884556722 0 1.5074742703958488 2.5319699019888788 0 1.3358957351142011 2.6060563884556722 0 1.3209332102053848 2.4649993124039584 0 1.5074742703958488 2.5319699019888788 0 1.5078497360361964 2.3932986803239125 0 1.3209332102053848 2.4649993124039584 0 1.3358957351142011 2.6060563884556722 0 1.3209332102053848 2.4649993124039584 0 1.1390951561932801 2.5436326484333125 0 1.1390951561932801 2.5436326484333125 0 0.92184614719793789 2.4844169712194248 0 0.96455115371770195 2.6258906885819795 0 1.1390951561932801 2.5436326484333125 0 1.1206286558111405 2.4022855636156955 0 0.92184614719793789 2.4844169712194248 0 1.3209332102053848 2.4649993124039584 0 1.1390951561932801 2.5436326484333125 0 1.1206286558111405 2.4022855636156955 0 1.1206286558111405 2.4022855636156955 0 1.1003216955775577 2.2642792841051262 0 1.3114257809484944 2.3266041187371473 0 1.1206286558111405 2.4022855636156955 0 0.89979515465807713 2.3430393833664067 0 1.1003216955775577 2.2642792841051262 0 1.1206286558111405 2.4022855636156955 0 0.89979515465807713 2.3430393833664067 0 0.92184614719793789 2.4844169712194248 0 0.89979515465807713 2.3430393833664067 0 1.1003216955775577 2.2642792841051262 0 0.86834221995038663 2.207349017490619 0 1.1003216955775577 2.2642792841051262 0 1.3114257809484944 2.3266041187371473 0 1.3032559514005704 2.1889902137840083 0 1.5082558173095695 2.2560963937836473 0 1.3114257809484944 2.3266041187371473 0 1.3032559514005704 2.1889902137840083 0 1.5078497360361964 2.3932986803239125 0 1.5082558173095695 2.2560963937836473 0 1.3114257809484944 2.3266041187371473 0 1.5078497360361964 2.3932986803239125 0 1.3209332102053848 2.4649993124039584 0 1.3114257809484944 2.3266041187371473 0 1.3209332102053848 2.4649993124039584 0 1.1206286558111405 2.4022855636156955 0 1.3114257809484944 2.3266041187371473 0 0.62974638208430356 2.3623579887527568 0 0.56876627506275435 2.3783954066233934 0 0.64980128072849652 2.5053683273618432 0 0.62974638208430356 2.3623579887527568 0 0.68838065100822332 2.4276245339763149 0 0.64980128072849652 2.5053683273618432 0 0.56876627506275435 2.3783954066233934 0 0.50540018952844812 2.2558324533482286 0 0.58683277158651659 2.23547470527317 0 0.62974638208430356 2.3623579887527568 0 0.56876627506275435 2.3783954066233934 0 0.58683277158651659 2.23547470527317 0 0.62974638208430356 2.3623579887527568 0 0.65608205235449002 2.2832984953455839 0 0.58683277158651659 2.23547470527317 0 0.89979515465807713 2.3430393833664067 0 0.65608205235449002 2.2832984953455839 0 0.86834221995038663 2.207349017490619 0 0.89979515465807713 2.3430393833664067 0 0.65608205235449002 2.2832984953455839 0 0.68838065100822332 2.4276245339763149 0 0.89979515465807713 2.3430393833664067 0 0.68838065100822332 2.4276245339763149 0 0.92184614719793789 2.4844169712194248 0 0.62974638208430356 2.3623579887527568 0 0.65608205235449002 2.2832984953455839 0 0.68838065100822332 2.4276245339763149 0 0.68838065100822332 2.4276245339763149 0 0.73133353005890611 2.5717518909412034 0 0.64980128072849652 2.5053683273618432 0 0.68838065100822332 2.4276245339763149 0 0.92184614719793789 2.4844169712194248 0 0.73133353005890611 2.5717518909412034 0 0.92184614719793789 2.4844169712194248 0 0.73133353005890611 2.5717518909412034 0 0.96455115371770195 2.6258906885819795 0 0.64980128072849652 2.5053683273618432 0 0.63633130332159415 2.6342452394570288 0 0.71139620231195344 2.6413270342900264 0 0.73133353005890611 2.5717518909412034 0 0.64980128072849652 2.5053683273618432 0 0.71139620231195344 2.6413270342900264 0 0.56876627506275435 2.3783954066233934 0 0.64980128072849652 2.5053683273618432 0 0.55619619908008777 2.5101064199509064 0 0.64980128072849652 2.5053683273618432 0 0.63633130332159415 2.6342452394570288 0 0.55619619908008777 2.5101064199509064 0 0.63633130332159415 2.6342452394570288 0 0.74518747081448367 2.7770557754782548 0 0.62597952457291095 2.7636378775631081 0 0.63633130332159415 2.6342452394570288 0 0.71139620231195344 2.6413270342900264 0 0.74518747081448367 2.7770557754782548 0 0.71139620231195344 2.6413270342900264 0 0.74518747081448367 2.7770557754782548 0 0.78945124222193586 2.7173827113901474 0 0.74518747081448367 2.7770557754782548 0 0.72739240801502103 2.8902965846595534 0 0.62597952457291095 2.7636378775631081 0 0.73133353005890611 2.5717518909412034 0 0.96455115371770195 2.6258906885819795 0 0.78945124222193586 2.7173827113901474 0 0.96455115371770195 2.6258906885819795 0 0.78945124222193586 2.7173827113901474 0 1.0144605459490839 2.7650047873786301 0 0.73133353005890611 2.5717518909412034 0 0.71139620231195344 2.6413270342900264 0 0.78945124222193586 2.7173827113901474 0 0.74518747081448367 2.7770557754782548 0 0.78945124222193586 2.7173827113901474 0 0.8698840177982311 2.8619155048571021 0 0.78945124222193586 2.7173827113901474 0 1.0144605459490839 2.7650047873786301 0 0.8698840177982311 2.8619155048571021 0 1.0144605459490839 2.7650047873786301 0 1.0464093185926193 2.8831703321845836 0 0.8698840177982311 2.8619155048571021 0 0.8698840177982311 2.8619155048571021 0 0.99979481328111275 2.9998666513521948 0 0.83191244044332791 2.9081331617728399 0 1.0464093185926193 2.8831703321845836 0 0.8698840177982311 2.8619155048571021 0 0.99979481328111275 2.9998666513521948 0 1.1428164240386478 2.9998343665587743 0 1.0464093185926193 2.8831703321845836 0 0.99979481328111275 2.9998666513521948 0 0.74518747081448367 2.7770557754782548 0 0.72739240801502103 2.8902965846595534 0 0.83191244044332791 2.9081331617728399 0 0.74518747081448367 2.7770557754782548 0 0.8698840177982311 2.8619155048571021 0 0.83191244044332791 2.9081331617728399 0 0.99979481328111275 2.9998666513521948 0 0.83191244044332791 2.9081331617728399 0 0.85709223795736633 2.9998732041441878 0 0.72739240801502103 2.8902965846595534 0 0.83191244044332791 2.9081331617728399 0 0.85709223795736633 2.9998732041441878 0 0.72739240801502103 2.8902965846595534 0 0.85709223795736633 2.9998732041441878 0 0.71422912515681825 2.9998696105501477 0 0.72739240801502103 2.8902965846595534 0 0.71422912515681825 2.9998696105501477 0 0.60384815191393537 2.8849808047807857 0 0.72739240801502103 2.8902965846595534 0 0.60384815191393537 2.8849808047807857 0 0.62597952457291095 2.7636378775631081 0 0.60384815191393537 2.8849808047807857 0 0.47308413558799556 2.8871896207645378 0 0.50954116300825281 2.7646134254736543 0 0.60384815191393537 2.8849808047807857 0 0.57139505578998184 2.9998682168357709 0 0.47308413558799556 2.8871896207645378 0 0.71422912515681825 2.9998696105501477 0 0.60384815191393537 2.8849808047807857 0 0.57139505578998184 2.9998682168357709 0 0.57139505578998184 2.9998682168357709 0 0.4285442833500569 2.9998648232501859 0 0.47308413558799556 2.8871896207645378 0 0.4285442833500569 2.9998648232501859 0 0.47308413558799556 2.8871896207645378 0 0.33658810717268656 2.8864188250279419 0 0.47308413558799556 2.8871896207645378 0 0.38687509616467536 2.7699254897934149 0 0.33658810717268656 2.8864188250279419 0 0.47308413558799556 2.8871896207645378 0 0.38687509616467536 2.7699254897934149 0 0.50954116300825281 2.7646134254736543 0 0.38687509616467536 2.7699254897934149 0 0.30670701333912265 2.6378308617759112 0 0.42495864068343897 2.6401094128288713 0 0.38687509616467536 2.7699254897934149 0 0.50954116300825281 2.7646134254736543 0 0.42495864068343897 2.6401094128288713 0 0.50954116300825281 2.7646134254736543 0 0.5366818954343987 2.638580061532013 0 0.42495864068343897 2.6401094128288713 0 0.62597952457291095 2.7636378775631081 0 0.50954116300825281 2.7646134254736543 0 0.5366818954343987 2.638580061532013 0 0.63633130332159415 2.6342452394570288 0 0.62597952457291095 2.7636378775631081 0 0.5366818954343987 2.638580061532013 0 0.60384815191393537 2.8849808047807857 0 0.62597952457291095 2.7636378775631081 0 0.50954116300825281 2.7646134254736543 0 0.00015714277206667915 2.857170521730592 0 0.099258569030907615 2.8997441877679009 0 0.11747181964284323 2.7785216526825627 0 0.00015714277206667915 2.857170521730592 0 7.1717994199950913e-05 2.9999286027839016 0 0.099258569030907615 2.8997441877679009 0 7.1717994199950913e-05 2.9999286027839016 0 0.14282781416058901 2.9998430584841991 0 0.099258569030907615 2.8997441877679009 0 0.14282781416058901 2.9998430584841991 0 0.099258569030907615 2.8997441877679009 0 0.20580946119552287 2.8903958099626945 0 0.099258569030907615 2.8997441877679009 0 0.20580946119552287 2.8903958099626945 0 0.11747181964284323 2.7785216526825627 0 0.14282781416058901 2.9998430584841991 0 0.20580946119552287 2.8903958099626945 0 0.28570280558717293 2.9998692080328637 0 0.20580946119552287 2.8903958099626945 0 0.28570280558717293 2.9998692080328637 0 0.33658810717268656 2.8864188250279419 0 0.4285442833500569 2.9998648232501859 0 0.28570280558717293 2.9998692080328637 0 0.33658810717268656 2.8864188250279419 0 0.20580946119552287 2.8903958099626945 0 0.33658810717268656 2.8864188250279419 0 0.25540663468574043 2.7683727051047486 0 0.38687509616467536 2.7699254897934149 0 0.33658810717268656 2.8864188250279419 0 0.25540663468574043 2.7683727051047486 0 0.38687509616467536 2.7699254897934149 0 0.25540663468574043 2.7683727051047486 0 0.30670701333912265 2.6378308617759112 0 0.25540663468574043 2.7683727051047486 0 0.18396322810965898 2.6406678266056298 0 0.30670701333912265 2.6378308617759112 0 0.25540663468574043 2.7683727051047486 0 0.18396322810965898 2.6406678266056298 0 0.11747181964284323 2.7785216526825627 0 0.20580946119552287 2.8903958099626945 0 0.25540663468574043 2.7683727051047486 0 0.11747181964284323 2.7785216526825627 0 0.18396322810965898 2.6406678266056298 0 0.11747181964284323 2.7785216526825627 0 0.081518597330003412 2.642670196080124 0 0.11747181964284323 2.7785216526825627 0 0.0001290181062219452 2.7142904933759557 0 0.081518597330003412 2.642670196080124 0 0.0001290181062219452 2.7142904933759557 0 0.081518597330003412 2.642670196080124 0 0.00013480690496989189 2.5714403105663921 0 0.00015714277206667915 2.857170521730592 0 0.11747181964284323 2.7785216526825627 0 0.0001290181062219452 2.7142904933759557 0 0.00013480690496989189 2.5714403105663921 0 0.10550022228375747 2.5061524616982958 0 0.00012838475767728698 2.4285805343323492 0 0.081518597330003412 2.642670196080124 0 0.00013480690496989189 2.5714403105663921 0 0.10550022228375747 2.5061524616982958 0 0.18396322810965898 2.6406678266056298 0 0.081518597330003412 2.642670196080124 0 0.10550022228375747 2.5061524616982958 0 0.10550022228375747 2.5061524616982958 0 0.22958372591106904 2.5090815002864764 0 0.1656402001322517 2.3733289494153507 0 0.18396322810965898 2.6406678266056298 0 0.10550022228375747 2.5061524616982958 0 0.22958372591106904 2.5090815002864764 0 0.18396322810965898 2.6406678266056298 0 0.22958372591106904 2.5090815002864764 0 0.30670701333912265 2.6378308617759112 0 0.22958372591106904 2.5090815002864764 0 0.30670701333912265 2.6378308617759112 0 0.34723721266247182 2.5111971733710852 0 0.22958372591106904 2.5090815002864764 0 0.27787936421410087 2.3805328769493435 0 0.34723721266247182 2.5111971733710852 0 0.27787936421410087 2.3805328769493435 0 0.31963727257847274 2.255845716443075 0 0.21516473675727835 2.2506619109801145 0 0.27787936421410087 2.3805328769493435 0 0.1656402001322517 2.3733289494153507 0 0.21516473675727835 2.2506619109801145 0 0.1656402001322517 2.3733289494153507 0 0.098483223409749618 2.2365171526085361 0 0.21516473675727835 2.2506619109801145 0 0.22958372591106904 2.5090815002864764 0 0.27787936421410087 2.3805328769493435 0 0.1656402001322517 2.3733289494153507 0 0.10550022228375747 2.5061524616982958 0 0.1656402001322517 2.3733289494153507 0 0.070618646287401762 2.362086677692993 0 0.1656402001322517 2.3733289494153507 0 0.070618646287401762 2.362086677692993 0 0.098483223409749618 2.2365171526085361 0 0.00012847689081893824 2.285722510775182 0 0.070618646287401762 2.362086677692993 0 0.098483223409749618 2.2365171526085361 0 0.00012847689081893824 2.285722510775182 0 0.070618646287401762 2.362086677692993 0 0.00012838475767728698 2.4285805343323492 0 0.10550022228375747 2.5061524616982958 0 0.070618646287401762 2.362086677692993 0 0.00012838475767728698 2.4285805343323492 0 0.45707093824162198 2.5128339267429536 0 0.55619619908008777 2.5101064199509064 0 0.48337080192567888 2.3848814633924369 0 0.63633130332159415 2.6342452394570288 0 0.55619619908008777 2.5101064199509064 0 0.5366818954343987 2.638580061532013 0 0.45707093824162198 2.5128339267429536 0 0.5366818954343987 2.638580061532013 0 0.42495864068343897 2.6401094128288713 0 0.45707093824162198 2.5128339267429536 0 0.55619619908008777 2.5101064199509064 0 0.5366818954343987 2.638580061532013 0 0.45707093824162198 2.5128339267429536 0 0.42495864068343897 2.6401094128288713 0 0.34723721266247182 2.5111971733710852 0 0.30670701333912265 2.6378308617759112 0 0.42495864068343897 2.6401094128288713 0 0.34723721266247182 2.5111971733710852 0 0.45707093824162198 2.5128339267429536 0 0.34723721266247182 2.5111971733710852 0 0.38403127094627926 2.3850127396574989 0 0.27787936421410087 2.3805328769493435 0 0.34723721266247182 2.5111971733710852 0 0.38403127094627926 2.3850127396574989 0 0.27787936421410087 2.3805328769493435 0 0.38403127094627926 2.3850127396574989 0 0.31963727257847274 2.255845716443075 0 0.38403127094627926 2.3850127396574989 0 0.41766036121969058 2.2595263650590884 0 0.31963727257847274 2.255845716443075 0 0.48337080192567888 2.3848814633924369 0 0.50540018952844812 2.2558324533482286 0 0.41766036121969058 2.2595263650590884 0 0.38403127094627926 2.3850127396574989 0 0.48337080192567888 2.3848814633924369 0 0.41766036121969058 2.2595263650590884 0 0.45707093824162198 2.5128339267429536 0 0.38403127094627926 2.3850127396574989 0 0.48337080192567888 2.3848814633924369 0 0.56876627506275435 2.3783954066233934 0 0.55619619908008777 2.5101064199509064 0 0.48337080192567888 2.3848814633924369 0 0.56876627506275435 2.3783954066233934 0 0.48337080192567888 2.3848814633924369 0 0.50540018952844812 2.2558324533482286 0 0.50540018952844812 2.2558324533482286 0 0.44577202903755075 2.1313618644113279 0 0.52346335399756327 2.1252145047475346 0 0.44577202903755075 2.1313618644113279 0 0.47363950583603603 2.0046596175337612 0 0.52346335399756327 2.1252145047475346 0 0.44577202903755075 2.1313618644113279 0 0.35744223934928471 2.1331971389201718 0 0.39053561354882738 2.0069422695186581 0 0.50540018952844812 2.2558324533482286 0 0.44577202903755075 2.1313618644113279 0 0.41766036121969058 2.2595263650590884 0 0.44577202903755075 2.1313618644113279 0 0.41766036121969058 2.2595263650590884 0 0.35744223934928471 2.1331971389201718 0 0.41766036121969058 2.2595263650590884 0 0.31963727257847274 2.255845716443075 0 0.35744223934928471 2.1331971389201718 0 0.31963727257847274 2.255845716443075 0 0.35744223934928471 2.1331971389201718 0 0.26018454632678228 2.1301825021049958 0 0.35744223934928471 2.1331971389201718 0 0.30012454361881175 2.0077278616248675 0 0.26018454632678228 2.1301825021049958 0 0.35744223934928471 2.1331971389201718 0 0.30012454361881175 2.0077278616248675 0 0.39053561354882738 2.0069422695186581 0 0.30012454361881175 2.0077278616248675 0 0.24470313874847391 1.8810828451844164 0 0.3374246689973141 1.8793640873497113 0 0.30012454361881175 2.0077278616248675 0 0.39053561354882738 2.0069422695186581 0 0.3374246689973141 1.8793640873497113 0 0.47363950583603603 2.0046596175337612 0 0.39053561354882738 2.0069422695186581 0 0.42226721233045578 1.8737367737302497 0 0.39053561354882738 2.0069422695186581 0 0.42226721233045578 1.8737367737302497 0 0.3374246689973141 1.8793640873497113 0 0.47363950583603603 2.0046596175337612 0 0.42226721233045578 1.8737367737302497 0 0.49777259925032213 1.8764466951364118 0 0.44577202903755075 2.1313618644113279 0 0.47363950583603603 2.0046596175337612 0 0.39053561354882738 2.0069422695186581 0 0.00012463008687996788 2.1428635334348556 0 0.077846528441191415 2.1084950106666756 0 0.00012379490405218439 2.0000051517528976 0 0.00012463008687996788 2.1428635334348556 0 0.098483223409749618 2.2365171526085361 0 0.077846528441191415 2.1084950106666756 0 0.00012847689081893824 2.285722510775182 0 0.00012463008687996788 2.1428635334348556 0 0.098483223409749618 2.2365171526085361 0 0.077846528441191415 2.1084950106666756 0 0.16051446998189961 2.1239740065679089 0 0.10354381350827571 2.0041528160388951 0 0.098483223409749618 2.2365171526085361 0 0.077846528441191415 2.1084950106666756 0 0.16051446998189961 2.1239740065679089 0 0.098483223409749618 2.2365171526085361 0 0.16051446998189961 2.1239740065679089 0 0.21516473675727835 2.2506619109801145 0 0.31963727257847274 2.255845716443075 0 0.21516473675727835 2.2506619109801145 0 0.26018454632678228 2.1301825021049958 0 0.16051446998189961 2.1239740065679089 0 0.21516473675727835 2.2506619109801145 0 0.26018454632678228 2.1301825021049958 0 0.16051446998189961 2.1239740065679089 0 0.26018454632678228 2.1301825021049958 0 0.20396021239366852 2.0068060272603576 0 0.30012454361881175 2.0077278616248675 0 0.26018454632678228 2.1301825021049958 0 0.20396021239366852 2.0068060272603576 0 0.20396021239366852 2.0068060272603576 0 0.24470313874847391 1.8810828451844164 0 0.1519844311025581 1.8872089174540665 0 0.30012454361881175 2.0077278616248675 0 0.20396021239366852 2.0068060272603576 0 0.24470313874847391 1.8810828451844164 0 0.20396021239366852 2.0068060272603576 0 0.1519844311025581 1.8872089174540665 0 0.10354381350827571 2.0041528160388951 0 0.16051446998189961 2.1239740065679089 0 0.20396021239366852 2.0068060272603576 0 0.10354381350827571 2.0041528160388951 0 0.1519844311025581 1.8872089174540665 0 0.10354381350827571 2.0041528160388951 0 0.074108420811513837 1.8984748443764812 0 0.10354381350827571 2.0041528160388951 0 0.074108420811513837 1.8984748443764812 0 0.00012379490405218439 2.0000051517528976 0 0.074108420811513837 1.8984748443764812 0 0.00012379490405218439 2.0000051517528976 0 0.0001222282735908969 1.8571462947542634 0 0.077846528441191415 2.1084950106666756 0 0.10354381350827571 2.0041528160388951 0 0.00012379490405218439 2.0000051517528976 0 0.00012100260620900218 1.7142876618992995 0 0.0001222282735908969 1.8571462947542634 0 0.089966977670625004 1.7731704450186148 0 0.00012100260620900218 1.7142876618992995 0 0.089966977670625004 1.7731704450186148 0 0.064628301627738569 1.6373828133529946 0 0.074108420811513837 1.8984748443764812 0 0.0001222282735908969 1.8571462947542634 0 0.089966977670625004 1.7731704450186148 0 0.1519844311025581 1.8872089174540665 0 0.074108420811513837 1.8984748443764812 0 0.089966977670625004 1.7731704450186148 0 0.089966977670625004 1.7731704450186148 0 0.19302406849634546 1.7578494051113855 0 0.14486693824001731 1.6295662099234653 0 0.1519844311025581 1.8872089174540665 0 0.089966977670625004 1.7731704450186148 0 0.19302406849634546 1.7578494051113855 0 0.24470313874847391 1.8810828451844164 0 0.1519844311025581 1.8872089174540665 0 0.19302406849634546 1.7578494051113855 0 0.24470313874847391 1.8810828451844164 0 0.19302406849634546 1.7578494051113855 0 0.28799246848861598 1.7557279771481076 0 0.19302406849634546 1.7578494051113855 0 0.23942145103357479 1.6217967708370669 0 0.28799246848861598 1.7557279771481076 0 0.19302406849634546 1.7578494051113855 0 0.23942145103357479 1.6217967708370669 0 0.14486693824001731 1.6295662099234653 0 0.2823080518734738 1.4931172784721327 0 0.18790751824629121 1.4945227883547603 0 0.23942145103357479 1.6217967708370669 0 0.18790751824629121 1.4945227883547603 0 0.23942145103357479 1.6217967708370669 0 0.14486693824001731 1.6295662099234653 0 0.18790751824629121 1.4945227883547603 0 0.08693132666578908 1.4981690810110191 0 0.14486693824001731 1.6295662099234653 0 0.089966977670625004 1.7731704450186148 0 0.14486693824001731 1.6295662099234653 0 0.064628301627738569 1.6373828133529946 0 0.08693132666578908 1.4981690810110191 0 0.14486693824001731 1.6295662099234653 0 0.064628301627738569 1.6373828133529946 0 0.08693132666578908 1.4981690810110191 0 0.00012080881274415141 1.5714293720459698 0 0.064628301627738569 1.6373828133529946 0 0.00012100260620900218 1.7142876618992995 0 0.00012080881274415141 1.5714293720459698 0 0.064628301627738569 1.6373828133529946 0 0.37453861070562522 1.747620821804007 0 0.4546687878379525 1.7459985904387201 0 0.41165468081925333 1.6198893681897473 0 0.4546687878379525 1.7459985904387201 0 0.42226721233045578 1.8737367737302497 0 0.49777259925032213 1.8764466951364118 0 0.37453861070562522 1.747620821804007 0 0.4546687878379525 1.7459985904387201 0 0.42226721233045578 1.8737367737302497 0 0.37453861070562522 1.747620821804007 0 0.42226721233045578 1.8737367737302497 0 0.3374246689973141 1.8793640873497113 0 0.37453861070562522 1.747620821804007 0 0.3374246689973141 1.8793640873497113 0 0.28799246848861598 1.7557279771481076 0 0.24470313874847391 1.8810828451844164 0 0.3374246689973141 1.8793640873497113 0 0.28799246848861598 1.7557279771481076 0 0.37453861070562522 1.747620821804007 0 0.28799246848861598 1.7557279771481076 0 0.32829194774187692 1.6214495579316104 0 0.23942145103357479 1.6217967708370669 0 0.28799246848861598 1.7557279771481076 0 0.32829194774187692 1.6214495579316104 0 0.2823080518734738 1.4931172784721327 0 0.23942145103357479 1.6217967708370669 0 0.32829194774187692 1.6214495579316104 0 0.36955643460778803 1.4944000399883361 0 0.2823080518734738 1.4931172784721327 0 0.32829194774187692 1.6214495579316104 0 0.36955643460778803 1.4944000399883361 0 0.32829194774187692 1.6214495579316104 0 0.41165468081925333 1.6198893681897473 0 0.36955643460778803 1.4944000399883361 0 0.449655113873552 1.4948243409648208 0 0.41165468081925333 1.6198893681897473 0 0.37453861070562522 1.747620821804007 0 0.32829194774187692 1.6214495579316104 0 0.41165468081925333 1.6198893681897473 0 0.4546687878379525 1.7459985904387201 0 0.41165468081925333 1.6198893681897473 0 0.48820171230373283 1.6190765329692738 0 0.449655113873552 1.4948243409648208 0 0.41165468081925333 1.6198893681897473 0 0.48820171230373283 1.6190765329692738 0 0.449655113873552 1.4948243409648208 0 0.5301455636797886 1.4975567790267774 0 0.48820171230373283 1.6190765329692738 0 0.5301455636797886 1.4975567790267774 0 0.5475811977578261 1.6325996272828827 0 0.48820171230373283 1.6190765329692738 0 0.5301455636797886 1.4975567790267774 0 0.5475811977578261 1.6325996272828827 0 0.58964111346218484 1.5708593864624292 0 0.5475811977578261 1.6325996272828827 0 0.48820171230373283 1.6190765329692738 0 0.53506295476022736 1.7627665728825577 0 0.4546687878379525 1.7459985904387201 0 0.48820171230373283 1.6190765329692738 0 0.53506295476022736 1.7627665728825577 0 0.5475811977578261 1.6325996272828827 0 0.53506295476022736 1.7627665728825577 0 0.59347037557990512 1.7129839294324147 0 0.53506295476022736 1.7627665728825577 0 0.60141354887165732 1.8550625441339397 0 0.55690929649116483 1.8953404592688097 0 0.53506295476022736 1.7627665728825577 0 0.49777259925032213 1.8764466951364118 0 0.55690929649116483 1.8953404592688097 0 0.4546687878379525 1.7459985904387201 0 0.53506295476022736 1.7627665728825577 0 0.49777259925032213 1.8764466951364118 0 0.60141354887165732 1.8550625441339397 0 0.82835811468760467 1.7751273487658401 0 0.79655331842523547 1.8892299667637971 0 0.60141354887165732 1.8550625441339397 0 0.59347037557990512 1.7129839294324147 0 0.82835811468760467 1.7751273487658401 0 0.53506295476022736 1.7627665728825577 0 0.60141354887165732 1.8550625441339397 0 0.59347037557990512 1.7129839294324147 0 0.59347037557990512 1.7129839294324147 0 0.8327025507259157 1.6396403352008164 0 0.82835811468760467 1.7751273487658401 0 0.59347037557990512 1.7129839294324147 0 0.58964111346218484 1.5708593864624292 0 0.8327025507259157 1.6396403352008164 0 0.5475811977578261 1.6325996272828827 0 0.59347037557990512 1.7129839294324147 0 0.58964111346218484 1.5708593864624292 0 0.8250657248995148 1.4999937470017488 0 0.58964111346218484 1.5708593864624292 0 0.8327025507259157 1.6396403352008164 0 0.8250657248995148 1.4999937470017488 0 1.0608843523500604 1.5691931684633149 0 0.8327025507259157 1.6396403352008164 0 1.0608843523500604 1.5691931684633149 0 1.2875107127648542 1.6381284513371031 0 1.0628318868719011 1.7074370379054169 0 1.0608843523500604 1.5691931684633149 0 0.8327025507259157 1.6396403352008164 0 1.0628318868719011 1.7074370379054169 0 1.2869582820858805 1.4999857228343807 0 1.5092121613842999 1.4310365024470302 0 1.5092075647420775 1.5689475912687516 0 1.2869582820858805 1.4999857228343807 0 1.5092075647420775 1.5689475912687516 0 1.2875107127648542 1.6381284513371031 0 1.2869582820858805 1.4999857228343807 0 1.0608843523500604 1.5691931684633149 0 1.2875107127648542 1.6381284513371031 0 1.5092075647420775 1.5689475912687516 0 1.5089496901136221 1.708889336650143 0 1.2875107127648542 1.6381284513371031 0 1.5089496901136221 1.708889336650143 0 1.2875107127648542 1.6381284513371031 0 1.2892145584298755 1.7761020591144092 0 1.2875107127648542 1.6381284513371031 0 1.2892145584298755 1.7761020591144092 0 1.0628318868719011 1.7074370379054169 0 1.2892145584298755 1.7761020591144092 0 1.0346060085521021 1.8582255413244895 0 1.2664778451187577 1.8917342211623951 0 1.5042893831484603 1.8586973096859107 0 1.2892145584298755 1.7761020591144092 0 1.2664778451187577 1.8917342211623951 0 1.5089496901136221 1.708889336650143 0 1.5042893831484603 1.8586973096859107 0 1.2892145584298755 1.7761020591144092 0 0.8327025507259157 1.6396403352008164 0 0.82835811468760467 1.7751273487658401 0 1.0628318868719011 1.7074370379054169 0 1.2892145584298755 1.7761020591144092 0 1.0628318868719011 1.7074370379054169 0 1.0346060085521021 1.8582255413244895 0 0.82835811468760467 1.7751273487658401 0 1.0628318868719011 1.7074370379054169 0 1.0346060085521021 1.8582255413244895 0 0.82835811468760467 1.7751273487658401 0 1.0346060085521021 1.8582255413244895 0 0.79655331842523547 1.8892299667637971 0 1.0346060085521021 1.8582255413244895 0 0.87396695724903117 1.9905078246710459 0 0.79655331842523547 1.8892299667637971 0 1.0346060085521021 1.8582255413244895 0 1.1273200982559055 1.9853558021486497 0 1.2664778451187577 1.8917342211623951 0 1.0346060085521021 1.8582255413244895 0 1.1273200982559055 1.9853558021486497 0 0.87396695724903117 1.9905078246710459 0 1.1273200982559055 1.9853558021486497 0 0.87396695724903117 1.9905078246710459 0 1.0525780125240345 2.1150734191932377 0 1.5042893831484603 1.8586973096859107 0 1.2664778451187577 1.8917342211623951 0 1.3762039792497285 1.9825575376198759 0 1.1273200982559055 1.9853558021486497 0 1.2664778451187577 1.8917342211623951 0 1.3762039792497285 1.9825575376198759 0 1.1273200982559055 1.9853558021486497 0 1.3762039792497285 1.9825575376198759 0 1.2733517852680163 2.0747967342556932 0 1.5052127632830639 2.1038198790570171 0 1.2733517852680163 2.0747967342556932 0 1.3032559514005704 2.1889902137840083 0 1.5052127632830639 2.1038198790570171 0 1.3762039792497285 1.9825575376198759 0 1.2733517852680163 2.0747967342556932 0 1.2733517852680163 2.0747967342556932 0 1.3032559514005704 2.1889902137840083 0 1.0525780125240345 2.1150734191932377 0 1.5052127632830639 2.1038198790570171 0 1.5082558173095695 2.2560963937836473 0 1.3032559514005704 2.1889902137840083 0 0.87396695724903117 1.9905078246710459 0 1.0525780125240345 2.1150734191932377 0 0.81588322920245837 2.0954470384808532 0 1.0525780125240345 2.1150734191932377 0 0.86834221995038663 2.207349017490619 0 0.81588322920245837 2.0954470384808532 0 1.1273200982559055 1.9853558021486497 0 1.2733517852680163 2.0747967342556932 0 1.0525780125240345 2.1150734191932377 0 1.1003216955775577 2.2642792841051262 0 1.3032559514005704 2.1889902137840083 0 1.0525780125240345 2.1150734191932377 0 1.1003216955775577 2.2642792841051262 0 1.0525780125240345 2.1150734191932377 0 0.86834221995038663 2.207349017490619 0 0.65608205235449002 2.2832984953455839 0 0.86834221995038663 2.207349017490619 0 0.63177703428775212 2.1402492292820239 0 0.81588322920245837 2.0954470384808532 0 0.63177703428775212 2.1402492292820239 0 0.61403223452960121 1.9974180019217547 0 0.86834221995038663 2.207349017490619 0 0.81588322920245837 2.0954470384808532 0 0.63177703428775212 2.1402492292820239 0 0.63177703428775212 2.1402492292820239 0 0.57966118925553045 2.1053374157856566 0 0.61403223452960121 1.9974180019217547 0 0.65608205235449002 2.2832984953455839 0 0.63177703428775212 2.1402492292820239 0 0.58683277158651659 2.23547470527317 0 0.63177703428775212 2.1402492292820239 0 0.58683277158651659 2.23547470527317 0 0.57966118925553045 2.1053374157856566 0 0.50540018952844812 2.2558324533482286 0 0.58683277158651659 2.23547470527317 0 0.52346335399756327 2.1252145047475346 0 0.58683277158651659 2.23547470527317 0 0.52346335399756327 2.1252145047475346 0 0.57966118925553045 2.1053374157856566 0 0.52346335399756327 2.1252145047475346 0 0.57966118925553045 2.1053374157856566 0 0.54863511722238623 2.001289426649191 0 0.57966118925553045 2.1053374157856566 0 0.54863511722238623 2.001289426649191 0 0.61403223452960121 1.9974180019217547 0 0.47363950583603603 2.0046596175337612 0 0.52346335399756327 2.1252145047475346 0 0.54863511722238623 2.001289426649191 0 0.47363950583603603 2.0046596175337612 0 0.49777259925032213 1.8764466951364118 0 0.54863511722238623 2.001289426649191 0 0.49777259925032213 1.8764466951364118 0 0.54863511722238623 2.001289426649191 0 0.55690929649116483 1.8953404592688097 0 0.54863511722238623 2.001289426649191 0 0.55690929649116483 1.8953404592688097 0 0.61403223452960121 1.9974180019217547 0 0.60141354887165732 1.8550625441339397 0 0.55690929649116483 1.8953404592688097 0 0.61403223452960121 1.9974180019217547 0 0.87396695724903117 1.9905078246710459 0 0.79655331842523547 1.8892299667637971 0 0.61403223452960121 1.9974180019217547 0 0.60141354887165732 1.8550625441339397 0 0.79655331842523547 1.8892299667637971 0 0.61403223452960121 1.9974180019217547 0 0.87396695724903117 1.9905078246710459 0 0.81588322920245837 2.0954470384808532 0 0.61403223452960121 1.9974180019217547 0 
</DataArray>
</PointData>
<CellData Scalars="region_id,displacement_divergence," Vectors="" Tensors="stress,">
<DataArray type="Float64" Name="region_id" format="ascii">
5 5 5 5 5 5 5 5 5 5 5 5 5 5 5 5 5 5 5 5 5 5 5 5 5 5 5 5 5 5 5 5 5 5 5 5 5 5 5 5 5 5 5 5 5 5 5 5 5 5 5 5 5 5 5 5 5 5 5 5 5 5 5 5 5 5 5 5 5 5 5 5 5 5 5 5 5 5 5 5 5 5 5 5 5 5 5 5 5 5 5 5 5 5 5 5 5 5 5 5 5 5 5 5 5 5 5 5 5 5 5 5 5 5 5 5 5 5 5 5 5 5 5 5 5 5 5 5 5 5 5 5 6 6 6 6 6 6 6 6 6 6 6 6 6 6 6 6 6 6 6 5 5 6 5 5 5 5 5 5 5 5 5 6 5 6 6 6 6 5 6 5 5 5 5 5 5 5 5 5 6 6 5 5 6 6 6 6 6 6 6 6 6 6 6 6 6 6 6 6 6 6 6 6 6 6 6 6 6 6 6 6 6 6 6 6 6 5 5 5 5 5 5 6 6 6 6 6 5 5 5 5 5 5 5 5 5 5 6 6 6 6 6 6 5 5 5 5 5 5 6 6 6 6 6 6 6 6 6 6 6 6 6 6 6 6 6 6 6 6 6 6 6 6 6 6 6 6 6 6 6 6 6 6 6 6 6 5 6 5 5 5 5 5 5 5 5 5 6 5 5 6 6 6 5 6 5 5 5 5 5 5 5 5 6 6 5 6 6 6 6 6 6 6 6 6 6 6 6 6 6 6 6 5 5 5 5 5 5 5 5 5 5 5 5 5 5 5 5 5 5 5 5 5 5 5 5 5 5 5 5 5 5 5 5 5 5 5 5 5 5 5 5 5 5 5 5 5 5 5 5 5 5 5 5 5 5 5 5 5 5 5 5 5 5 5 5 5 5 5 5 5 5 5 5 5 5 5 5 5 5 5 5 5 5 5 5 5 5 5 5 5 5 5 5 5 5 5 5 5 5 5 5 5 5 5 5 5 5 5 5 5 5 5 5 5 5 5 5 5 5 5 5 5 5 5 5 5 5 5 5 5 5 5 5 6 6 6 6 6 6 6 6 6 6 6 6 6 6 6 6 6 6 5 5 6 6 5 5 5 5 5 5 5 5 5 6 5 6 6 6 6 5 6 5 5 5 5 5 5 5 5 5 6 5 5 6 6 6 6 6 6 6 6 6 6 6 6 6 6 6 6 6 6 6 6 6 6 6 6 6 6 6 6 6 6 6 6 6 6 6 6 5 6 5 5 5 5 5 5 5 5 5 6 5 6 6 6 6 5 6 5 5 5 5 5 5 5 5 5 6 6 5 5 6 6 6 6 6 6 6 6 6 6 6 6 6 6 6 6 6 6 6 5 5 5 5 5 5 5 5 5 5 5 5 5 5 5 5 5 5 5 5 5 5 5 5 5 5 5 5 5 5 5 5 5 5 5 5 5 5 5 5 5 5 5 5 5 5 5 5 5 5 5 5 5 5 5 5 5 5 5 5 5 5 5 5 5 5 5 5 5 5 5 5 5 5 5 5 5 5 5 5 5 5 5 5 5 5 5 5 5 5 5 5 5 5 5 5 5 5 5 5 5 5 5 5 5 5 5 5 5 5 5 5 5 5 5 5 5 5 5 5 5 5 5 5 5 5 5 5 5 5 6 6 6 6 6 6 6 6 6 6 6 6 6 6 6 6 5 6 6 5 5 5 5 5 5 5 5 5 6 5 6 6 6 5 5 6 5 5 5 5 5 5 5 5 5 6 5 6 6 6 6 6 6 6 6 6 6 6 6 6 6 6 6 6 6 6 6 6 6 6 6 6 6 6 6 6 6 6 6 6 6 6 6 6 6 6 6 6 6 6 6 6 6 6 6 6 6 6 6 5 5 5 5 5 6 6 6 5 5 6 6 5 5 5 5 5 5 5 5 6 6 5 5 6 6 5 6 6 5 5 5 5 5 5 5 5 5 5 5 5 5 5 5 5 5 5 5 5 5 5 5 5 5 5 5 5 5 5 5 5 5 5 5 5 5 5 5 5 5 5 5 5 5 5 5 5 5 5 5 5 5 5 5 5 5 5 5 5 5 5 5 5 5 5 5 5 5 5 5 5 5 5 5 5 5 5 5 5 5 5 5 5 5 5 5 5 5 5 5 5 5 5 5 5 5 5 5 5 5 5 5 5 5 5 5 5 5 5 5 5 5 5 5 5 5 5 5 5 5 5 5 5 5 5 5 5 5 5 5 5 5 5 5 5 5 5 5 5 5 5 5 5 6 6 5 6 6 5 6 6 6 6 6 6 6 6 6 6 6 6 6 6 6 6 6 6 6 6 6 6 6 6 6 6 6 6 6 6 6 6 6 6 6 6 5 5 5 5 5 5 5 5 5 5 5 5 6 6 6 
</DataArray>
<DataArray type="Float64" Name="stress" NumberOfComponents="9" format="ascii">
0.059342356854977373 97.634422514012343 0 97.634422514012343 -3.6472500343023029 0 0 0 0 -4.5319491398457217 98.076426342155116 0 98.076426342155116 0.060033806112719398 0 0 0 0 -3.9182323419044849 95.880009371218932 0 95.880009371218932 -4.402837818220263 0 0 0 0 -4.0724216367377721 96.475621900109701 0 96.475621900109701 -3.2654279732400582 0 0 0 0 -6.1526845483971755 95.381189297442845 0 95.381189297442845 -2.7508767141323034 0 0 0 0 -9.1100482230988291 96.679807086875499 0 96.679807086875499 -0.018869684438313758 0 0 0 0 -14.598568691868365 95.421644606551212 0 95.421644606551212 0.0041059587827794453 0 0 0 0 -11.024111984376717 94.080461544074225 0 94.080461544074225 -1.9685084056402502 0 0 0 0 -13.937700770196955 94.521839983760657 0 94.521839983760657 -1.5412121818212725 0 0 0 0 -8.2494295469284591 94.580515600206724 0 94.580515600206724 -3.6740184297425174 0 0 0 0 -8.2074468541193824 94.368396180998644 0 94.368396180998644 -3.3746173495106149 0 0 0 0 -13.244340646354686 93.523432654343537 0 93.523432654343537 -2.8131434799294652 0 0 0 0 -7.7215673798268085 92.637784901120654 0 92.637784901120654 -3.5585224229195092 0 0 0 0 -7.7458398008081133 93.353368903229722 0 93.353368903229722 -4.5662276068069048 0 0 0 0 -3.6479177556962838 94.438449073651711 0 94.438449073651711 -4.7335779809700114 0 0 0 0 -3.6328002875632279 94.329160547405891 0 94.329160547405891 -6.0934136428617762 0 0 0 0 0.0024362470738882452 93.62851328410224 0 93.62851328410224 -6.4247951812740496 0 0 0 0 -0.018483428479395922 95.712652513288702 0 95.712652513288702 -5.7242574814227112 0 0 0 0 -28.095745478870448 90.798020461497785 0 90.798020461497785 -1.8937123710533541 0 0 0 0 -36.893813575727563 88.978118691350801 0 88.978118691350801 -0.12476135413260181 0 0 0 0 -24.540619394816076 90.859671123485697 0 90.859671123485697 -1.4532162933134032 0 0 0 0 -29.385572648169273 93.619526467626955 0 93.619526467626955 0.00075255097568813212 0 0 0 0 -27.886809451912825 92.976633397418595 0 92.976633397418595 -0.1745068393784166 0 0 0 0 -20.911481322241968 94.557232820493667 0 94.557232820493667 -0.0035761929945726384 0 0 0 0 -18.043100978176426 92.472103011832687 0 92.472103011832687 -1.3595298847675017 0 0 0 0 -13.877491506320659 94.119665214833944 0 94.119665214833944 -2.3739301396811499 0 0 0 0 -19.736022545157141 93.052996319542501 0 93.052996319542501 -1.187161385254214 0 0 0 0 -18.181129968548646 91.896721318214574 0 91.896721318214574 -1.3517992896862552 0 0 0 0 -13.123343482613979 92.396944285001737 0 92.396944285001737 -2.4179416105954488 0 0 0 0 -18.180993295392966 89.695685491932181 0 89.695685491932181 -0.308474845332114 0 0 0 0 -19.675412697570785 91.600639497713061 0 91.600639497713061 -1.848808449612676 0 0 0 0 -25.867702517577925 91.512682035205643 0 91.512682035205643 0.11029077671588539 0 0 0 0 -31.216235102526468 87.930276328166599 0 87.930276328166599 2.6067107865111296 0 0 0 0 -26.028264734596604 88.143563899010516 0 88.143563899010516 1.098633087762579 0 0 0 0 -36.371398295597658 90.945564478448006 0 90.945564478448006 1.487284330888329 0 0 0 0 -25.715317002221866 84.942302345927374 0 84.942302345927374 3.0409335425478616 0 0 0 0 -22.818808859342663 85.431943475032213 0 85.431943475032213 2.6448045158282412 0 0 0 0 -22.770826653575796 89.270950391711835 0 89.270950391711835 0.73261964305692118 0 0 0 0 -16.132556399334533 87.35006078033939 0 87.35006078033939 0.7372937830471642 0 0 0 0 -12.087315906979001 90.444542581496805 0 90.444542581496805 -1.67041941391264 0 0 0 0 -16.132568304350116 89.909000757783133 0 89.909000757783133 -0.96760598382456919 0 0 0 0 -13.757036470111871 87.78851429233535 0 87.78851429233535 -0.52889371674947938 0 0 0 0 -10.805583210631797 88.324157050018599 0 88.324157050018599 -0.89106676580070143 0 0 0 0 -9.269383943482012 86.288306022486921 0 86.288306022486921 -0.33185828886706759 0 0 0 0 -13.739213601911878 85.131491657963565 0 85.131491657963565 1.218731604098366 0 0 0 0 -19.202440344780939 86.79505412481646 0 86.79505412481646 1.1189461894929309 0 0 0 0 -15.802612346394653 84.536570889831012 0 84.536570889831012 1.2486018801341743 0 0 0 0 -15.51680553884291 81.015466455517029 0 81.015466455517029 2.9841649330885502 0 0 0 0 -19.203233647616543 83.03925054444484 0 83.03925054444484 3.0678021909718041 0 0 0 0 -20.741193344669227 82.51070741717686 0 82.51070741717686 2.9699859655103751 0 0 0 0 -0.0028518974886053011 91.636984660687673 0 91.636984660687673 -6.1979732889892887 0 0 0 0 -3.4399889423820778 92.697885639066541 0 92.697885639066541 -6.3058544621062538 0 0 0 0 -3.4321009149848356 92.342495973966649 0 92.342495973966649 -4.912743822214054 0 0 0 0 -12.093275071224639 91.996222317987588 0 91.996222317987588 -2.9680336313180078 0 0 0 0 -7.0702390867692486 90.718476049669974 0 90.718476049669974 -3.0567939868241751 0 0 0 0 -7.1613686453977152 91.628032638775522 0 91.628032638775522 -4.4867911159835216 0 0 0 0 -6.4573201584396474 89.896038463008225 0 89.896038463008225 -3.8483869458200388 0 0 0 0 -6.4489691290756923 88.69893527953036 0 88.69893527953036 -2.3245695159997695 0 0 0 0 -10.839723290558247 90.112521417360099 0 90.112521417360099 -2.5132732557573263 0 0 0 0 -9.2767307166186868 88.212426669324202 0 88.212426669324202 -1.9775180536125845 0 0 0 0 -2.9445836988474667 88.593474831276467 0 88.593474831276467 -3.5000230531586567 0 0 0 0 -3.2386749862423585 90.389267039202451 0 90.389267039202451 -4.3241292904853026 0 0 0 0 -0.0015128750080727477 89.808671167230614 0 89.808671167230614 -5.4559440214088681 0 0 0 0 -3.2762370276169595 91.031294185402231 0 91.031294185402231 -5.8175565395025615 0 0 0 0 -2.8875972929875218 89.406872267682473 0 89.406872267682473 -5.0176561529570449 0 0 0 0 -0.0017444890771001059 88.253935161033013 0 88.253935161033013 -4.6023027652724977 0 0 0 0 -2.6274054402536393 87.157324043733269 0 87.157324043733269 -2.8403545890153055 0 0 0 0 -2.2987846378943004 87.036049226038813 0 87.036049226038813 -2.9043772718051741 0 0 0 0 -0.00086731507986523293 87.142838077063118 0 87.142838077063118 -3.686955413838291 0 0 0 0 -2.271005489831718 88.02616484723444 0 88.02616484723444 -4.0294546439732812 0 0 0 0 -1.9659574411592473 86.573409450107704 0 86.573409450107704 -2.8607225416650408 0 0 0 0 -2.2085838289875639 85.305942267684742 0 85.305942267684742 -1.7091558876237514 0 0 0 0 -1.2442750684382702 86.412461206932448 0 86.412461206932448 -2.8607225416649271 0 0 0 0 -0.0010262211051274284 85.538918975969978 0 85.538918975969978 -2.3568869270735604 0 0 0 0 -4.3243684533990034 84.400201146374854 0 84.400201146374854 -0.66304237820952494 0 0 0 0 -4.3606690534221855 84.480846798430491 0 84.480846798430491 -0.83169628840724741 0 0 0 0 -2.638005774083922 85.665801973475368 0 85.665801973475368 -1.7815096677875317 0 0 0 0 -4.3546347596419537 86.003058943358724 0 86.003058943358724 -1.7815096677875326 0 0 0 0 -6.8275061591258179 84.688213931091354 0 84.688213931091354 -0.66304237820941125 0 0 0 0 -4.32702038022002 85.875673816239185 0 85.875673816239185 -1.2917015586956495 0 0 0 0 -7.391677013374931 86.668609664810845 0 86.668609664810845 -1.4945661635819931 0 0 0 0 -5.201458118031411 88.36140537284578 0 88.36140537284578 -3.1434804572241433 0 0 0 0 -5.5551576125716409 86.956449413352175 0 86.956449413352175 -1.7653922367826453 0 0 0 0 -11.108401866612553 85.926237862301122 0 85.926237862301122 -0.16857914867466661 0 0 0 0 -11.217478325192364 83.274210349640782 0 83.274210349640782 1.2760490991312281 0 0 0 0 -6.865101071274637 84.596683096223501 0 84.596683096223501 -0.29095978033691949 0 0 0 0 -7.8682672794424775 84.759533114285333 0 84.759533114285333 -0.1507705253181939 0 0 0 0 -16.391959643185771 80.520817279171013 0 80.520817279171013 2.7049026769007583 0 0 0 0 -8.5791130827813049 81.943097585774183 0 81.943097585774183 1.394566781002311 0 0 0 0 -12.811751997099293 82.745040685218498 0 82.745040685218498 1.2570830889802664 0 0 0 0 -10.554300985041237 79.314279872447202 0 79.314279872447202 2.1686144608967197 0 0 0 0 -12.581500908246566 79.571880711191653 0 79.571880711191653 2.4455393312055094 0 0 0 0 -11.29939982748229 80.069062615750966 0 80.069062615750966 1.4467886549890636 0 0 0 0 -8.0771729150993394 80.658154612689998 0 80.658154612689998 0.83462302727730275 0 0 0 0 -7.3157651795546599 79.819438373666856 0 79.819438373666856 1.4467886549890139 0 0 0 0 -9.5481839543508613 77.926547342417194 0 77.926547342417194 1.4832253030388074 0 0 0 0 -9.2417464530390134 82.782725269113087 0 82.782725269113087 0.56078652691485331 0 0 0 0 -5.9678706258205807 82.424798178928711 0 82.424798178928711 0.56078652691498143 0 0 0 0 -6.3479873302657381 82.90077557542611 0 82.90077557542611 0.040501554180423227 0 0 0 0 -3.5240601712655177 82.665303546601365 0 82.665303546601365 0.048351769433839564 0 0 0 0 -5.3153182642367653 81.286395958363244 0 81.286395958363244 0.32740549621394166 0 0 0 0 -2.223063269668728 81.094821211089197 0 81.094821211089197 0.33601161652973133 0 0 0 0 -5.2425245150179194 77.751194109916014 0 77.751194109916014 1.475254160166287 0 0 0 0 -4.5474375711233392 80.465872953132703 0 80.465872953132703 0.83455339124064787 0 0 0 0 -6.3384306490254403 78.89018083279359 0 78.89018083279359 0.82839864454922463 0 0 0 0 -2.7301257003324508 78.736590874008812 0 78.736590874008812 0.82720630035143561 0 0 0 0 -4.4007587419914103 77.183279153275805 0 77.183279153275805 0.52030993100822798 0 0 0 0 -3.7793213529502623 79.799747353534997 0 79.799747353534997 0.30416678242136186 0 0 0 0 -1.8449882188689912 78.431385803591297 0 78.431385803591297 0.013820873356507946 0 0 0 0 -0.47332127259687695 79.702273433640187 0 79.702273433640187 0.30596560412902818 0 0 0 0 -0.51410861543971009 77.135348687811359 0 77.135348687811359 0.51859530652654939 0 0 0 0 -3.0364878982940269 81.912323157740502 0 81.912323157740502 0.031996178270446762 0 0 0 0 -1.5810504069463889 80.737843675539636 0 80.737843675539636 0.0039842387468524976 0 0 0 0 -0.35478587368680792 81.807216091871112 0 81.807216091871112 0.035353829748942189 0 0 0 0 -1.2203211794957554 82.584577288248909 0 82.584577288248909 -0.0039680326211737338 0 0 0 0 -2.1763936086547631 83.474853615407085 0 83.474853615407085 -0.28140571985183982 0 0 0 0 -0.75218424495606939 83.840276430601932 0 83.840276430601932 -0.015136400103415326 0 0 0 0 -0.18981733785690835 83.376061874584536 0 83.376061874584536 -0.27808420505768794 0 0 0 0 -0.34621667224344321 84.705613027132813 0 84.705613027132813 -0.34639712722230342 0 0 0 0 -3.4977297861310541e-05 84.301412079718602 0 84.301412079718602 -0.0064712545954535017 0 0 0 0 -6.3494516002016166e-05 84.536307632966896 0 84.536307632966896 -0.84611629658661514 0 0 0 0 -1.1005339410832278 84.325630895776555 0 84.325630895776555 -0.61476828360051883 0 0 0 0 -0.067420964139046191 84.225717853811034 0 84.225717853811034 -0.60765423641964844 0 0 0 0 -0.00088444326982355104 84.884204529595024 0 84.884204529595024 -1.6045373947590065 0 0 0 0 -0.56168224107168552 85.069337796342893 0 85.069337796342893 -1.3408554336624547 0 0 0 0 -1.2481764128034427 85.668974278479809 0 85.668974278479809 -2.0945933944901753 0 0 0 0 -1.0499320874860985 85.101008743032423 0 85.101008743032423 -1.6786752068227742 0 0 0 0 -2.5132654454885426 84.477007775084189 0 84.477007775084189 -0.87770692645790405 0 0 0 0 -3.9935325158666757 83.157011733135903 0 83.157011733135903 -0.24204976597911809 0 0 0 0 -2.3451635325024256 84.305617197080153 0 84.305617197080153 -0.82356915348501758 0 0 0 0 -1.6470780366186943 82.990993352223796 0 82.990993352223796 -0.23586337032429583 0 0 0 0 -0.97020396466641046 84.293292660791195 0 84.293292660791195 -0.86119704153691146 0 0 0 0 -1.6403423448223293 69.940548653432757 0 69.940548653432757 0.79090438153730247 0 0 0 0 -1.7815855422984086 69.738170597302513 0 69.738170597302513 1.0382180556815115 0 0 0 0 -2.6900117852820244 69.705847810607963 0 69.705847810607963 1.5165005278422541 0 0 0 0 -1.6182659892102649 69.009005735492622 0 69.009005735492622 0.71447510261509706 0 0 0 0 -1.2254069088448887 68.713108690528827 0 68.713108690528827 0.92404916887528543 0 0 0 0 0.037860799795964795 68.522425783661276 0 68.522425783661276 0.19244023387329889 0 0 0 0 -1.0115959187520929 68.253166175917599 0 68.253166175917599 0.35727434356823551 0 0 0 0 -0.61566270350331465 68.761496187849659 0 68.761496187849659 0.13422667721283688 0 0 0 0 -0.61127873995695836 69.094087785045531 0 69.094087785045531 0.51223051098588712 0 0 0 0 0.010494060000610261 68.91651997748221 0 68.91651997748221 0.11085028284401233 0 0 0 0 -0.19803245137295633 69.030142960797505 0 69.030142960797505 0.049265101825994861 0 0 0 0 -0.20201410054791369 69.336753404960263 0 69.336753404960263 0.16106067671648816 0 0 0 0 -0.0063229136008544629 69.419131169624819 0 69.419131169624819 -0.00031825207031488389 0 0 0 0 -0.78193138105848448 69.312948207046077 0 69.312948207046077 0.32182645925053066 0 0 0 0 -0.81353132431471842 69.945916264884985 0 69.945916264884985 0.50805203644642916 0 0 0 0 -0.012365552230562571 70.033204430834473 0 70.033204430834473 -0.0028085162026059152 0 0 0 0 -0.56366389336858447 70.102026150933426 0 70.102026150933426 0.25464367440577007 0 0 0 0 -0.0070143706091698732 71.09233635654499 0 71.09233635654499 -0.0012721062129230631 0 0 0 0 -0.5314897377445158 70.980309430110296 0 70.980309430110296 0.29014498320043458 0 0 0 0 -0.01402874121839659 72.838848975228757 0 72.838848975228757 0.0070333015371488727 0 0 0 0 -2.6906186303989443 72.7756749780512 0 72.7756749780512 0.65725221063428307 0 0 0 0 -1.345309315199529 71.084121238786594 0 71.084121238786594 0.656310086628622 0 0 0 0 -1.9055493981070981 75.742287004298305 0 75.742287004298305 0.027913034069353415 0 0 0 0 -0.89868345365105995 74.785284486762947 0 74.785284486762947 0.67722532362336096 0 0 0 0 -1.8735808718084854 72.675764032728011 0 72.675764032728011 0.37091952143907747 0 0 0 0 -4.6295154049237226 74.732696555542816 0 74.732696555542816 0.69385269442595643 0 0 0 0 -3.2459065593278069 75.998976664328296 0 75.998976664328296 1.1602864394110384 0 0 0 0 -3.5169174750660943 72.73598656704786 0 72.73598656704786 1.0846773163380021 0 0 0 0 -7.22551966402483 72.686516588069765 0 72.686516588069765 1.8362734996811696 0 0 0 0 -6.1657408417730153 75.174307222915559 0 75.174307222915559 1.8876300862035578 0 0 0 0 -7.0272324474386778 75.995578688366095 0 75.995578688366095 1.1919974649606075 0 0 0 0 -1.7440686761579514 70.869811127498792 0 70.869811127498792 1.0088911030928216 0 0 0 0 -5.5792325584351374 72.864036933683735 0 72.864036933683735 1.3185820338344456 0 0 0 0 -3.0054959686265761 70.710915892105675 0 70.710915892105675 1.6680766903645576 0 0 0 0 -2.7896162792175403 70.89357831629664 0 70.89357831629664 1.3657505023614362 0 0 0 0 -3.7224948355765264 70.152381587864141 0 70.152381587864141 2.4004185029284599 0 0 0 0 -4.4158489918808073 70.754720305713846 0 70.754720305713846 1.8890952235334453 0 0 0 0 -8.8316979837615577 72.706294008285226 0 72.706294008285226 2.0369825150735323 0 0 0 0 -5.5182102686795815 70.141668422084066 0 70.141668422084066 2.4004185029285168 0 0 0 0 -8.4269392668857108 76.656727000165461 0 76.656727000165461 2.3776208034765887 0 0 0 0 -8.8680621328597908 73.010348740355369 0 73.010348740355369 2.6814561283114244 0 0 0 0 -10.275170347282312 75.068716039492529 0 75.068716039492529 1.9371267405072103 0 0 0 0 -13.000003821811561 73.173345849337238 0 73.173345849337238 2.6814561283114244 0 0 0 0 -12.773623544718475 76.899151751416071 0 76.899151751416071 2.37762080347655 0 0 0 0 -11.33767324894211 75.536403502747646 0 75.536403502747646 3.1856389551273878 0 0 0 0 -15.080268657836655 72.534464327132113 0 72.534464327132113 3.6047711732120433 0 0 0 0 -15.878015088491452 76.098838907157983 0 76.098838907157983 3.1436560018761952 0 0 0 0 -15.591305708319965 76.586529899211229 0 76.586529899211229 3.7457416492459856 0 0 0 0 -6.3299473949348339 69.796431295599461 0 69.796431295599461 3.4190425946906231 0 0 0 0 -6.1864035580378811 70.170389870950316 0 70.170389870950316 3.1260546900206805 0 0 0 0 -12.372807116075762 72.567400157004386 0 72.567400157004386 3.2661508072413881 0 0 0 0 -16.966230863718124 72.79109952487525 0 72.79109952487525 4.0568026855905828 0 0 0 0 -8.4831154318590052 69.565154138463839 0 69.565154138463839 4.0014424082207256 0 0 0 0 -5.2114657807330218 67.595333939394877 0 67.595333939394877 3.1516649410505408 0 0 0 0 -5.4411687668060154 66.306903478746946 0 66.306903478746946 2.1457069297838984 0 0 0 0 -3.0935528213548764 67.316426849071178 0 67.316426849071178 1.582623743954116 0 0 0 0 -6.6959232548361811 68.428687399723884 0 68.428687399723884 2.7589829411740538 0 0 0 0 -4.4968687412956569 68.67960212114383 0 68.67960212114383 2.7659003951113448 0 0 0 0 -4.1658154052921645 68.596924761955705 0 68.596924761955705 1.8039992692442866 0 0 0 0 -2.6991938495961847 68.625987816588449 0 68.625987816588449 0.99188637844372352 0 0 0 0 -2.7140537162483724 68.763711666225902 0 68.763711666225902 1.8039992692442866 0 0 0 0 -3.9321162765384088 69.71304256786533 0 69.71304256786533 1.564461190210892 0 0 0 0 -0.79589161317642265 68.085972806064063 0 68.085972806064063 0.41721890187858435 0 0 0 0 -1.50123494659573 67.818609954690771 0 67.818609954690771 0.98435389456938083 0 0 0 0 -2.2719004040411619 67.62077246602243 0 67.62077246602243 0.98435389456930344 0 0 0 0 -0.031706185289465338 67.243192382633495 0 67.243192382633495 -0.0021986604371022622 0 0 0 0 -2.6215599043094926 66.289192702795049 0 66.289192702795049 0.7214770495420737 0 0 0 0 -0.85115720861693944 66.703613741164958 0 66.703613741164958 0.81848416672090707 0 0 0 0 -2.527693008645997 66.902583705863265 0 66.902583705863265 1.7733839835503176 0 0 0 0 -0.10903237321025472 65.460014480232473 0 65.460014480232473 0.67773310563069344 0 0 0 0 -3.3126068644613724 64.695874387875094 0 64.695874387875094 0.81296771302376669 0 0 0 0 -0.15459250260809365 63.715120233609333 0 63.715120233609333 0.89058455848032736 0 0 0 0 -4.3511290713607309 62.667788337304856 0 62.667788337304856 1.0820168617894694 0 0 0 0 -4.3749215366298699 63.697090027208503 0 63.697090027208503 2.7586182099855989 0 0 0 0 -3.2933843453187626 65.504464997997758 0 65.504464997997758 2.3559984853548599 0 0 0 0 -8.488197869796636 67.086476353559831 0 67.086476353559831 3.5352545089730683 0 0 0 0 -7.1213335336438082 66.322262079020476 0 66.322262079020476 3.9621831577261446 0 0 0 0 -11.22167609965544 65.586032262252587 0 65.586032262252587 4.4517303734040325 0 0 0 0 -7.1339312212505206 64.62608868637065 0 64.62608868637065 2.6020327674263797 0 0 0 0 -9.3207914183910887 62.510806214330799 0 62.510806214330799 3.1347656162998021 0 0 0 0 -9.4573239856466458 64.803038655929896 0 64.803038655929896 4.7722413928943013 0 0 0 0 -14.878708347095483 63.547130569241162 0 63.547130569241162 5.2641700663692035 0 0 0 0 -5.7037626026483963 61.6037909191339 0 61.6037909191339 3.0280245100328784 0 0 0 0 -5.6448291699363722 60.30386152993799 0 60.30386152993799 1.3101881784726572 0 0 0 0 -0.21273124028697676 61.566953779993703 0 61.566953779993703 0.9545634111042034 0 0 0 0 -20.485825638608606 77.893792244946425 0 77.893792244946425 4.4991019645786992 0 0 0 0 -25.74998059118991 79.237098302365609 0 79.237098302365609 4.7021113333809694 0 0 0 0 -20.024065178769263 77.568716327602402 0 77.568716327602402 3.935788253314513 0 0 0 0 -19.573809818320711 72.595050353990629 0 72.595050353990629 4.6867582729828428 0 0 0 0 -25.749980591198891 72.869187752117028 0 72.869187752117028 5.7882377250740831 0 0 0 0 -22.606480879861806 73.146617923999457 0 73.146617923999457 5.0607532567990461 0 0 0 0 -8.4115738275829699 69.163507670464512 0 69.163507670464512 4.4192856338119668 0 0 0 0 -11.303240439930912 68.810979199675032 0 68.810979199675032 5.0001177357978577 0 0 0 0 -11.220679385012488 68.342860776922635 0 68.342860776922635 5.5105363024369609 0 0 0 0 -15.024050598920212 67.831760949529539 0 67.831760949529539 6.1690872515134032 0 0 0 0 -15.022518424746522 67.361206567150546 0 67.361206567150546 6.7226281636826997 0 0 0 0 -30.048101197840428 73.743113841067711 0 73.743113841067711 6.2118216685429388 0 0 0 0 -33.327546905745407 73.376142195895227 0 73.376142195895227 6.88122788159572 0 0 0 0 -33.249040978574953 81.622684413856263 0 81.622684413856263 5.1671800012001654 0 0 0 0 -25.722392739127429 79.550848742959943 0 79.550848742959943 5.0554114110830994 0 0 0 0 -37.417351332346016 84.929975770518695 0 84.929975770518695 3.0471778912266316 0 0 0 0 -42.289121709669701 85.398500185030272 0 85.398500185030272 4.7628673753735313 0 0 0 0 -31.290452016507714 81.969762323059655 0 81.969762323059655 4.9312363828397565 0 0 0 0 -42.891749560494716 74.628320511232118 0 74.628320511232118 7.8053870397332901 0 0 0 0 -56.713627626239031 77.76308909311966 0 77.76308909311966 8.5281574861463127 0 0 0 0 -40.394747738397768 74.981197253742366 0 74.981197253742366 7.3525699056179974 0 0 0 0 -20.19737386919887 66.381886394802578 0 66.381886394802578 7.3785988321307343 0 0 0 0 -19.941981430313945 65.800899211799504 0 65.800899211799504 7.9786837740199914 0 0 0 0 -28.356813813119459 63.6938159400842 0 63.6938159400842 8.4113764126714159 0 0 0 0 -25.412194615476878 62.810902338941773 0 62.810902338941773 8.3403610725109729 0 0 0 0 -27.851816375090038 52.928613596158101 0 52.928613596158101 0.011044128579953863 0 0 0 0 -45.445083614110615 57.985031103831687 0 57.985031103831687 7.4914763522356296 0 0 0 0 -90.890167228221117 83.109013413562195 0 83.109013413562195 8.689939886081774 0 0 0 0 -50.909317403324351 90.430992326985177 0 90.430992326985177 2.9315194770170194 0 0 0 0 -54.155684973353573 77.877921855846694 0 77.877921855846694 7.5978772581891363 0 0 0 0 -60.577208309418666 93.923367975170194 0 93.923367975170194 0.0056900905605961616 0 0 0 0 -53.769249098028581 84.478472294436415 0 84.478472294436415 0.79826048882389955 0 0 0 0 -40.659427276456995 93.551891948985698 0 93.551891948985698 -0.0043914840547050879 0 0 0 0 -0.17846408834520844 57.531312204086291 0 57.531312204086291 -0.044531917834312651 0 0 0 0 -6.8077932834771104 57.94699317985674 0 57.94699317985674 1.3587859897607188 0 0 0 0 -0.29999315054812392 59.322596441985311 0 59.322596441985311 0.7137039241326022 0 0 0 0 -6.867912668417949 59.337840593467213 0 59.337840593467213 2.4847262461459536 0 0 0 0 -12.03192609454095 59.996386454091919 0 59.996386454091919 3.3747646461074225 0 0 0 0 -12.154441627026813 62.750274377130339 0 62.750274377130339 5.2797920070958213 0 0 0 0 -19.648434718763241 60.510541852416829 0 60.510541852416829 5.3841112829629765 0 0 0 0 -14.895428917108404 60.198145157084653 0 60.198145157084653 4.3546615446642143 0 0 0 0 -14.540161341063822 57.288813469835432 0 57.288813469835432 2.8217704104819603 0 0 0 0 -23.980287513983107 56.316902517272943 0 56.316902517272943 3.8337871566293629 0 0 0 0 -23.678366958424306 59.134105014404682 0 59.134105014404682 2.7674292780863845 0 0 0 0 -13.002068508861441 57.92614407508654 0 57.92614407508654 1.2842330432399081 0 0 0 0 -15.844087235737504 54.351307534237364 0 54.351307534237364 -0.0020622903948461432 0 0 0 0 -7.6796185027916977 55.151712492783297 0 55.151712492783297 0.00087372124785327354 0 0 0 0 -7.3170261992120587 56.372924247041752 0 56.372924247041752 1.1731001221681581 0 0 0 0 -7.3936481098093054 57.208322395959783 0 57.208322395959783 0.27992601845287624 0 0 0 0 -0.079938757593140508 55.158641784060542 0 55.158641784060542 -0.00012258578092104455 0 0 0 0 -3.158925311064877 57.953715440571123 0 57.953715440571123 0.013366763338241421 0 0 0 0 3.2347053640739318 57.989820451450733 0 57.989820451450733 -0.11024376336934694 0 0 0 0 7.2268601575906928 55.090425040770114 0 55.090425040770114 -0.00059532261938150671 0 0 0 0 7.0905942897361456 57.187973373446098 0 57.187973373446098 -0.3611953463096782 0 0 0 0 6.9629398041689683 56.262798123140826 0 56.262798123140826 -1.1482427775644695 0 0 0 0 -0.17230146025847048 57.663160238633196 0 57.663160238633196 0.095565910723934167 0 0 0 0 6.276869489764934 59.186591856468695 0 59.186591856468695 -2.3700523953850308 0 0 0 0 6.1308303341850205 57.903333051062859 0 57.903333051062859 -1.2053343090268669 0 0 0 0 -0.29943401701755246 59.346893711873207 0 59.346893711873207 -0.49454105901656931 0 0 0 0 11.857825625517648 62.59579775791147 0 62.59579775791147 -5.1676488004790428 0 0 0 0 19.44643753454875 60.409144878473853 0 60.409144878473853 -5.2748988339446328 0 0 0 0 11.769358499343184 59.953217064955766 0 59.953217064955766 -3.2272175654504593 0 0 0 0 14.326227174372889 57.283595618457049 0 57.283595618457049 -2.7095996523311818 0 0 0 0 14.970142611762242 60.183828240106401 0 60.183828240106401 -4.3425418511366587 0 0 0 0 23.997777361171188 56.334803417960117 0 56.334803417960117 -3.8428882386341137 0 0 0 0 12.937501513084044 58.027301196373813 0 58.027301196373813 -1.2039441986421195 0 0 0 0 15.974149776572915 54.319772060458895 0 54.319772060458895 0.0018482903080439747 0 0 0 0 23.652085825901736 59.154511393638074 0 59.154511393638074 -2.7134958606631443 0 0 0 0 45.488382624020886 57.966075662286315 0 57.966075662286315 -7.5206480013255188 0 0 0 0 27.918736822621895 52.936077963380413 0 52.936077963380413 -0.010997597756478147 0 0 0 0 90.97676524804163 83.133228270020027 0 83.133228270020027 -8.7441020176410973 0 0 0 0 25.573745647270357 62.824861152295711 0 62.824861152295711 -8.3727734175428381 0 0 0 0 41.133628209217932 93.578185094490706 0 93.578185094490706 0.0039958737585768372 0 0 0 0 53.740816710494414 84.380514150454871 0 84.380514150454871 -0.68808934843744396 0 0 0 0 60.74055235795322 93.882044464551498 0 93.882044464551498 -0.005521516643799902 0 0 0 0 51.423844840302763 90.335239171442751 0 90.335239171442751 -2.9538711018706678 0 0 0 0 54.410296373578831 77.808255458210226 0 77.808255458210226 -7.6231733160034025 0 0 0 0 37.826027349256947 84.943796016789719 0 84.943796016789719 -3.0713399244910136 0 0 0 0 43.484769004131792 74.544668635913354 0 74.544668635913354 -7.7975828630948172 0 0 0 0 42.340322684170474 85.434884853338914 0 85.434884853338914 -4.7435614823727406 0 0 0 0 31.363110794708291 82.014817755378431 0 82.014817755378431 -4.8967378413612721 0 0 0 0 28.346664749001889 63.672236157934101 0 63.672236157934101 -8.3985462932310213 0 0 0 0 56.693329498003777 77.833657917360156 0 77.833657917360156 -8.549718288477635 0 0 0 0 40.31385018976971 75.044925712830604 0 75.044925712830604 -7.3871797513999127 0 0 0 0 20.156925094884855 66.31697748264213 0 66.31697748264213 -7.3844598009258249 0 0 0 0 20.012633881653983 65.76662459315628 0 65.76662459315628 -7.9467609874853338 0 0 0 0 14.981095122604984 67.295275761001264 0 67.295275761001264 -6.7007270613643328 0 0 0 0 30.041531523439517 73.803717183297962 0 73.803717183297962 -6.2148694393420101 0 0 0 0 15.020765761719758 67.792789354313726 0 67.792789354313726 -6.1546129846544773 0 0 0 0 33.308275338792782 81.677363885928415 0 81.677363885928415 -5.196108933166073 0 0 0 0 33.494745545317755 73.42702718542462 0 73.42702718542462 -6.8803001833972246 0 0 0 0 25.929449789836781 79.662380307676102 0 79.662380307676102 -5.0509332111498395 0 0 0 0 25.516335510415225 79.434519036873212 0 79.434519036873212 -4.669566534891203 0 0 0 0 20.50497934517557 78.230114775679482 0 78.230114775679482 -4.4227602480941641 0 0 0 0 25.908131176451462 73.001988793970128 0 73.001988793970128 -5.7767930937561687 0 0 0 0 19.612739737083302 72.783751958282096 0 72.783751958282096 -4.6711301689597349 0 0 0 0 19.959543546195391 77.896786007710347 0 77.896786007710347 -3.8703780047127907 0 0 0 0 11.291146738366251 68.761145779493589 0 68.761145779493589 -4.9664000214127952 0 0 0 0 11.225325872310805 68.281264889802642 0 68.281264889802642 -5.4685307969874088 0 0 0 0 22.582293476732957 73.249827400094205 0 73.249827400094205 -5.0639663727839661 0 0 0 0 8.2900733005169513 69.077800094464791 0 69.077800094464791 -4.398636760272467 0 0 0 0 8.4320333415494133 66.974600943955423 0 66.974600943955423 -3.468634440734661 0 0 0 0 6.9413485702468734 66.188478417150407 0 66.188478417150407 -3.8809464898221506 0 0 0 0 11.053503414838474 65.469293454680894 0 65.469293454680894 -4.3888853151702563 0 0 0 0 6.9302640117001681 64.51856338353636 0 64.51856338353636 -2.481616189557883 0 0 0 0 2.9992593393396874 65.408985494816491 0 65.408985494816491 -2.23850759003588 0 0 0 0 2.9976294041819074 64.632561077941531 0 64.632561077941531 -0.67506612479786554 0 0 0 0 -0.15429564449387145 63.664309441101217 0 63.664309441101217 -0.74145237961761268 0 0 0 0 3.9727127589510474 62.625527173350889 0 62.625527173350889 -0.91697529960028135 0 0 0 0 3.9877812268107391 63.556558766463269 0 63.556558766463269 -2.6261122824722776 0 0 0 0 -0.21248639912951006 61.560366223293656 0 61.560366223293656 -0.77135968622786777 0 0 0 0 5.1349908452368709 60.283724080983397 0 60.283724080983397 -1.0915176054121787 0 0 0 0 5.1395999556568484 61.443300679409084 0 61.443300679409084 -2.8817451243128289 0 0 0 0 14.894734783523859 63.47831084964308 0 63.47831084964308 -5.2065196195302406 0 0 0 0 9.3264118097579924 64.68244688194433 0 64.68244688194433 -4.7298475945105452 0 0 0 0 9.0815585984846621 62.403467989799225 0 62.403467989799225 -2.9851640505414423 0 0 0 0 -0.0025696055718071875 93.595681156218092 0 93.595681156218092 6.4474958888113747 0 0 0 0 3.5345493926993186 94.350299070716261 0 94.350299070716261 6.0960098142145114 0 0 0 0 3.5397580544224496 94.426999744466684 0 94.426999744466684 4.8037802375161505 0 0 0 0 0.018538205306867894 95.690551897767378 0 95.690551897767378 5.7358309444992983 0 0 0 0 3.9405661456285088 95.884352182391439 0 95.884352182391439 4.3889466413806346 0 0 0 0 4.5403953410796021 98.076649185433695 0 98.076649185433695 -0.059956774951238016 0 0 0 0 -0.05930803594083045 97.63017461020921 0 97.63017461020921 3.646797451615015 0 0 0 0 6.1422351968458315 95.369345744158778 0 95.369345744158778 2.7767288765598579 0 0 0 0 4.0788774573626938 96.47493272150588 0 96.47493272150588 3.2634965388895552 0 0 0 0 9.190795676347534 96.656092736272683 0 96.656092736272683 0.01874579012343848 0 0 0 0 10.969329376997621 94.164992575621383 0 94.164992575621383 2.0024689706948777 0 0 0 0 14.28663107599823 95.406649078371373 0 95.406649078371373 -0.0040000679486240504 0 0 0 0 13.713417889306129 94.537256457461666 0 94.537256457461666 1.4978587258475429 0 0 0 0 8.1733690027328976 94.61341649998468 0 94.61341649998468 3.6736144229071783 0 0 0 0 8.1538610310528838 94.444055436143444 0 94.444055436143444 3.4380856205921475 0 0 0 0 7.5211835480461104 93.316380479778701 0 93.316380479778701 4.6499822432154758 0 0 0 0 7.4967661705804858 92.752534125442821 0 92.752534125442821 3.6710676000516571 0 0 0 0 12.744755704866066 93.517042383561289 0 93.517042383561289 2.8735871814800191 0 0 0 0 17.700067532710364 92.034042792696482 0 92.034042792696482 1.4765882865141009 0 0 0 0 17.74147284627702 89.821434443497964 0 89.821434443497964 0.52949052611597835 0 0 0 0 19.458436401415462 91.560267580822739 0 91.560267580822739 1.7778146346390429 0 0 0 0 19.38021514982961 93.218316091904597 0 93.218316091904597 1.3074687944701324 0 0 0 0 12.706389073059626 92.618045360359289 0 92.618045360359289 2.5285720612229738 0 0 0 0 13.667561605107508 94.070440692487992 0 94.070440692487992 2.372636277905869 0 0 0 0 18.11571350195868 92.542828385922178 0 92.542828385922178 1.220447012200367 0 0 0 0 20.724762286293981 94.57972548781575 0 94.57972548781575 0.003428415953361269 0 0 0 0 27.666986208120306 93.053133165542334 0 93.053133165542334 0.1915241639420131 0 0 0 0 24.524986560969865 90.892031353030049 0 90.892031353030049 1.4034731579723354 0 0 0 0 29.098417514491757 93.680072826278973 0 93.680072826278973 -0.00039013776356550123 0 0 0 0 36.954353842372939 88.879380359571755 0 88.879380359571755 0.17500431965263552 0 0 0 0 27.987261129109584 90.745982269572806 0 90.745982269572806 1.7714605044721949 0 0 0 0 36.507364351439833 90.972677720737977 0 90.972677720737977 -1.3894962964445199 0 0 0 0 25.282960353431008 91.829649977916802 0 91.829649977916802 0.090271421973938004 0 0 0 0 25.679548763675712 88.289177404683798 0 88.289177404683798 -1.0686382789400994 0 0 0 0 31.161620405891366 88.050417804153682 0 88.050417804153682 -2.5122380027539464 0 0 0 0 22.405818747533658 85.659910248293755 0 85.659910248293755 -2.5166837840920664 0 0 0 0 22.390492502282946 89.519674279364239 0 89.519674279364239 -0.5268313078811957 0 0 0 0 25.338737950816039 85.21415547049709 0 85.21415547049709 -2.8816551427432557 0 0 0 0 18.898579278872148 83.349842765194154 0 83.349842765194154 -2.8953265906486081 0 0 0 0 20.47437885854335 82.843910285186681 0 82.843910285186681 -2.828443495025283 0 0 0 0 15.359467403095323 81.37949075761756 0 81.37949075761756 -2.8564140068287998 0 0 0 0 15.352187831688752 84.849850776424034 0 84.849850776424034 -1.051937770231234 0 0 0 0 18.839436447326786 87.0232588397119 0 87.0232588397119 -0.96054893389566587 0 0 0 0 13.464491226220161 85.394237615873863 0 85.394237615873863 -1.0506606293758409 0 0 0 0 8.985176195812528 86.437561188930516 0 86.437561188930516 0.45572297512319437 0 0 0 0 10.457845196555127 88.46874079272763 0 88.46874079272763 1.0518222358717821 0 0 0 0 13.478624544365807 87.924344207783463 0 87.924344207783463 0.67181790416503873 0 0 0 0 15.774900095937959 90.08349993540817 0 90.08349993540817 1.1224054111702344 0 0 0 0 15.731130439107346 87.557894205486178 0 87.557894205486178 -0.56002480924854581 0 0 0 0 11.650105213637971 90.651522736906571 0 90.651522736906571 1.8447496543861064 0 0 0 0 11.710032953883001 92.006375449485148 0 92.006375449485148 3.0517276432495919 0 0 0 0 6.9734006112782367 91.631390125419131 0 91.631390125419131 4.5263363589542678 0 0 0 0 6.9247657865498695 90.786292108165355 0 90.786292108165355 3.1706248217587643 0 0 0 0 10.496322517874678 90.157851649159568 0 90.157851649159568 2.6227076875065336 0 0 0 0 6.2416026542607597 88.774155676186439 0 88.774155676186439 2.4374715630234505 0 0 0 0 8.9404024368925548 88.289382695777192 0 88.289382695777192 2.113602594278575 0 0 0 0 6.2330024183340509 89.927593529883779 0 89.927593529883779 3.9353435048907386 0 0 0 0 3.1312512288618564 90.415794440583255 0 90.415794440583255 4.3838736020252611 0 0 0 0 2.8033917182692676 88.630997996096227 0 88.630997996096227 3.5781190970687362 0 0 0 0 2.7742947850392738 89.402994995322018 0 89.402994995322018 5.0489624103606729 0 0 0 0 0.0013730552773267846 89.830989462285316 0 89.830989462285316 5.5004628455106683 0 0 0 0 3.1310238439455134 91.044566455346256 0 91.044566455346256 5.8621987201387924 0 0 0 0 0.0030049297070036118 91.624349088942466 0 91.624349088942466 6.2215273124689929 0 0 0 0 3.3322954942354954 92.386152126573776 0 92.386152126573776 4.9652706317729098 0 0 0 0 3.3436698093406036 92.701739792029827 0 92.701739792029827 6.3322026292215696 0 0 0 0 0.00096312849700552761 85.530817283153965 0 85.530817283153965 2.3471237776144562 0 0 0 0 1.2566292785503492 86.413797104292399 0 86.413797104292399 2.8574172698376969 0 0 0 0 2.225193015868399 85.302945581828737 0 85.302945581828737 1.6977647118303594 0 0 0 0 1.9368887871014522 86.571982067774798 0 86.571982067774798 2.8574172698376574 0 0 0 0 0.00093737956032293964 87.126412089600208 0 87.126412089600208 3.6845086337302746 0 0 0 0 2.2587313969320348 88.009745460784075 0 88.009745460784075 4.028666499642668 0 0 0 0 0.0017588041919225361 88.260511156436223 0 88.260511156436223 4.6284959564007977 0 0 0 0 2.2917959277634736 87.071357302423721 0 87.071357302423721 2.936991334180334 0 0 0 0 2.5134134355651554 87.168852278988695 0 87.168852278988695 2.8852689081876406 0 0 0 0 5.0788859613164732 88.379764554106146 0 88.379764554106146 3.2032617821245708 0 0 0 0 5.3335702100609694 87.063024453311158 0 87.063024453311158 1.900500703535613 0 0 0 0 7.297731427304825 86.739531798562666 0 86.739531798562666 1.5532391832618941 0 0 0 0 4.3030934464391066 85.949192950734869 0 85.949192950734869 1.3462019099039821 0 0 0 0 6.6642922934502167 84.673699263297578 0 84.673699263297578 0.66976709266623402 0 0 0 0 4.275206128269474 86.002767856883395 0 86.002767856883395 1.7814710393529367 0 0 0 0 2.6683943274242665 85.676748124708865 0 85.676748124708865 1.7814710393528725 0 0 0 0 4.3295708498776548 84.398159026975065 0 84.398159026975065 0.66976709266623402 0 0 0 0 4.3193995657877622 84.431684351264323 0 84.431684351264323 0.81341837839204345 0 0 0 0 6.2970281325119686 82.882270403375912 0 82.882270403375912 -0.038919896851912661 0 0 0 0 5.928107538909444 82.412328246607757 0 82.412328246607757 -0.56008550032788662 0 0 0 0 9.2020689704770575 82.779804137334281 0 82.779804137334281 -0.56008550032788662 0 0 0 0 7.6135564859169733 84.874999840782323 0 84.874999840782323 0.25109938583057101 0 0 0 0 6.8606692505093179 84.701436567700398 0 84.701436567700398 0.37431056249442918 0 0 0 0 10.976549204872981 86.047186887410049 0 86.047186887410049 0.27800917072369202 0 0 0 0 10.891292904356952 83.525609940258079 0 83.525609940258079 -1.0940744009218406 0 0 0 0 12.906102402131637 82.889594170022519 0 82.889594170022519 -1.2104922856531175 0 0 0 0 8.604752628285496 82.02711870787914 0 82.02711870787914 -1.3748360406535767 0 0 0 0 16.349143000838694 80.872926809931101 0 80.872926809931101 -2.6012636264445632 0 0 0 0 12.202865526813838 79.883856107539259 0 79.883856107539259 -2.377615812617023 0 0 0 0 10.730437276966541 79.580723407812002 0 79.580723407812002 -2.0835665376492898 0 0 0 0 11.141974628536218 80.092993571278498 0 80.092993571278498 -1.4484931179482601 0 0 0 0 8.0851005730307861 80.622982672012029 0 80.622982672012029 -0.83258970769520602 0 0 0 0 7.3524901707960453 79.829708612016134 0 79.829708612016134 -1.4484931179483098 0 0 0 0 9.536752056829755 77.841494872328525 0 77.841494872328525 -1.5046924480254802 0 0 0 0 5.222223553246522 77.641247540719007 0 77.641247540719007 -1.5024821248166518 0 0 0 0 4.4998439104169847 80.424742318078358 0 80.424742318078358 -0.83447112297830373 0 0 0 0 6.4558581149465226 78.829344221528913 0 78.829344221528913 -0.86052919412088613 0 0 0 0 2.7523109149969969 78.67638327265422 0 78.67638327265422 -0.85076790877260322 0 0 0 0 4.4853315305066417 77.016599801908512 0 77.016599801908512 -0.54939703660363648 0 0 0 0 0.55432737714818359 76.938075851420535 0 76.938075851420535 -0.55027893493843294 0 0 0 0 0.4686984739428226 79.582866635847836 0 79.582866635847836 -0.31740583008695467 0 0 0 0 1.9158052327495625 78.335027492912332 0 78.335027492912332 -0.017995891926606333 0 0 0 0 3.8248854467465208 79.644419868174452 0 79.644419868174452 -0.32046728295449611 0 0 0 0 1.6269910064020223 80.667634726180552 0 80.667634726180552 -0.010259173061967886 0 0 0 0 0.34881554319258612 81.766673992171945 0 81.766673992171945 -0.044129035967785057 0 0 0 0 2.9866497743003038 81.838708285812402 0 81.838708285812402 -0.045306223618695185 0 0 0 0 2.1938576629772797 81.090882700166048 0 81.090882700166048 -0.33466977175692136 0 0 0 0 5.277017559097203 81.242128540030251 0 81.242128540030251 -0.33448313736346336 0 0 0 0 3.5264973017006014 82.675535534416554 0 82.675535534416554 -0.040429743664897266 0 0 0 0 2.3506553217034707 84.279947024000705 0 84.279947024000705 0.80831121166607645 0 0 0 0 3.9133494731502196 83.091227484814084 0 83.091227484814084 0.2260113278201743 0 0 0 0 2.5217224513498877 84.451720303562098 0 84.451720303562098 0.84890774755422171 0 0 0 0 0.97964197121723373 84.24778845065191 0 84.24778845065191 0.82434399696921901 0 0 0 0 1.6119437841989566 82.954068504469888 0 82.954068504469888 0.22492062212233854 0 0 0 0 2.1304948933388914 83.417832049000026 0 83.417832049000026 0.25351255222983582 0 0 0 0 0.1664656658772401 83.337983525801576 0 83.337983525801576 0.25178857535149746 0 0 0 0 1.1990232877733433 82.517570061880122 0 82.517570061880122 0.0082837849868155899 0 0 0 0 0.77207133197623534 83.819510023391501 0 83.819510023391501 0.014502660478342477 0 0 0 0 1.1068385187418244 84.277128973812523 0 84.277128973812523 0.58458443538768279 0 0 0 0 0.058446062374969188 84.149185847045771 0 84.149185847045771 0.57060318781134356 0 0 0 0 0.33640929029286326 84.715296747223931 0 84.715296747223931 0.35697455601371075 0 0 0 0 2.1280166038195603e-06 84.303983633290727 0 84.303983633290727 0.011462404682902161 0 0 0 0 6.6200381752423709e-05 84.516608656698281 0 84.516608656698281 0.82338737390841743 0 0 0 0 0.59200491179763048 85.068989378663844 0 85.068989378663844 1.3228751782686459 0 0 0 0 0.00092944663811067585 84.863844597048171 0 84.863844597048171 1.5854645949589212 0 0 0 0 1.0453677834311748 85.07309777655081 0 85.07309777655081 1.6567404385321822 0 0 0 0 1.2773912181638707 85.661623199837692 0 85.661623199837692 2.0803582627602282 0 0 0 0 4.1245419123800957 68.583245190706833 0 68.583245190706833 -1.8069969394922314 0 0 0 0 3.9359387166846886 69.717507236021703 0 69.717507236021703 -1.5739217424470553 0 0 0 0 2.7215501654358718 68.581896222550057 0 68.581896222550057 -0.98730244267920853 0 0 0 0 2.7114180176666878 68.762079857306077 0 68.762079857306077 -1.8069969394922571 0 0 0 0 0.77751531982613642 68.095680814834338 0 68.095680814834338 -0.43091994453033067 0 0 0 0 0.0073749869911807764 67.513537826599872 0 67.513537826599872 -0.0021986604370769548 0 0 0 0 1.4759522390752409 67.823000093197578 0 67.823000093197578 -0.98097769847771588 0 0 0 0 2.118601068362068 67.617222485532352 0 67.617222485532352 -0.98097769847769534 0 0 0 0 2.3529504243750239 66.824321563891587 0 66.824321563891587 -1.7336656532058328 0 0 0 0 0.84373643564680378 66.703999334133343 0 66.703999334133343 -0.76305969941068952 0 0 0 0 2.4689821868557829 66.275047637600551 0 66.275047637600551 -0.65041587154181002 0 0 0 0 -0.10747215707366387 65.424546430389896 0 65.424546430389896 -0.55453818390913057 0 0 0 0 5.328001659803931 66.247346982900609 0 66.247346982900609 -2.0458154269216209 0 0 0 0 3.1273941485535488 67.270027454352075 0 67.270027454352075 -1.5420006266254518 0 0 0 0 4.4869053778745638 68.670210693171668 0 68.670210693171668 -2.7561447396917629 0 0 0 0 6.7103957097156126 68.390812329076681 0 68.390812329076681 -2.7355080364235391 0 0 0 0 5.0454803584594998 67.497141075562268 0 67.497141075562268 -3.1121270748927827 0 0 0 0 8.4772169831320525 69.521836270456106 0 69.521836270456106 -3.9841548008862162 0 0 0 0 16.954433966263757 72.889419573933466 0 72.889419573933466 -4.0500365689580349 0 0 0 0 12.413095736998685 72.584126357502726 0 72.584126357502726 -3.2387537800304926 0 0 0 0 6.236521185657466 69.753177076251518 0 69.753177076251518 -3.4264067223427901 0 0 0 0 6.2065478684993423 70.16208980413721 0 70.16208980413721 -3.1230461666057749 0 0 0 0 15.419645571150568 76.905046720933484 0 76.905046720933484 -3.6916031377528498 0 0 0 0 16.119551150085556 76.275255526880983 0 76.275255526880983 -3.1340368280937128 0 0 0 0 14.79874571906339 72.612968799555745 0 72.612968799555745 -3.5794844060857258 0 0 0 0 11.320073584024613 75.64313266851633 0 75.64313266851633 -3.1905624772115289 0 0 0 0 12.722281891605235 76.913991452161639 0 76.913991452161639 -2.3751565331472193 0 0 0 0 13.054473360394127 73.181459339904848 0 73.181459339904848 -2.6854654386218044 0 0 0 0 10.203359137589587 74.979052222945228 0 74.979052222945228 -1.9558158250906672 0 0 0 0 8.8751502915484934 73.031150050514839 0 73.031150050514839 -2.6854654386218044 0 0 0 0 8.4323910285777401 76.633808829980126 0 76.633808829980126 -2.3751565331472051 0 0 0 0 5.5181445439525874 70.144270749165258 0 70.144270749165258 -2.3990047321140082 0 0 0 0 8.8558631282851366 72.708230293029601 0 72.708230293029601 -2.0203387603874035 0 0 0 0 4.427931564142682 70.752384292340508 0 70.752384292340508 -1.8936194396923725 0 0 0 0 3.7295174544799465 70.150484591298493 0 70.150484591298493 -2.3990047321139762 0 0 0 0 2.9660178914507469 70.719456108660069 0 70.719456108660069 -1.6736550422364758 0 0 0 0 2.7910577607826128 70.910799962847292 0 70.910799962847292 -1.3512176196297787 0 0 0 0 5.5821155215650196 72.825714379345442 0 72.825714379345442 -1.3285229192713359 0 0 0 0 1.7115634127056865 70.903430380918564 0 70.903430380918564 -1.0179243427613756 0 0 0 0 7.0274486975272339 75.883666477929523 0 75.883666477929523 -1.1903951053527635 0 0 0 0 6.2467742247679325 75.120204686290151 0 75.120204686290151 -1.8846455730239313 0 0 0 0 7.1297225977584731 72.649726240419568 0 72.649726240419568 -1.8319077187580319 0 0 0 0 3.5485094224800378 72.668620800785561 0 72.668620800785561 -1.0916685308488923 0 0 0 0 3.3013244536762159 75.854226320283942 0 75.854226320283942 -1.1606560110399897 0 0 0 0 4.6523236684643052 74.514181521158946 0 74.514181521158946 -0.70140014770686321 0 0 0 0 1.9338100314174653 72.638650737507533 0 72.638650737507533 -0.37110369838842416 0 0 0 0 0.89572034516118038 74.599276378184356 0 74.599276378184356 -0.68270869092533815 0 0 0 0 1.9023738936625705 75.640289160998691 0 75.640289160998691 -0.033600504001924492 0 0 0 0 1.3405945102235819 71.105172803794659 0 71.105172803794659 -0.65073199801332748 0 0 0 0 2.6811890204471638 72.756956910128338 0 72.756956910128338 -0.66799911999225969 0 0 0 0 0.0059436339174681052 72.831679664409478 0 72.831679664409478 -0.00015534635701897059 0 0 0 0 0.0029718169587340526 71.09759336870809 0 71.09759336870809 0.0027128917214440662 0 0 0 0 0.54763117959021201 71.008478184265272 0 71.008478184265272 -0.28174158060943455 0 0 0 0 0.53938047220656715 70.141437076661944 0 70.141437076661944 -0.25185220721641599 0 0 0 0 0.80111389369487807 69.350335022856811 0 69.350335022856811 -0.33371236053073972 0 0 0 0 0.80909920438455174 69.991887269416509 0 69.991887269416509 -0.50809986597991497 0 0 0 0 1.6598414519609221 69.978505114418439 0 69.978505114418439 -0.79620298209442808 0 0 0 0 1.6775410557627737 69.02410531186986 0 69.02410531186986 -0.74529683593425489 0 0 0 0 1.8084938020109576 69.772904028622634 0 69.772904028622634 -1.0417755669614337 0 0 0 0 2.7098608918103793 69.714647262494609 0 69.714647262494609 -1.531822484324266 0 0 0 0 1.1427581869755841 68.269980557618112 0 68.269980557618112 -0.36628771596033971 0 0 0 0 0.037599503451644978 68.533230967543346 0 68.533230967543346 -0.24229834951796647 0 0 0 0 1.1878030081171573 68.716624585455321 0 68.716624585455321 -0.93832865752878547 0 0 0 0 0.6804489509687528 69.14678774624042 0 69.14678774624042 -0.52972433984064082 0 0 0 0 0.66264209542623576 68.776110606468222 0 68.776110606468222 -0.17007657988472147 0 0 0 0 0.010493595558386914 68.924003170356229 0 68.924003170356229 -0.1274256562758751 0 0 0 0 0.21807932826482102 69.379782650537038 0 69.379782650537038 -0.16720090216335848 0 0 0 0 0.21387243116078025 69.043011410590793 0 69.043011410590793 -0.057798613210479743 0 0 0 0 -0.001817801927361195 69.054564688433956 0 69.054564688433956 0.00079427146101807011 0 0 0 0 -0.21412402885562187 69.04128246745762 0 69.04128246745762 0.05615637498885917 0 0 0 0 -0.2140533752340702 69.375799435890656 0 69.375799435890656 0.17223829702527382 0 0 0 0 -0.015310488256773169 68.924157178938401 0 68.924157178938401 0.12512991553057873 0 0 0 0 -0.65295218198320981 68.768229130617812 0 68.768229130617812 0.16501356470899964 0 0 0 0 -0.66343085339171814 69.140526263432051 0 69.140526263432051 0.5272445910973147 0 0 0 0 -1.1957137118566834 68.729157050255083 0 68.729157050255083 0.93792087295383908 0 0 0 0 -1.1149474230289798 68.266487129172162 0 68.266487129172162 0.37488013236043116 0 0 0 0 -0.033144493891143156 68.535771131323173 0 68.535771131323173 0.23600837189877666 0 0 0 0 -1.7919914389963196 69.769967138536956 0 69.769967138536956 1.04532091221256 0 0 0 0 -2.6984703909538439 69.719354773621774 0 69.719354773621774 1.5263764415944934 0 0 0 0 -1.6516586427708262 69.034664817362568 0 69.034664817362568 0.73456432515496317 0 0 0 0 -1.6624997895554543 69.977486547220934 0 69.977486547220934 0.78967551107479039 0 0 0 0 -0.80244749653757141 69.988646309538979 0 69.988646309538979 0.51506714149218169 0 0 0 0 -0.79777717125443814 69.348204689065426 0 69.348204689065426 0.33481107507247998 0 0 0 0 -0.0010273289831275179 69.462710755424467 0 69.462710755424467 0.00088529555222294221 0 0 0 0 -0.5355960678913334 70.141019494067024 0 70.141019494067024 0.25728118419436896 0 0 0 0 -0.00022294581549431314 70.075697275780016 0 70.075697275780016 0.0031340269339352744 0 0 0 0 -0.54322567344991057 71.007662317332944 0 71.007662317332944 0.28862215529773039 0 0 0 0 -2.6580198978138014 72.775540673977389 0 72.775540673977389 0.63843756272535757 0 0 0 0 -1.329009948906787 71.101071406484408 0 71.101071406484408 0.65214806293238325 0 0 0 0 -1.6594127745338483 75.624607965876294 0 75.624607965876294 -0.032219275049243379 0 0 0 0 -1.7869317054853582 72.633935455818914 0 72.633935455818914 0.37167640542668323 0 0 0 0 -0.88480563199965445 74.843414522536932 0 74.843414522536932 0.65308136712724263 0 0 0 0 -4.5078184726760355 74.623961061623504 0 74.623961061623504 0.71665317563576991 0 0 0 0 -3.0847796284217566 75.989624885481305 0 75.989624885481305 1.1243379884876958 0 0 0 0 -3.4971215015040116 72.775459329255199 0 72.775459329255199 1.0969808718646163 0 0 0 0 -6.1338337569454779 75.162102084091657 0 75.162102084091657 1.8931687961139687 0 0 0 0 -7.1385578406952845 72.673210478784426 0 72.673210478784426 1.8454111911260043 0 0 0 0 -6.8992379451681245 75.943556842463465 0 75.943556842463465 1.160200076377123 0 0 0 0 -1.6967441875666012 70.898950895197956 0 70.898950895197956 1.0177798092153125 0 0 0 0 -5.5713048566337875 72.864700925449938 0 72.864700925449938 1.337829597689165 0 0 0 0 -2.7856524283170074 70.910918912613084 0 70.910918912613084 1.3564290565981878 0 0 0 0 -2.9779137655273189 70.718125970370579 0 70.718125970370579 1.6809885110773166 0 0 0 0 -3.7296272186531496 70.150968948360685 0 70.150968948360685 2.4185280441345185 0 0 0 0 -4.4158582031473088 70.753560321683779 0 70.753560321683779 1.899576281982263 0 0 0 0 -8.831716406294726 72.711560282710209 0 72.711560282710209 2.0441774213472854 0 0 0 0 -5.5346110697764743 70.141648515584109 0 70.141648515584109 2.4185280441345185 0 0 0 0 -8.3715489389064714 76.692313783200461 0 76.692313783200461 2.3795125137667128 0 0 0 0 -8.8657848098196155 73.020193618355279 0 73.020193618355279 2.6955124961623369 0 0 0 0 -10.23689351665189 75.02946222648643 0 75.02946222648643 1.9507593624238666 0 0 0 0 -12.881073375526739 73.131476438272102 0 73.131476438272102 2.6955124961623369 0 0 0 0 -12.689423148472088 76.918269593514594 0 76.918269593514594 2.3795125137667128 0 0 0 0 -11.281058102942552 75.429746002414845 0 75.429746002414845 3.3108143532767826 0 0 0 0 -16.412193162487256 76.036756719868777 0 76.036756719868777 3.2551875308789135 0 0 0 0 -15.198320291251889 72.614617449489032 0 72.614617449489032 3.615201848843526 0 0 0 0 -14.380635037213551 77.519578863106403 0 77.519578863106403 3.8151125418280571 0 0 0 0 -6.1970708901194484 70.16150332328067 0 70.16150332328067 3.1206974798703868 0 0 0 0 -6.3574092757606877 69.791941037852951 0 69.791941037852951 3.4127171198389874 0 0 0 0 -12.394141780238897 72.615637091334406 0 72.615637091334406 3.240259594750114 0 0 0 0 -17.003780743488733 72.810704593310447 0 72.810704593310447 4.2152827406387132 0 0 0 0 -8.5018903717440253 69.534611499142045 0 69.534611499142045 3.9833743850360861 0 0 0 0 -5.2061515689212001 67.585562250864598 0 67.585562250864598 3.1402498524688554 0 0 0 0 -6.6917294979345172 68.426862914569824 0 68.426862914569824 2.7483050097700925 0 0 0 0 -4.4958549730110917 68.660435903445148 0 68.660435903445148 2.7586432108836902 0 0 0 0 -3.084991041432886 67.340672948667759 0 67.340672948667759 1.5675706480029987 0 0 0 0 -5.4124066535141537 66.34304678547835 0 66.34304678547835 2.1386667554994574 0 0 0 0 -0.12632002600923897 65.500863545087839 0 65.500863545087839 0.68359172464732865 0 0 0 0 -0.830928439417562 66.703907880249005 0 66.703907880249005 0.80224217742599535 0 0 0 0 -2.6016844719774781 66.290828575875935 0 66.290828575875935 0.7067490137698087 0 0 0 0 -2.5415551731008463 66.931406194578301 0 66.931406194578301 1.7577609818265501 0 0 0 0 -2.2626686826202445 67.607581971357661 0 67.607581971357661 0.98508407086217176 0 0 0 0 -0.028783421177990931 67.231130784593063 0 67.231130784593063 -0.00147002093399351 0 0 0 0 -0.78681931205625233 68.100366423804132 0 68.100366423804132 0.43486649253770793 0 0 0 0 -0.020398075995501586 67.506491654368546 0 67.506491654368546 -0.0014700209341071968 0 0 0 0 -1.4906182412922817 67.816086374321202 0 67.816086374321202 0.98508407086217176 0 0 0 0 -2.7171441969981629 68.758958637086835 0 68.758958637086835 1.7994309558634995 0 0 0 0 -2.708928332245705 68.605756066964091 0 68.605756066964091 0.99140912456755359 0 0 0 0 -3.928825679776196 69.725340523447869 0 69.725340523447869 1.5796886355210802 0 0 0 0 -4.1383218320311812 68.57949085070058 0 68.57949085070058 1.7994309558634995 0 0 0 0 -1.290170625576593 85.686043080250556 0 85.686043080250556 -2.0997563413454827 0 0 0 0 -1.044749249201459 85.045070559532405 0 85.045070559532405 -1.6513298018990099 0 0 0 0 -0.00094101922832123819 84.851828753540644 0 84.851828753540644 -1.5661688028354774 0 0 0 0 -0.57059991996175086 85.068139345176064 0 85.068139345176064 -1.3315872461093932 0 0 0 0 -7.3147037516322822e-05 84.502647039491805 0 84.502647039491805 -0.78119692319387468 0 0 0 0 -0.32476380620482814 84.721151388624094 0 84.721151388624094 -0.36180196369286932 0 0 0 0 -0.023269339829880664 84.126228226348388 0 84.126228226348388 -0.52363812184398739 0 0 0 0 -1.0864288949503589 84.279627734268331 0 84.279627734268331 -0.54513023897538915 0 0 0 0 -0.71751417355471858 83.830715198171561 0 83.830715198171561 0.014551718625472887 0 0 0 0 -0.057092295687425576 83.329107144921636 0 83.329107144921636 -0.22909264754662217 0 0 0 0 -1.0725837984487043 82.520955475588153 0 82.520955475588153 0.0082788828965090211 0 0 0 0 -2.0400914162187291 83.394566873826193 0 83.394566873826193 -0.2291746484356677 0 0 0 0 -1.5046061296791322 82.914063505169224 0 82.914063505169224 -0.21379924659663629 0 0 0 0 -0.9159578823848733 84.203043242106446 0 84.203043242106446 -0.79900522101161187 0 0 0 0 -2.4999358015611506 84.439929017874988 0 84.439929017874988 -0.83305313108184009 0 0 0 0 -2.2929053528177974 84.22954148371042 0 84.22954148371042 -0.79925116464210078 0 0 0 0 -3.8100732155742207 83.053978906187524 0 83.053978906187524 -0.21417235768785758 0 0 0 0 -3.4444226211530804 82.657890746448288 0 82.657890746448288 0.045259449010536912 0 0 0 0 -5.1464745445766766 81.194077947319045 0 81.194077947319045 0.34575272961251358 0 0 0 0 -2.0618727959863463 81.039426398844796 0 81.039426398844796 0.34420018642049399 0 0 0 0 -2.8457823444468886 81.81419151495561 0 81.81419151495561 0.039218923897806235 0 0 0 0 -0.17792941626976244 81.739132475115582 0 81.739132475115582 0.039426042902505287 0 0 0 0 -1.3816219852783433 80.683793299156605 0 80.683793299156605 -0.010312905546031814 0 0 0 0 -3.5812906718697377 79.702556178490227 0 79.702556178490227 0.2786623761295921 0 0 0 0 -0.26057394319354898 79.646685098311139 0 79.646685098311139 0.27780511423065946 0 0 0 0 -1.6359334290445986 78.340336062589472 0 78.340336062589472 -0.017722751241757706 0 0 0 0 -0.28670314238604533 77.097496955830991 0 77.097496955830991 0.48276661358249839 0 0 0 0 -4.1704018074965461 77.168341416856606 0 77.168341416856606 0.48220621696869337 0 0 0 0 -2.5959539104396754 78.687719188016445 0 78.687719188016445 0.81133810723576971 0 0 0 0 -4.4154801240738379 80.406777136811627 0 80.406777136811627 0.86055286570376666 0 0 0 0 -6.178623557310857 78.817576193444893 0 78.817576193444893 0.82011293680384512 0 0 0 0 -5.1301864111408122 77.737988809626586 0 77.737988809626586 1.4757201403372164 0 0 0 0 -9.3644389013968521 77.823380626704648 0 77.823380626704648 1.4982517943383158 0 0 0 0 -7.2489086343592817 79.788111676914525 0 79.788111676914525 1.5920525255801294 0 0 0 0 -7.9982989490606542 80.668300668625534 0 80.668300668625534 0.85214963551807443 0 0 0 0 -11.529736215981302 80.085208925352845 0 80.085208925352845 1.5920525255799969 0 0 0 0 -10.510104099636919 78.87233083870143 0 78.87233083870143 2.6106220827916786 0 0 0 0 -15.909307642662498 79.262534207074793 0 79.262534207074793 2.6066919416516612 0 0 0 0 -12.550127405003877 81.845651145416014 0 81.845651145416014 2.2665708038267596 0 0 0 0 -13.034218123497794 82.53686697177659 0 82.53686697177659 1.3012703772924397 0 0 0 0 -8.907081437967463 82.171664337427728 0 82.171664337427728 1.2975394623463217 0 0 0 0 -9.9595216490549774 84.954566541383826 0 84.954566541383826 0.45233793795659949 0 0 0 0 -9.7599537605360638 84.962900039921124 0 84.962900039921124 -0.17699536141071803 0 0 0 0 -6.8366161561020817 84.664683274744448 0 84.664683274744448 -0.17927041330312932 0 0 0 0 -9.3065112932079046 82.734795185023756 0 82.734795185023756 0.54508654937581014 0 0 0 0 -5.9236506148238277 82.428437714594509 0 82.428437714594509 0.54508654937581014 0 0 0 0 -6.2325580732676826 82.840925501772745 0 82.840925501772745 0.055360704758207646 0 0 0 0 -4.278814290471928 84.425043494217562 0 84.425043494217562 -0.81060010623856726 0 0 0 0 -4.3159642933710529 84.414427011446207 0 84.414427011446207 -0.65021289832202456 0 0 0 0 -2.6791299084413822 85.676371278860188 0 85.676371278860188 -1.8507720493910256 0 0 0 0 -4.1174689901095007 85.964380281249817 0 85.964380281249817 -1.8507720493910256 0 0 0 0 -6.7232529906109448 84.700429037257436 0 84.700429037257436 -0.65021289832179718 0 0 0 0 -4.5296366681670861 86.28057028337787 0 86.28057028337787 -1.6287217421850073 0 0 0 0 -6.4347072861960442 86.471419177569999 0 86.471419177569999 -1.6206784570604214 0 0 0 0 -7.102201144679384 86.968460780467183 0 86.968460780467183 -1.3347620520607961 0 0 0 0 -4.2757728447575118 88.128930039791953 0 88.128930039791953 -3.0294112853994193 0 0 0 0 -2.7563051748084035 87.144123146740867 0 87.144123146740867 -2.982260266512327 0 0 0 0 -2.2547097134993237 87.050604500682084 0 87.050604500682084 -3.0177575789423088 0 0 0 0 -0.0027155332281836309 88.382714022699588 0 88.382714022699588 -4.6899114446639487 0 0 0 0 -2.320669855473966 88.048912247131597 0 88.048912247131597 -4.0739805584244095 0 0 0 0 -0.00054075102843853529 87.170670832502879 0 87.170670832502879 -3.7419015815416969 0 0 0 0 -1.9518232499738133 86.615484329257924 0 86.615484329257924 -2.9009920890864578 0 0 0 0 -2.2898160884119534 85.315065310361888 0 85.315065310361888 -1.7083962948445333 0 0 0 0 -1.2922479884173299 86.459508498389937 0 86.459508498389937 -2.9009920890864578 0 0 0 0 -0.001068558844833344 85.54959707744176 0 85.54959707744176 -2.3723486767623854 0 0 0 0 -2.9958732296627204 92.561983150073502 0 92.561983150073502 -6.3609174779448949 0 0 0 0 -3.3510608843805585 93.210294462045113 0 93.210294462045113 -5.4085984677114993 0 0 0 0 -0.0044790036963604507 91.639438277980162 0 91.639438277980162 -6.2876023683421636 0 0 0 0 1.0644359593032651e-05 89.917869284532401 0 89.917869284532401 -5.552329918518808 0 0 0 0 -2.7370407388320928 91.178368042492821 0 91.178368042492821 -5.9660771010030658 0 0 0 0 -2.5641569376321058 89.260177696045844 0 89.260177696045844 -4.980737343916303 0 0 0 0 -2.9045312167411339 89.801845417349966 0 89.801845417349966 -4.5861901264431708 0 0 0 0 -3.3876381153291959 89.936562692884365 0 89.936562692884365 -4.5661607801075661 0 0 0 0 -5.372819305026951 88.283215270172491 0 88.283215270172491 -2.9914382090535412 0 0 0 0 -6.5934822560468547 89.261017517319544 0 89.261017517319544 -2.7278772414617833 0 0 0 0 -9.3936528909316621 87.19755311524068 0 87.19755311524068 -1.3328362185798941 0 0 0 0 -8.1044333962840938 89.297529489279668 0 89.297529489279668 -2.7268224759126589 0 0 0 0 -9.6313391311639407 90.448186249382104 0 90.448186249382104 -2.3423725699690294 0 0 0 0 -5.4969760283727283 91.369307903052288 0 91.369307903052288 -4.277232513249146 0 0 0 0 -6.4527773777231232 91.369132623042105 0 91.369132623042105 -4.2768892013035185 0 0 0 0 -8.1707378823834915 92.804172791594851 0 92.804172791594851 -3.5597651927250809 0 0 0 0 -11.560616146866096 90.328050049460785 0 90.328050049460785 -2.3406544120775834 0 0 0 0 -13.370042656006717 91.71606750293688 0 91.71606750293688 -1.7939905420806337 0 0 0 0 -17.552189557523207 88.553975341468231 0 88.553975341468231 -0.19651501633234147 0 0 0 0 -14.140758858561412 88.639351192941604 0 88.639351192941604 -0.19825536929420196 0 0 0 0 -13.081752566654359 87.910671157465003 0 87.910671157465003 -0.7901857106510306 0 0 0 0 -10.225358219900727 87.762569604537816 0 87.762569604537816 -0.78819671444125561 0 0 0 0 -13.679519868474017 85.254355320858394 0 85.254355320858394 0.45271166175982547 0 0 0 0 -18.451781663341762 85.386984128072527 0 85.386984128072527 1.3570691167757758 0 0 0 0 -13.733806821584835 85.043806395401759 0 85.043806395401759 1.3673698251752739 0 0 0 0 -17.875779644115937 82.302487914374296 0 82.302487914374296 2.2473252783757616 0 0 0 0 -16.847081669091381 81.025963376257096 0 81.025963376257096 3.4865020333036227 0 0 0 0 -23.7280689742812 81.378678884945316 0 81.378678884945316 3.4915847554555057 0 0 0 0 -18.925165670846923 85.470912029506735 0 85.470912029506735 2.2934631658724811 0 0 0 0 -19.07725887059928 89.706710395389791 0 89.706710395389791 0.28859387316060747 0 0 0 0 -24.312404097651779 85.613115446651022 0 85.613115446651022 2.2958705277096279 0 0 0 0 -24.928286244435412 85.88897456000484 0 85.88897456000484 3.007205415834278 0 0 0 0 -32.123769473830976 85.533126399138155 0 85.533126399138155 3.0106615809897903 0 0 0 0 -22.923522294220902 88.997145218000924 0 88.997145218000924 0.28045880564448744 0 0 0 0 -25.303738153865879 91.013561414156243 0 91.013561414156243 0.42667379447766507 0 0 0 0 -28.88500757334964 89.232343326071259 0 89.232343326071259 0.32959007688729969 0 0 0 0 -32.748293829913109 92.741160619160382 0 92.741160619160382 -0.48838074577315638 0 0 0 0 -35.80464984677144 88.025036131172783 0 88.025036131172783 -1.0046424309903159 0 0 0 0 -25.181770810834564 90.525264573532922 0 90.525264573532922 -1.1719394984777409 0 0 0 0 -29.490450578932041 94.083875811076723 0 94.083875811076723 -0.0011277282658573103 0 0 0 0 -23.205760132840624 93.839209153976412 0 93.839209153976412 -1.3017294453434261 0 0 0 0 -20.805389626173678 94.743653270978371 0 94.743653270978371 -0.0023497757515542617 0 0 0 0 -17.467185911288652 92.241876073631261 0 92.241876073631261 -1.6663459851104108 0 0 0 0 -16.098712373118815 94.757893618883031 0 94.757893618883031 -1.5718008031992667 0 0 0 0 -20.157055203828691 91.155637522634265 0 91.155637522634265 -1.3759689248554423 0 0 0 0 -17.904629769683197 92.878826031534686 0 92.878826031534686 -1.3924922682560918 0 0 0 0 -15.614031104853893 90.972828482608179 0 90.972828482608179 -1.7852290334081662 0 0 0 0 -11.828843322864714 93.980969543939409 0 93.980969543939409 -2.6881744795407485 0 0 0 0 -9.6716759562473271 92.252781627544209 0 92.252781627544209 -3.5181762014730538 0 0 0 0 -6.5346836920583655 94.759438356024646 0 94.759438356024646 -4.0347559199460648 0 0 0 0 -7.8641116971984957 94.01047756765422 0 94.01047756765422 -3.8344775316975301 0 0 0 0 -13.379305275680508 92.664212333551632 0 92.664212333551632 -2.6598181074917733 0 0 0 0 -10.047233676876886 95.700113011231792 0 95.700113011231792 -2.1653018606505157 0 0 0 0 -14.223105305266017 95.664476329453464 0 95.664476329453464 0.0031026371543703135 0 0 0 0 -11.525111948018093 93.79134032723789 0 93.79134032723789 -2.0148384868093672 0 0 0 0 -8.9222765344284198 96.767190267893056 0 96.767190267893056 -0.018406248271276127 0 0 0 0 -4.3093433775620724 96.498694728857572 0 96.498694728857572 -3.1819518753573561 0 0 0 0 -6.2080308320200857 95.408048535933403 0 95.408048535933403 -2.7507224399654433 0 0 0 0 0.059862437765787035 97.586562903183562 0 97.586562903183562 -3.6355416252199575 0 0 0 0 -4.6269599815545916 98.082222399896523 0 98.082222399896523 0.059961800673590915 0 0 0 0 -3.998404969031526 95.855506298129171 0 95.855506298129171 -4.3590582737368777 0 0 0 0 -0.019807269715784059 95.487877883252281 0 95.487877883252281 -5.8090192671893419 0 0 0 0 -4.1442788888364248 93.133989736382546 0 93.133989736382546 -5.3713160573474852 0 0 0 0 0.0041546882262082363 93.61573357827865 0 93.61573357827865 -6.4615664036800808 0 0 0 0 -3.1989809999047338 94.587215665945337 0 94.587215665945337 -6.0306442894043357 0 0 0 0 -9.3288225795490689 62.514162496810854 0 62.514162496810854 3.0940104431306281 0 0 0 0 -9.3259241884766482 64.723448375786646 0 64.723448375786646 4.760846296564182 0 0 0 0 -14.886320960215926 63.497230451485564 0 63.497230451485564 5.1997852807381832 0 0 0 0 -5.4678121350764286 61.520774031312214 0 61.520774031312214 2.954145146309088 0 0 0 0 -5.4667073020414136 60.37672432266254 0 60.37672432266254 1.2684819019719953 0 0 0 0 -0.17440286330713661 61.608635923994484 0 61.608635923994484 0.931361236570865 0 0 0 0 -4.3217140352530476 63.66683166062915 0 63.66683166062915 2.7618164175737547 0 0 0 0 -4.3343689345307483 62.68750989069629 0 62.68750989069629 1.0734773145853751 0 0 0 0 -0.15369693883064883 63.74002671226242 0 63.74002671226242 0.8952280434491513 0 0 0 0 -3.3237904245490792 64.703149727036617 0 64.703149727036617 0.82459528772267277 0 0 0 0 -3.2836693492764688 65.527196594928299 0 65.527196594928299 2.346980962523503 0 0 0 0 -7.1213026386484444 64.627309686515275 0 64.627309686515275 2.5994860427815638 0 0 0 0 -7.1001866242371907 66.329486051797801 0 66.329486051797801 3.9662156535912345 0 0 0 0 -11.288472002383969 65.563769810439112 0 65.563769810439112 4.4440969247516477 0 0 0 0 -8.5213292549555035 67.126095048520426 0 67.126095048520426 3.5216646360644859 0 0 0 0 -8.4078744084939672 69.173308845018937 0 69.173308845018937 4.351666013531883 0 0 0 0 -22.662383685675543 72.954762732002735 0 72.954762732002735 5.1007644876576705 0 0 0 0 -11.262157025619331 68.332133031301623 0 68.332133031301623 5.6117546925276542 0 0 0 0 -11.331191842837958 68.873712012688372 0 68.873712012688372 5.0157553634508076 0 0 0 0 -20.466038742062437 78.121101250474908 0 78.121101250474908 3.7574252533026993 0 0 0 0 -21.208405094392219 72.568469516202867 0 72.568469516202867 4.7755344869343617 0 0 0 0 -18.889188201754905 76.356267690453762 0 76.356267690453762 5.013948945024822 0 0 0 0 -24.572481978174665 72.608944854893366 0 72.608944854893366 5.789305838029577 0 0 0 0 -26.911833800562363 77.045011641339784 0 77.045011641339784 4.9557718922160916 0 0 0 0 -22.956120847673674 80.3353452220299 0 80.3353452220299 4.8080052849973072 0 0 0 0 -34.963123672062238 72.802309984358999 0 72.802309984358999 7.0718471660179603 0 0 0 0 -31.617166378865704 80.807137837605865 0 80.807137837605865 6.278119668641466 0 0 0 0 -30.707295050718585 80.710033204237561 0 80.710033204237561 4.8310869982597708 0 0 0 0 -15.038480309501438 67.716873059003206 0 67.716873059003206 6.1600880992322118 0 0 0 0 -30.076960619002875 73.602839143935967 0 73.602839143935967 6.3613627590187889 0 0 0 0 -14.88632096021604 67.300389869108358 0 67.300389869108358 6.590281679734403 0 0 0 0 -20.271173813633709 66.38240826878274 0 66.38240826878274 7.3252387827553775 0 0 0 0 -19.889994847976482 65.722491105758195 0 65.722491105758195 7.9601858309664522 0 0 0 0 -40.542347627266963 74.778940173968749 0 74.778940173968749 7.1987475354735579 0 0 0 0 -56.399867537453019 77.684258862029878 0 77.684258862029878 8.2422659751240417 0 0 0 0 -28.199933768726737 63.712815103525656 0 63.712815103525656 8.3821880698707218 0 0 0 0 -33.910252965389645 87.100396809809013 0 87.100396809809013 3.3191672581374405 0 0 0 0 -40.178879863679867 75.252390300305251 0 75.252390300305251 7.7001456690190935 0 0 0 0 -42.845020562758918 80.155634716938835 0 80.155634716938835 6.4869238407720786 0 0 0 0 -41.181807885550597 85.497880711279777 0 85.497880711279777 3.0542384147830148 0 0 0 0 -53.776799343466166 78.13166803165177 0 78.13166803165177 7.5714575959236754 0 0 0 0 -48.537238002543063 90.560146013531494 0 90.560146013531494 2.4365107572070883 0 0 0 0 -60.702237810238444 93.781059088462086 0 93.781059088462086 0.0044241817222427926 0 0 0 0 -53.824182700707297 84.27401336629282 0 84.27401336629282 0.61338581535085268 0 0 0 0 -42.318021758699388 93.538924853811181 0 93.538924853811181 -0.0022344056806105073 0 0 0 0 -25.432961945368191 62.819863481499183 0 62.819863481499183 8.3843145606651888 0 0 0 0 -90.959400778678628 83.106017899252606 0 83.106017899252606 8.9115047717426705 0 0 0 0 -45.4797003893392 57.999311369042175 0 57.999311369042175 7.5411791822829741 0 0 0 0 -27.827988623765236 52.938459104970093 0 52.938459104970093 0.011171944853458626 0 0 0 0 -23.609418711858041 59.201787349846171 0 59.201787349846171 2.7467994307821755 0 0 0 0 -16.04066278285427 54.308434351402752 0 54.308434351402752 -0.0018530423665829722 0 0 0 0 -12.90933693054717 58.059476217353961 0 58.059476217353961 1.2273977124896192 0 0 0 0 -23.922564878404543 56.372063409278084 0 56.372063409278084 3.9025966050267016 0 0 0 0 -15.057422452706646 60.275629243356946 0 60.275629243356946 4.4081127318983135 0 0 0 0 -14.434208935306827 57.33458376876851 0 57.33458376876851 2.8040717377004967 0 0 0 0 -11.819283406361251 59.998545489088478 0 59.998545489088478 3.3092688238239134 0 0 0 0 -11.970193400701191 62.678447085746939 0 62.678447085746939 5.1734946020983443 0 0 0 0 -19.414358735789364 60.547869205530944 0 60.547869205530944 5.3233764673839232 0 0 0 0 -0.19232315238044784 59.366008806293934 0 59.366008806293934 0.67628856693477246 0 0 0 0 -6.5739183773455352 58.015241231769835 0 58.015241231769835 1.361237429437324 0 0 0 0 -6.6817051712881721 59.28856377962228 0 59.28856377962228 2.4543799937152926 0 0 0 0 -0.36356434268321891 57.636104264941764 0 57.636104264941764 -0.029880144611695414 0 0 0 0 -7.2560204405840523 56.397436226340346 0 56.397436226340346 1.1929486689083433 0 0 0 0 -7.3082144850329769 57.136597627871879 0 57.136597627871879 0.36437569327529218 0 0 0 0 -7.4007892700165598 55.077306683779568 0 55.077306683779568 0.0005934811892984726 0 0 0 0 -0.044036818788072196 55.12006775853547 0 55.12006775853547 0.00012668884983213502 0 0 0 0 -3.1715868651419896 58.053945537509435 0 58.053945537509435 0.072113203273886484 0 0 0 0 3.2489161209178974 57.971922384829156 0 57.971922384829156 -0.083818709614206455 0 0 0 0 7.4059588967233481 55.067785862440701 0 55.067785862440701 -0.00088046310088429891 0 0 0 0 6.9891380027696641 57.407131960906895 0 57.407131960906895 -0.40584232110433049 0 0 0 0 6.4769105198080297 56.146717093018083 0 56.146717093018083 -1.076385789458925 0 0 0 0 23.624988703560405 59.071500345241986 0 59.071500345241986 -2.6798208738598532 0 0 0 0 15.591394786259968 54.326465305870329 0 54.326465305870329 0.0021470435536029169 0 0 0 0 12.827536825864286 58.191498212846341 0 58.191498212846341 -1.3010000342319472 0 0 0 0 23.463529117939629 56.308681466727535 0 56.308681466727535 -3.8010879383476777 0 0 0 0 14.329750059133985 60.107992928986363 0 60.107992928986363 -4.2430687311614292 0 0 0 0 13.741146385215025 57.318951773204439 0 57.318951773204439 -2.6012554400882664 0 0 0 0 11.656086578443251 59.879380320317011 0 59.879380320317011 -3.1503871859653145 0 0 0 0 19.384955012523506 60.461054283680255 0 60.461054283680255 -5.2275838053104735 0 0 0 0 11.661131875589057 62.578145584207078 0 62.578145584207078 -5.1234615248836235 0 0 0 0 -0.36414824986317917 57.624899441841073 0 57.624899441841073 0.25530611625890742 0 0 0 0 5.9230651386358772 59.109417490080489 0 59.109417490080489 -2.2585927689398204 0 0 0 0 -0.192131307826791 59.349734288034277 0 59.349734288034277 -0.537994123154931 0 0 0 0 5.9700450410816188 58.135862974630697 0 58.135862974630697 -1.2052328168758777 0 0 0 0 5.1024813488523364 60.374673709605077 0 60.374673709605077 -1.1279751132001934 0 0 0 0 -0.17435866894355917 61.570650985470529 0 61.570650985470529 -0.78963373491558286 0 0 0 0 5.099221676619492 61.398194320798034 0 61.398194320798034 -2.8355323460139061 0 0 0 0 14.867417877874686 63.427922395848327 0 63.427922395848327 -5.1594380389137768 0 0 0 0 9.2293322680491663 64.639420547144923 0 64.639420547144923 -4.6927750523566374 0 0 0 0 9.0695979401058366 62.394381184343331 0 62.394381184343331 -2.9754921039709075 0 0 0 0 6.9062283367183008 64.529753592270069 0 64.529753592270069 -2.4774931160408187 0 0 0 0 6.8964210189284358 66.166466172768764 0 66.166466172768764 -3.8709567155737545 0 0 0 0 11.063929546122324 65.434550166762108 0 65.434550166762108 -4.369573313653575 0 0 0 0 8.4363627144825841 66.967992424469628 0 66.967992424469628 -3.4569263828618659 0 0 0 0 2.995646974337717 65.413014112762767 0 65.413014112762767 -2.2306645584515081 0 0 0 0 2.9930601207209406 64.634639670037075 0 64.634639670037075 -0.6773981254601722 0 0 0 0 -0.1536758196987793 63.667494189123616 0 63.667494189123616 -0.74646826222431173 0 0 0 0 3.9699204812604876 62.638086382872245 0 62.638086382872245 -0.92761791527220794 0 0 0 0 3.9856581246996825 63.564641527011986 0 63.564641527011986 -2.6235918378291672 0 0 0 0 26.898978182015696 77.48332225895922 0 77.48332225895922 -4.8864261085174405 0 0 0 0 24.701483629336735 72.704178643321939 0 72.704178643321939 -5.7820719553849358 0 0 0 0 20.330120565020053 78.354520873491253 0 78.354520873491253 -3.6793459982545755 0 0 0 0 18.90743210405293 76.81088612242911 0 76.81088612242911 -4.9429808039953969 0 0 0 0 21.259799384010364 72.683060309204393 0 72.683060309204393 -4.7712628682822924 0 0 0 0 8.2893784467024716 69.078964335975968 0 69.078964335975968 -4.3383909971281582 0 0 0 0 11.304509528806619 68.829316069890865 0 68.829316069890865 -4.9808019068233875 0 0 0 0 11.29820008612819 68.281928883767876 0 68.281928883767876 -5.5734024036504479 0 0 0 0 22.609019057613352 72.991524583573323 0 72.991524583573323 -5.0945065089479158 0 0 0 0 30.067015335477777 73.606749255298837 0 73.606749255298837 -6.3666034775810658 0 0 0 0 15.033507667738917 67.721596505196885 0 67.721596505196885 -6.1594857074954348 0 0 0 0 14.85452702440665 67.293298456546268 0 67.293298456546268 -6.5910048483840455 0 0 0 0 31.007696281997937 80.569732550245135 0 80.569732550245135 -6.2857471159659326 0 0 0 0 34.824009975658782 72.89078273156565 0 72.89078273156565 -7.1239145451104378 0 0 0 0 22.646561840776883 80.53477060497147 0 80.53477060497147 -4.7389784979091019 0 0 0 0 30.796899426958987 80.966721779849081 0 80.966721779849081 -4.7560018397014119 0 0 0 0 33.853821129568587 87.052804978950917 0 87.052804978950917 -3.3634380754047015 0 0 0 0 42.577491825439438 80.283021820367367 0 80.283021820367367 -6.3830295356845852 0 0 0 0 39.818721124034738 75.272623078633387 0 75.272623078633387 -7.7104175563563331 0 0 0 0 40.7989057165085 85.52520645351467 0 85.52520645351467 -3.0981126420258533 0 0 0 0 20.341199257060424 66.373315838439396 0 66.373315838439396 -7.3191923167813684 0 0 0 0 19.593935495634582 65.613455640403231 0 65.613455640403231 -7.9458618800987324 0 0 0 0 40.682398514120848 74.658560453952418 0 74.658560453952418 -7.2924945281179134 0 0 0 0 56.302942903406574 77.662476084986793 0 77.662476084986793 -8.1701734850744288 0 0 0 0 28.151471451703287 63.612229941260466 0 63.612229941260466 -8.334218392293451 0 0 0 0 25.570607110544721 62.802710401870527 0 62.802710401870527 -8.3465370619712758 0 0 0 0 90.937556838017102 83.080178004467271 0 83.080178004467271 -8.8486085465183351 0 0 0 0 45.468778419008572 58.019244573208255 0 58.019244573208255 -7.5106465056002776 0 0 0 0 27.770754311011387 52.919905933161544 0 52.919905933161544 -0.01129967769702489 0 0 0 0 48.404720104960063 90.555408532817978 0 90.555408532817978 -2.6161041038094481 0 0 0 0 53.747793798717566 78.111921704090946 0 78.111921704090946 -7.5031410969352237 0 0 0 0 60.640307573997916 93.806791840396158 0 93.806791840396158 -0.0045869543951084779 0 0 0 0 53.693610376516176 84.229515790766982 0 84.229515790766982 -0.4849427141328988 0 0 0 0 41.99587929196332 93.625728129218601 0 93.625728129218601 0.0025155158277812006 0 0 0 0 35.870206630047704 88.016774294524225 0 88.016774294524225 0.87084136166140524 0 0 0 0 32.452756689950661 92.712562842215448 0 92.712562842215448 0.55543944557619795 0 0 0 0 23.103751245515241 93.826853490086023 0 93.826853490086023 1.3550184534885119 0 0 0 0 25.216251780859551 90.524486991966228 0 90.524486991966228 1.1524517128473235 0 0 0 0 29.424983203833193 94.083943636059303 0 94.083943636059303 0.00097560006361163687 0 0 0 0 20.772497033654304 94.732115999288453 0 94.732115999288453 0.0023755099090730513 0 0 0 0 17.549617910373541 92.296433829431066 0 92.296433829431066 1.5508540825564978 0 0 0 0 16.063099978371923 94.756132967333656 0 94.756132967333656 1.606572465118461 0 0 0 0 20.242899788919146 91.241205042640217 0 91.241205042640217 1.3034738248761641 0 0 0 0 15.598935669809066 90.948628791097462 0 90.948628791097462 1.7915067623000596 0 0 0 0 17.798506881877813 92.918470790871652 0 92.918470790871652 1.4868966190068704 0 0 0 0 22.807541704280396 89.068797701114022 0 89.068797701114022 -0.26506465434545134 0 0 0 0 24.995840859548764 90.971741527466747 0 90.971741527466747 -0.35570762388136412 0 0 0 0 31.944089093506335 85.522874819256344 0 85.522874819256344 -2.9247232725033427 0 0 0 0 28.839910692107452 89.261218753543062 0 89.261218753543062 -0.36708820901458239 0 0 0 0 3.9750568910034616 95.853738507026492 0 95.853738507026492 4.3690077029957592 0 0 0 0 -0.059797344506705409 97.611983246581261 0 97.611983246581261 3.6185432368652073 0 0 0 0 4.5761602163093755 98.090749903663664 0 98.090749903663664 -0.059881009791623377 0 0 0 0 6.1450428385684432 95.461398925583808 0 95.461398925583808 2.7700766106440824 0 0 0 0 4.3167686014816269 96.587492322553999 0 96.587492322553999 3.0577098459625063 0 0 0 0 8.8277831950405101 96.74273412682021 0 96.74273412682021 0.018304684065242327 0 0 0 0 11.578968244269021 93.857534503527404 0 93.857534503527404 1.9343457366005623 0 0 0 0 14.116675862368538 95.628679168904227 0 95.628679168904227 -0.0030693478744441911 0 0 0 0 9.8861673003905253 95.752158932278007 0 95.752158932278007 2.1366110631451534 0 0 0 0 13.28470633543013 92.764936590125785 0 92.764936590125785 2.6515359395789346 0 0 0 0 11.890962934461271 94.103117713279858 0 94.103117713279858 2.6964487617277086 0 0 0 0 9.560823032681995 92.251887899386247 0 92.251887899386247 3.5365877538333734 0 0 0 0 6.5116353172835204 94.897458573646986 0 94.897458573646986 4.0042313833466778 0 0 0 0 7.7574783144558026 94.090920394534237 0 94.090920394534237 3.8159713187308171 0 0 0 0 4.0032773012168903 93.153152364163589 0 93.153152364163589 5.3991936670481664 0 0 0 0 3.1999814174930776 94.603888839713591 0 94.603888839713591 6.0115228943878947 0 0 0 0 -0.0040521591235590654 93.53634025125632 0 93.53634025125632 6.449257441217469 0 0 0 0 0.019687266091298089 95.579303737681585 0 95.579303737681585 5.7698632962981264 0 0 0 0 0.0044955031048187349 91.634550261973231 0 91.634550261973231 6.294134727357914 0 0 0 0 2.9847443162308167 92.556057255958763 0 92.556057255958763 6.3623542416971759 0 0 0 0 3.3766533081247161 93.263463986563011 0 93.263463986563011 5.4180607485296548 0 0 0 0 5.2858249504510582 91.377285456722575 0 91.377285456722575 4.3173256792437869 0 0 0 0 6.3885586487569697 91.336165296313879 0 91.336165296313879 4.3147615191574005 0 0 0 0 8.0151736653499768 92.806716780699503 0 92.806716780699503 3.6029394062663869 0 0 0 0 11.570914339516349 90.349579174566088 0 90.349579174566088 2.3740469434035276 0 0 0 0 9.5043739578168527 90.473181732215551 0 90.473181732215551 2.376535546985906 0 0 0 0 9.2340452016620418 87.155589092687876 0 87.155589092687876 1.3296692361814166 0 0 0 0 6.4549228683645197 89.221600559290437 0 89.221600559290437 2.7795162027897646 0 0 0 0 5.2008130374536421 88.260760605142764 0 88.260760605142764 3.0200210040561615 0 0 0 0 7.9390201827086315 89.266178213823196 0 89.266178213823196 2.7769245487459102 0 0 0 0 3.3876969072692944 89.898771460679654 0 89.898771460679654 4.6063417480395401 0 0 0 0 2.7906048306205946 89.757139733688177 0 89.757139733688177 4.6209885463064069 0 0 0 0 2.4336448586200063 89.249674066172929 0 89.249674066172929 5.0077458022462906 0 0 0 0 -6.4493199155885028e-05 89.876755663818358 0 89.876755663818358 5.5836530820658936 0 0 0 0 2.5892901308511895 91.184843779185712 0 91.184843779185712 6.0067987607235409 0 0 0 0 18.691813251622136 85.649699869270876 0 85.649699869270876 -2.1889600211242977 0 0 0 0 24.529855024266965 85.865287212413705 0 85.865287212413705 -2.9239970583839749 0 0 0 0 18.954101552892439 89.750539250312045 0 89.750539250312045 -0.25386296572560241 0 0 0 0 24.183831472689633 85.778115366656152 0 85.778115366656152 -2.1897209655642902 0 0 0 0 17.475915596433936 88.596279481205329 0 88.596279481205329 0.24533823832030066 0 0 0 0 13.281894052679036 91.758329618508697 0 91.758329618508697 1.7947293803110687 0 0 0 0 14.066107807462799 88.716305071619217 0 88.716305071619217 0.24350962847256241 0 0 0 0 12.912924079073093 87.890565908277324 0 87.890565908277324 0.83622835449023114 0 0 0 0 10.187712329456133 87.804739546884548 0 87.804739546884548 0.84142264312203707 0 0 0 0 13.448084573025909 85.22845015947081 0 85.22845015947081 -0.46533339886877911 0 0 0 0 17.565546735450226 82.359925528123654 0 82.359925528123654 -2.2246347769637396 0 0 0 0 13.847681501161219 85.317756749215164 0 85.317756749215164 -1.2607563527828667 0 0 0 0 18.276661360151365 85.557130432949805 0 85.557130432949805 -1.2668191169600505 0 0 0 0 23.579582060869654 81.762150169421659 0 81.762150169421659 -3.3499528912382175 0 0 0 0 16.77249054790974 81.340837062005789 0 81.340837062005789 -3.3591007485127911 0 0 0 0 15.71792314802326 79.359980593032049 0 79.359980593032049 -2.560203347298966 0 0 0 0 10.46607266472472 78.94490724438009 0 78.94490724438009 -2.5737754069950824 0 0 0 0 8.9161268568919354 82.220600816480101 0 82.220600816480101 -1.2826558319042007 0 0 0 0 12.609766716461252 81.96726601832097 0 81.96726601832097 -2.227486915325926 0 0 0 0 12.983994164803818 82.564957557233583 0 82.564957557233583 -1.2825314604303912 0 0 0 0 9.9925561533570999 84.963821565456101 0 84.963821565456101 -0.44673414726084104 0 0 0 0 9.7175164426295311 84.928318869047075 0 84.928318869047075 0.1723203559747617 0 0 0 0 6.8189539249251681 84.652836759857223 0 84.652836759857223 0.1836931030507003 0 0 0 0 9.2976379254481571 82.76372873737057 0 82.76372873737057 -0.54991447434690599 0 0 0 0 6.2923972167528177 82.934514099103637 0 82.934514099103637 -0.034078899306905441 0 0 0 0 5.9129543288366904 82.451778807097185 0 82.451778807097185 -0.54991447434647422 0 0 0 0 7.2571058423488921 79.774106318514214 0 79.774106318514214 -1.5978563894235245 0 0 0 0 8.0293272598328826 80.689230924686228 0 80.689230924686228 -0.84477516122933594 0 0 0 0 9.3370187720868216 77.86142976014122 0 77.86142976014122 -1.4807225399522395 0 0 0 0 11.470239274635986 80.087283348628773 0 80.087283348628773 -1.5978563894236686 0 0 0 0 0.00058462797944844325 87.16007123686029 0 87.16007123686029 3.7390651530323566 0 0 0 0 2.306713203666618 88.040430525259922 0 88.040430525259922 4.0745702363074088 0 0 0 0 0.0026927627572792684 88.369933659771846 0 88.369933659771846 4.7009552676233852 0 0 0 0 2.2189774984137074 87.037647448859843 0 87.037647448859843 3.0232114895779603 0 0 0 0 2.6848492621419275 87.132284379608251 0 87.132284379608251 2.9978200318676045 0 0 0 0 4.1490189273487346 88.08788169217172 0 88.08788169217172 3.0446024283828592 0 0 0 0 7.0245792710535113 86.933985804811186 0 86.933985804811186 1.3405300014764947 0 0 0 0 6.313448824496362 86.448457519471447 0 86.448457519471447 1.6236442784390874 0 0 0 0 4.5041663269387868 86.261470995930381 0 86.261470995930381 1.6353239635970738 0 0 0 0 6.7106299491993155 84.698151961481358 0 84.698151961481358 0.6452840551587542 0 0 0 0 4.3439720952808898 84.518933818280345 0 84.518933818280345 0.86109207016943401 0 0 0 0 4.2859778065974297 84.406857296001363 0 84.406857296001363 0.64528405515867071 0 0 0 0 2.638843810081589 85.658688904861606 0 85.658688904861606 1.8572478550290725 0 0 0 0 4.0699102596166767 85.957613047460768 0 85.957613047460768 1.8572478550290725 0 0 0 0 2.2724971019496323 85.326635208693915 0 85.326635208693915 1.731193676681869 0 0 0 0 1.2690213110105664 86.451681404285921 0 86.451681404285921 2.9033650002038485 0 0 0 0 0.0010966413229143851 85.563644126225654 0 85.563644126225654 2.3952151137718829 0 0 0 0 1.9258469012316886 86.615290176647534 0 86.615290176647534 2.9033650002036211 0 0 0 0 0.00085796716732630673 84.89627348394788 0 84.89627348394788 1.6218801199231621 0 0 0 0 0.60831544161986528 85.085309632346821 0 85.085309632346821 1.3368513849095507 0 0 0 0 1.2818741870354273 85.695624132002763 0 85.695624132002763 2.1181320854151977 0 0 0 0 1.0677477197648813 85.112947218641693 0 85.112947218641693 1.6977314910953396 0 0 0 0 0.96586811752736423 84.279177049078157 0 84.279177049078157 0.85488979271369203 0 0 0 0 2.5102687693885315 84.507818719928082 0 84.507818719928082 0.88623060957229427 0 0 0 0 2.3028863126066597 84.29331309093493 0 84.29331309093493 0.84310767298390488 0 0 0 0 3.9019389075709654 83.138901544384908 0 83.138901544384908 0.24815023506198486 0 0 0 0 1.5775830196129874 82.970718799816325 0 82.970718799816325 0.2431974413871103 0 0 0 0 2.0850732901121702 83.427040027584553 0 83.427040027584553 0.2504776363343808 0 0 0 0 1.0770162317713528 82.595560406585605 0 82.595560406585605 -0.0039632359494632396 0 0 0 0 0.096929589226164126 83.301639303271884 0 83.301639303271884 0.24268202605185252 0 0 0 0 0.71875800099205378 83.867453392497623 0 83.867453392497623 -0.014673932319059446 0 0 0 0 1.0755134594713667 84.2937917013179 0 84.2937917013179 0.5825069488837471 0 0 0 0 0.058691455694635408 84.176756140683551 0 84.176756140683551 0.57100097214015477 0 0 0 0 0.32636165431237885 84.711635589725233 0 84.711635589725233 0.35908658065477539 0 0 0 0 0.00013565542540126292 84.509512546143199 0 84.509512546143199 0.79988750818142762 0 0 0 0 2.5307711943594313 78.700467119508062 0 78.700467119508062 -0.80734313188041806 0 0 0 0 5.0811730472928218 77.742072800253936 0 77.742072800253936 -1.4676842679039055 0 0 0 0 6.1423128508699278 78.866321331913923 0 78.866321331913923 -0.80628342297141309 0 0 0 0 4.409899118127754 80.407614360209777 0 80.407614360209777 -0.85854387983431479 0 0 0 0 5.2130390332082612 81.276433150866126 0 81.276433150866126 -0.33018767521252812 0 0 0 0 3.4703472757858265 82.69415831276865 0 82.69415831276865 -0.039145488245203808 0 0 0 0 2.1101581642497536 81.044052580971197 0 81.044052580971197 -0.34605727036212386 0 0 0 0 2.8854315876468632 81.848730051663665 0 81.848730051663665 -0.041641956450348516 0 0 0 0 0.18360183062480928 81.767009285217966 0 81.767009285217966 -0.041955646058795537 0 0 0 0 1.3819265143067128 80.72167559494892 0 80.72167559494892 0.004041481116503931 0 0 0 0 0.28242644971572872 79.677194508731191 0 79.677194508731191 -0.27694965001182936 0 0 0 0 1.6228282017872289 78.431981871608627 0 78.431981871608627 0.013790436494485636 0 0 0 0 3.5630675002183807 79.761051875509168 0 79.761051875509168 -0.2758140806265601 0 0 0 0 4.1584360739442161 77.157656601042049 0 77.157656601042049 -0.46266769441490396 0 0 0 0 0.2552196465298664 77.111105355516656 0 77.111105355516656 -0.46276102433489541 0 0 0 0 1.6984673704449733 75.719648883059449 0 75.719648883059449 0.027642417543873421 0 0 0 0 0.71096373877922758 74.786887092997176 0 74.786887092997176 -0.64531439696816051 0 0 0 0 1.7349834663202728 72.665754334385667 0 72.665754334385667 -0.37542787277857315 0 0 0 0 4.4259749208244443 74.673791551978184 0 74.673791551978184 -0.6715129962848323 0 0 0 0 3.0487522570643648 76.006317614663033 0 76.006317614663033 -1.1179153304294687 0 0 0 0 3.3654331111848705 72.760335112935792 0 72.760335112935792 -1.0932498553747791 0 0 0 0 7.1298592816219184 72.682595620212737 0 72.682595620212737 -1.8388142316784979 0 0 0 0 6.089143043928857 75.208389998912082 0 75.208389998912082 -1.8762920020494676 0 0 0 0 6.8297764567921035 75.960859149742078 0 75.960859149742078 -1.1607006843447323 0 0 0 0 3.0113426685691707 70.700221647074386 0 70.700221647074386 -1.6743895452730158 0 0 0 0 2.7801106521132595 70.890831426611143 0 70.890831426611143 -1.3539902725955244 0 0 0 0 5.5602213042265589 72.87238550124448 0 72.87238550124448 -1.3054176407456453 0 0 0 0 1.6964455202419231 70.854623022544217 0 70.854623022544217 -1.0175916190751764 0 0 0 0 1.3402417412020882 71.084897008576135 0 71.084897008576135 -0.65490445402940622 0 0 0 0 2.6804834824042132 72.780512135694039 0 72.780512135694039 -0.62363732418680229 0 0 0 0 0.51511274362781023 70.977602220875127 0 70.977602220875127 -0.29498989324696367 0 0 0 0 0.55606951531063942 70.100041966161086 0 70.100041966161086 -0.2495875375298624 0 0 0 0 0.77347794580163054 69.303344421560467 0 69.303344421560467 -0.31589054060543731 0 0 0 0 0.77471504849148687 69.93198208528753 0 69.93198208528753 -0.50994523760465427 0 0 0 0 -0.0018177510391979013 69.043626467611261 0 69.043626467611261 -0.00055386092253684183 0 0 0 0 0.19284988103521528 69.02782782869258 0 69.02782782869258 -0.047208971697784818 0 0 0 0 0.19284647299781454 69.334166628800801 0 69.334166628800801 -0.1610294015964655 0 0 0 0 -0.01532457745555188 68.915484370899307 0 68.915484370899307 -0.10754169940912561 0 0 0 0 0.59684803530950603 68.756322783045192 0 68.756322783045192 -0.1350858263634791 0 0 0 0 0.5968517397685561 69.089298289703905 0 69.089298289703905 -0.50061893114684608 0 0 0 0 1.1438652388641231 68.682927732242888 0 68.682927732242888 -0.90606653854416663 0 0 0 0 1.0300516207666988 68.241317963675442 0 68.241317963675442 -0.34346120737882302 0 0 0 0 -0.033528446652194788 68.52052080363697 0 68.52052080363697 -0.20144622538907697 0 0 0 0 1.6306338725124458 69.92723023047381 0 69.92723023047381 -0.77878439361677465 0 0 0 0 1.5883576255957905 68.98304484391889 0 68.98304484391889 -0.70820290477098524 0 0 0 0 1.7701615437958935 69.721974140683301 0 69.721974140683301 -1.0260457815399491 0 0 0 0 2.6381756339652043 69.691626072009569 0 69.691626072009569 -1.5138658817234045 0 0 0 0 3.9185147312256277 69.703778038483392 0 69.703778038483392 -1.5633379431818639 0 0 0 0 2.6923601047028285 68.566985427576725 0 68.566985427576725 -0.96652705544045148 0 0 0 0 2.6719967625888188 68.747907002993941 0 68.747907002993941 -1.8032078828388194 0 0 0 0 4.120608963684333 68.578581661775274 0 68.578581661775274 -1.8032078828386193 0 0 0 0 0.78777026713839859 68.091177340641252 0 68.091177340641252 -0.40252712233549914 0 0 0 0 1.3979081039675521 67.807166244799475 0 67.807166244799475 -0.97939258507085469 0 0 0 0 2.1151810224421297 67.609268941483208 0 67.609268941483208 -0.97939258507087623 0 0 0 0 2.4543540614619133 66.281800297056861 0 66.281800297056861 -0.64455997563968026 0 0 0 0 0.84893112617845645 66.705276522621659 0 66.705276522621659 -0.75511868679586769 0 0 0 0 2.3427690987849914 66.816703548291628 0 66.816703548291628 -1.7221232169528093 0 0 0 0 -0.12405673188534561 65.422134916999255 0 65.422134916999255 -0.54768036022960587 0 0 0 0 4.4951443899332162 68.657748670204285 0 68.657748670204285 -2.7534568308483358 0 0 0 0 6.7221866759835507 68.373108733781862 0 68.373108733781862 -2.7307755256630344 0 0 0 0 3.1212835203204463 67.262604871015412 0 67.262604871015412 -1.5299227888808673 0 0 0 0 5.3133251678374904 66.246465026194358 0 66.246465026194358 -2.0409598698603304 0 0 0 0 5.0310875114458327 67.481273516417161 0 67.481273516417161 -3.0882048681470451 0 0 0 0 8.506756323358303 69.494688588894519 0 69.494688588894519 -3.9621124333086755 0 0 0 0 6.2106799153528414 70.143502468269332 0 70.143502468269332 -3.1223755892095539 0 0 0 0 6.2435951302465043 69.744288022583689 0 69.744288022583689 -3.4190306491915408 0 0 0 0 12.421359830705569 72.634711841039461 0 72.634711841039461 -3.2126034773038441 0 0 0 0 17.013512646716546 72.884881452584963 0 72.884881452584963 -4.2396268338054597 0 0 0 0 15.072118388212743 72.690617660581665 0 72.690617660581665 -3.6086636850473042 0 0 0 0 14.292956168595879 77.702845537387134 0 77.702845537387134 -3.74824659027027 0 0 0 0 16.510274426821979 76.097401697027635 0 76.097401697027635 -3.2507080430959832 0 0 0 0 11.247089297221748 75.515227806713824 0 75.515227806713824 -3.3110366287644126 0 0 0 0 12.911777415745348 73.13122371761213 0 73.13122371761213 -2.7099973091983429 0 0 0 0 12.633166018526822 76.904575432707986 0 76.904575432707986 -2.3591336191927894 0 0 0 0 8.3320071878381157 76.673343466514837 0 76.673343466514837 -2.3591336191927894 0 0 0 0 10.192122058754762 75.02931986587339 0 75.02931986587339 -1.9474124472585572 0 0 0 0 8.8439870344174665 73.048170458889132 0 73.048170458889132 -2.7099973091983429 0 0 0 0 8.833079960560724 72.718854820128513 0 72.718854820128513 -2.0404589578208174 0 0 0 0 3.7121998871029973 70.142126229002557 0 70.142126229002557 -2.4185620377481882 0 0 0 0 4.4165399802803336 70.752951635356453 0 70.752951635356453 -1.9012513182176747 0 0 0 0 5.5296023239968264 70.132134488216636 0 70.132134488216636 -2.4185620377480745 0 0 0 0 
</DataArray>
<DataArray type="Float64" Name="displacement_divergence" format="ascii">
-0.035879076774473107 -0.044719153337329953 -0.08321070160124755 -0.073378496099778423 -0.089035612625294802 -0.091289179075371346 -0.14594462733085639 -0.12992620390017007 -0.15478912952018253 -0.11923447976670953 -0.11582064203629938 -0.16057484126284116 -0.11280089802746307 -0.12312067407615035 -0.083814957366662446 -0.097262139304250095 -0.064223589342002008 -0.057427409099020998 -0.29989457849923851 -0.3701857492986026 -0.25993835688129469 -0.29384820097193587 -0.28061316291291288 -0.20915057515236604 -0.19402630862943901 -0.1625142164600184 -0.20923183930411371 -0.19532929258234977 -0.15541285093209467 -0.18489468140725096 -0.21524221147183376 -0.25757411740862102 -0.28609524316015289 -0.24929631646833972 -0.3488411396470939 -0.22674383459673897 -0.20174004343514396 -0.22038207010518907 -0.15395262616287209 -0.13757735320891684 -0.17100174288174808 -0.14285930186861284 -0.1169664997643256 -0.096012422323489499 -0.12520481997813526 -0.18083494155287871 -0.14554010466260436 -0.12532640605754253 -0.16135431456644689 -0.17771207379158893 -0.062008251864779318 -0.097458434044883191 -0.083448447371988532 -0.15061308702542631 -0.10127033073593417 -0.11648159761381294 -0.10305707104259643 -0.08773538645075396 -0.13352996546315676 -0.11254248770231223 -0.064446067520061767 -0.075628042767277304 -0.054574568964170567 -0.090937935671195014 -0.079052534459445933 -0.046040472543495969 -0.054677600292689199 -0.052031619096994497 -0.03687822728918011 -0.063004601338050747 -0.048266799828242668 -0.039177397166113792 -0.041049976101033003 -0.02357913148178703 -0.049874108316085852 -0.051923653418294663 -0.044195154418714466 -0.061361444274293832 -0.074905485373353287 -0.056187219389156162 -0.08886243176956965 -0.083449385752556449 -0.073205498493543075 -0.11276981015287246 -0.099414292260610715 -0.071560608516113788 -0.080190378047605648 -0.13687056966284894 -0.071845463017789601 -0.11554668908119048 -0.083856865241446421 -0.10135961577041019 -0.098526111724932086 -0.072425498878221362 -0.058689765245656889 -0.080649586513120042 -0.086809599261240322 -0.054070840989055673 -0.063074857760851977 -0.034757084018315898 -0.049879127680227953 -0.018870516531389103 -0.03767270354851604 -0.037128841798825529 -0.05510032004476173 -0.019029193999812496 -0.038804488109832391 -0.034751545705287157 -0.018311673455125188 -0.0016735566846772798 4.4866910869245658e-05 -0.03004491720023772 -0.015770661681997922 -0.0031943204393787283 -0.012242892121170357 -0.024577993285066546 -0.0076732064505939945 -0.0046790154291447839 -0.00692613799465569 -6.5062318932440633e-05 -0.0084617979110266361 -0.017153022246837346 -0.0067507520055887227 -0.0160542183802872 -0.019025376747340061 -0.033427698072937773 -0.027286072943087047 -0.033909723719465212 -0.042355822818457511 -0.031687326859874909 -0.018829414069431394 -0.018314010062033148 -0.016988759265697873 -0.014867349732339719 -0.023470225148796153 -0.018075817731903143 -0.0060271547993897556 0.0046060206733828934 -0.013086431503676721 -0.0096287205258072106 -0.0019809645794213182 0.0024268868568926294 -0.0029753469909366004 -0.0008190684766304912 -0.00013282331342789888 -0.0092020984361589342 -0.006109585757364755 -0.0003034813686646487 -0.0061804043792568208 -0.00016572953644278243 -0.0048268950908791908 -6.9954396813898256e-05 -0.020333664197647039 -0.013779984571417714 -0.018776363640377242 -0.0022145813002794057 -0.015026613503697384 -0.039356627104977338 -0.020856201199166868 -0.024322401587278719 -0.053892461643435752 -0.042781107555697417 -0.058352349824780547 -0.014703551461299647 -0.04260650524600651 -0.026748385565240618 -0.02847731553712407 -0.026441526652958736 -0.050535075366946458 -0.067947154686875066 -0.062355835315021757 -0.060493184634091257 -0.061866060045482563 -0.083380436067752584 -0.1031854769349998 -0.10396002741242011 -0.081520342938146584 -0.11475497484624686 -0.12734359086615243 -0.11845564059073865 -0.058218096004885034 -0.061206977360344972 -0.091066563088343599 -0.12909428178127635 -0.089633460472765325 -0.041196016793650703 -0.065909236740441912 -0.030218581548016488 -0.078738806273244144 -0.034619366923685391 -0.047236322720958235 -0.034146149423049721 -0.01820108894008321 -0.047353101726548941 -0.0075734542259562332 -0.010337621040529932 -0.025750930189436493 -0.00067809691453035725 -0.038001657095346086 -0.000653460837918729 -0.015086180501915347 0.011374014648410036 -0.049992783028752097 0.014719841117445398 -0.06538224419142491 -0.032326066532886166 -0.018747717199283365 -0.099058867216471835 -0.063183007518352596 -0.13539891452502717 -0.090637969076484026 -0.12372051604182577 -0.093701651855046642 -0.19229076561452585 -0.053514761852312187 -0.086692819829274237 0.014836643416344053 -0.15986723674029868 -0.21047869257808993 -0.16088276925454759 -0.14887051545337915 -0.19961742866124799 -0.17545727623062746 -0.079845763875421305 -0.12606245408266048 -0.11420286165151117 -0.17709926694813483 -0.16599780522127627 -0.23836279529297455 -0.26446319024149667 -0.2808186097737484 -0.20666981328044343 -0.34370173441119278 -0.37526254334296072 -0.26359215633667832 -0.35086362520761494 -0.4818547014009269 -0.33042177832779851 -0.25637550074136373 -0.23926595312587917 -0.39890874800896192 -0.34143667085931795 -0.55681544493020352 -0.75907214523749889 -0.82200227342139343 -0.47977797926307331 -0.46557807715164523 -0.60571518218857978 -0.52970988609204617 -0.40663818760511722 -0.0044599201235879793 -0.10898014587432736 0.0082742154716903826 -0.087663728445440459 -0.17314322896867096 -0.13749299239862145 -0.28528646871600527 -0.21081534744888419 -0.23436781861163747 -0.40293000714707494 -0.41821875360675687 -0.23435670931243202 -0.31692299052264761 -0.15357489563087665 -0.12287852154087853 -0.14227444182713134 -0.0016012268674806627 -0.062911170954533566 0.062489232014091289 0.14452529669942568 0.13458797886852802 0.11629394053209108 -0.0015347109906929113 0.078136341887597993 0.098509920503163872 -0.015879501520684514 0.13380353650077237 0.28343077401208316 0.17084281867785189 0.2323325504408339 0.21255201521251221 0.40309778245074374 0.2346711462888379 0.31951996133761712 0.41877179930476982 0.75935469245390652 0.55815478449730616 0.82232663230400549 0.34401944459454936 0.41137624082976326 0.5305272736205715 0.60735030841309545 0.48469973738431693 0.46787123057575797 0.3475468742476564 0.35687186141037008 0.37596761201797646 0.26466372953347461 0.39896236911541694 0.48143611209525905 0.32926670438369654 0.25544930587917869 0.24131745788337144 0.16560736122481412 0.23826662084097228 0.17732305554130434 0.28112166405626793 0.26614445361920991 0.20878516578687156 0.20846768975523577 0.16082219097081119 0.20131338082695471 0.14941609568123626 0.16089165541482719 0.12649493433907288 0.11513590150647324 0.17518327103948694 0.077828730804891944 0.099267978016297498 0.061208041608494135 0.13329236199336636 0.088972956442847639 0.015215034986078457 0.046451265587680535 -0.01791496048222907 0.061114749187013206 0.027233378886767134 -0.019676921707149297 0.080869464796496482 0.045157096626879056 0.1937643032798706 0.091931284304951788 0.12192789095886369 0.064449262832394716 0.096305592069138357 0.083435382919387457 0.057543691498061267 0.083295127870095742 0.044804385661285355 0.035874894156741721 0.089189640734054998 0.073423739962522272 0.092095414664710787 0.12971798347692431 0.14282631008049654 0.15211276615153524 0.11846983425639923 0.11591946651645635 0.12171165791261807 0.11167833770632551 0.15618342886346137 0.1917665581922452 0.18270963372392801 0.2123625103605431 0.20687683944300128 0.1523496113428302 0.16040197883013285 0.19336160514159462 0.20728190702247234 0.27858510372061962 0.25928459718942409 0.29098027376728325 0.3712935816202535 0.29758721633581908 0.35117868054995194 0.25373231775404492 0.24610910484735704 0.28649382403137791 0.19889134963441912 0.2186366119440124 0.2245708280807297 0.16003252688223446 0.17645935363518372 0.12503053396266717 0.14300250061457076 0.17878887513430808 0.12413830596844155 0.094408991709358236 0.11509667432426962 0.14150442448531031 0.16897305507108085 0.15171105629858661 0.13494854868023931 0.14761760597132789 0.11499736970232544 0.10095390608308774 0.13119030205381321 0.086790742172837554 0.11054005031171332 0.10168345923224376 0.075151248308870766 0.06381510815337732 0.078232571953998242 0.055018359007876327 0.089932225640847907 0.062245322421759841 0.08297566126008582 0.096758724385625161 0.023480869061116572 0.041140465483883837 0.03922957727698595 0.047943060569388289 0.036854460132904165 0.062873978965751753 0.046302547605926669 0.052287872619437792 0.053986823437534248 0.082821477434412927 0.072340709135965575 0.088509706105673658 0.05649295356343309 0.073340593861165537 0.060566771676217712 0.04449865366777455 0.049993379425436579 0.051328179441796351 0.062581082356594736 0.05368022038581266 0.086419834701490394 0.07864655871747317 0.072349798130036724 0.11254558375596968 0.0979721850343509 0.11695610116478372 0.072299165876322125 0.13747879374393612 0.098252497141969819 0.086468707393174249 0.096934815105881533 0.072525108653357151 0.059039970528479591 0.080320596088043317 0.037197414284300123 0.036653727874390321 0.055953289208259704 0.019015430062240657 0.039359344939033036 4.0484422097364359e-05 0.0015129264385613794 0.018978093408224872 0.035044181637918115 0.016167318333398129 0.0030468650722497159 0.029413435506821628 0.018591878912202375 0.049425344217336686 0.034860675580358179 0.031589665333695893 0.041393608009698823 0.033706301989040455 0.018039859681866943 0.018368644063212453 0.023840074455687699 0.0041825424122876598 0.012073070727604218 0.0078657399245454229 0.016914229541292625 0.0062904925018602009 0.0069338384630608374 0.00011464532699889673 0.0082345357428996735 0.019148800900661733 0.015863940415975719 0.027021082219635506 0.033577494809236441 0.046350899457757007 0.047240339484750038 0.034684954455130423 0.018088421563490564 0.0069319075059190993 0.00010352653108076193 0.0098994908119482972 0.022752467397687735 0.012385695423380305 0.001613534724721255 0.036371326306277041 -0.01324020681965532 0.065643724657646896 0.031707870438561159 0.034615212763654313 0.079497753465838095 0.038667065671331713 0.089861243644915323 0.12904397397305711 0.091743419569683571 0.056202289266291672 0.061670034037872856 0.11728042433397778 0.12985514321991953 0.1121926131297819 0.081295111068129478 0.10347125358458076 0.10369007921772511 0.082475433124987063 0.061896848529264581 0.060572344954305524 0.062382796236773785 0.068355243678976052 0.050686242489008215 0.026610254447323851 0.025847256984279365 0.02879680282305408 0.042535926022935655 0.0138727813988897 0.058370535921746125 0.043621286517443014 0.052978148790002066 0.024568408916313622 0.021406684426365619 0.03950923520756966 0.015627063330290625 0.0021301165423575075 0.018687733896605607 0.013797250244207859 0.020131899004550036 5.7882875601045214e-05 0.00011369417360640455 0.00531779197961324 0.0057505652998024459 0.0093480306632844901 0.0060199867680932329 0.017272769397330023 0.018644884396570305 0.015334364700990921 0.023560768149723188 0.01552940942030423 -0.004093976921325293 0.0049894870117666024 0.003014492222561671 0.0098513103108297528 -0.0023386412143455715 0.0010175685220286113 0.0031214763590048378 -2.0470609326750377e-05 -0.0031593530773363909 -0.00083630156417768831 0.0021963885454754362 -0.0097587723454832798 -0.002723725245891373 -0.0051558567780585207 -0.01480134581337289 0.0040572775601503963 -0.014933410535673985 -0.023441878987185305 -0.018341886352316372 -0.017456485569614877 -0.0057476071009094909 -0.0092593219236389857 -2.8406686203297227e-06 -0.0055662976739387915 5.8221622367682357e-05 -0.0050920703630437103 -0.020195823350881881 -0.013537237719488893 -0.016916320495831583 -0.014152553000590373 -0.0023172426487256814 -0.037911652970407772 -0.019604416399339186 -0.024001406296390471 -0.0424066496083082 -0.052931466495692803 -0.057390378687907528 -0.013579287567026199 -0.042334752589447078 -0.028584467434371597 -0.025938505088999975 -0.026221983490371414 -0.050325638423299068 -0.067875389849476164 -0.062321660512839827 -0.059920364251397018 -0.061702723136574988 -0.082861341542281419 -0.10185560879364353 -0.1030991063470541 -0.079702437496656842 -0.13157005631607799 -0.11583118442408846 -0.1056552249538516 -0.061527468204980451 -0.058893843118437594 -0.091538821854888042 -0.12788498002849558 -0.090370319734162763 -0.041318034329048459 -0.078868489763287641 -0.034744235242546662 -0.030348407868601157 -0.065474797960298758 0.011145433972760799 -0.00057372523983101331 -0.037898709164153388 -0.015675883825487347 -0.025551692235159962 -0.00060506884224054147 -0.0070390563903757197 -0.00043736193859089667 -0.010110683408605325 -0.018354264822695754 -0.034350384153564839 -0.046982740885102459 -0.046777817523354415 -0.033899269669218413 -0.026960790511004973 -0.015671098220645163 -0.019021871660710232 -0.0078127007023169881 -0.0068656576989702955 -0.0054690746167409543 -0.016315591339260749 -0.0070296245492890985 -0.002861849432337138 -0.01064304915551989 -0.022692660646540345 -0.017184053762758111 -0.01714963103396272 -0.03332988932643044 -0.030921565174594434 -0.040242455732622417 -0.033991631721420557 -0.048007218149637154 -0.017176726095659234 -0.02806563420549324 -0.0013850337336727137 -0.013919348908243256 -0.033026282957402106 0.00017231171037579429 -0.016536561802860575 0.0019606347119651701 -0.036881955905280518 -0.017846158032034154 -0.035549272583700997 -0.053585106205065347 -0.036544662708035247 -0.078661871070583977 -0.056568561087789959 -0.071461493135427767 -0.099376836904011279 -0.078994820168452051 -0.13302615701010723 -0.10283556601176852 -0.11732947746205724 -0.076095419756214255 -0.095071837110983992 -0.099369491219466255 -0.070158865694056161 -0.087614247438319026 -0.053785640654483657 -0.061771973685096404 -0.05089414396710934 -0.049661771916930775 -0.045299019578322941 -0.059682410395005547 -0.073734658889332394 -0.061583584103521716 -0.080553857432564158 -0.084369631967401659 -0.073051841301566611 -0.057385654413208531 -0.052724672924406857 -0.046926269778918339 -0.063946504138986171 -0.037424423325699507 -0.048528153390602569 -0.039982123832565719 -0.041932400775035461 -0.023734172356075334 -0.093567907076074874 -0.087596593520920862 -0.062920813720392488 -0.055523192741592453 -0.08703117839835528 -0.075448942815478759 -0.074907213431846031 -0.079537988954367478 -0.083642575140811637 -0.093213594975086522 -0.10726489109511414 -0.10831255872196907 -0.11973711701132217 -0.097742085416214763 -0.10729666579026464 -0.117305030751087 -0.13901270558942613 -0.15164033198087037 -0.17748704573855534 -0.14339014227854818 -0.13871938277305773 -0.11013554934342551 -0.13226808206714163 -0.17094712546564944 -0.12366436996408936 -0.15628454365740568 -0.13360579635788028 -0.20236484218825268 -0.16631702504974655 -0.18788664997439142 -0.22016533569942023 -0.21921080828601092 -0.29113107892840873 -0.22643063488576712 -0.24877064359388257 -0.28555417496462077 -0.33236674575686465 -0.3680929227776133 -0.26353710309312461 -0.29491578307198096 -0.2450748957818405 -0.20807739401924863 -0.19133531896399703 -0.17670513176317826 -0.21533024128684275 -0.19297122037939474 -0.17399260138261277 -0.14517017802405263 -0.13189852157720272 -0.10569439612004317 -0.11698589228895884 -0.16039123383172565 -0.12212535537527813 -0.1422000266811132 -0.1353995043482783 -0.089406827826998381 -0.074912952529198051 -0.089587532719855645 -0.035756791874543836 -0.045669981808806881 -0.083574632427684037 -0.058288265369052183 -0.095155949461847911 -0.064574117154538868 -0.092296252893088848 -0.12469624272836732 -0.091301557838249892 -0.19373071358955585 -0.050273339775351644 -0.083964508001386662 0.015139167465273218 -0.0311979523535868 -0.065217832398911213 0.014830622092368628 -0.049983902736528307 -0.018733767735060525 -0.090436331917334911 -0.062679419412919657 -0.13688750155264628 -0.099993292377819287 -0.081124167899243815 -0.17561619198017908 -0.11300804666183417 -0.1263087295877412 -0.16708613488759716 -0.16432870607457595 -0.13875239256729799 -0.18783176140145486 -0.21956061908346247 -0.18148115562675926 -0.27891276506043816 -0.25339046710224267 -0.25876208052459704 -0.17756784420538807 -0.23715597859984427 -0.16592078560963053 -0.25891870061756528 -0.23859618034019903 -0.33343600091794201 -0.48157601562328978 -0.39635491397711675 -0.30591085707251864 -0.32478734194660497 -0.36358096721986755 -0.38127569470767719 -0.46205341747543116 -0.46100727245336159 -0.60697813628516428 -0.53210796885356348 -0.4232025616438051 -0.34097294769405906 -0.82047896006936227 -0.75877042414112239 -0.55633633357823697 -0.4172523856215129 -0.32085031650442047 -0.23363878436114405 -0.40039936546756039 -0.21298619441616573 -0.23260274395212477 -0.17020029165074746 -0.13593397597206014 -0.28181964536810966 0.0096793082910906492 -0.1042536189581611 -0.084546503551454322 -0.0078688897458949469 -0.12126143543351553 -0.13887677583515234 -0.14800391577654182 -0.0008782025987628117 -0.061989473237364479 0.063301948226076377 0.14810156867244828 0.13166591363331293 0.10801049460698398 0.41890335659400435 0.31187083659627185 0.23053073583264094 0.39324882359184343 0.20173362655945226 0.22279781890253503 0.17011398784955745 0.28314742414425531 0.13075340701411164 -0.0021768426720853995 0.073289447393912965 -0.014602508619628196 0.095296244484114112 0.079490124713045063 -0.019279848077182749 0.045273786612106903 0.19415959677921713 0.090731144313849654 0.12188211672269667 0.088574704413545646 0.060509286067091494 0.13388712464937491 0.099588726632413582 0.01529964831772368 0.046313239905213521 -0.018002881638459201 0.060846051319764172 0.027241325737406896 0.22012552073498237 0.18919411673951991 0.16650774566765492 0.1396445130005739 0.16488536515728036 0.079019748991482786 0.1264741524396662 0.11449595364955734 0.17514512548665095 0.23700411857896952 0.17748043920487078 0.1652704435204484 0.24721949166032076 0.27700095430548366 0.17907583342867639 0.26040897587257206 0.30490383054164383 0.36194462289754492 0.3210830356767822 0.37700793074482419 0.26044013880558126 0.23296147231071984 0.33389903986002878 0.48132769418332622 0.39634506118819424 0.34448140097147473 0.82088948291498198 0.75916263826816355 0.55518909266628214 0.45788616001150473 0.46244652701782485 0.60635720619603006 0.53208667662383569 0.41998394807791328 0.36741047991709408 0.3300819613552719 0.2445876969900368 0.26368703493706747 0.29425958803897245 0.20774872543563591 0.19100471992929968 0.17669672443490825 0.21546373613795566 0.17390442432109054 0.19285403500885301 0.22542477049935528 0.24640133235667089 0.29019365821002907 0.28472822483093196 0.083440645939989011 0.035587458923583171 0.045162792065175109 0.08915119449212483 0.073744784474440106 0.088460878791053688 0.13513313980868702 0.14113606514494009 0.12022778363535824 0.15936242275008894 0.1458741169618884 0.13097410786514985 0.10515866700630738 0.11573449633186783 0.094024709682649643 0.092115043118813134 0.064452052820939798 0.057895505623896781 0.062986302304627984 0.093470985579278576 0.087947140566540627 0.09603150629694529 0.10703320167914399 0.11618113071616065 0.13944961282919976 0.11880909504802872 0.10563714437843252 0.092344390711544988 0.082208340415100167 0.10715944731454741 0.079940386553086995 0.074115933769271503 0.074413906608663538 0.055835885888665615 0.085960888915749933 0.16502853230497924 0.21605857965883146 0.18700238587166851 0.21994110507125356 0.17721253834753981 0.15076623432989608 0.14309617435935776 0.13749152433563339 0.11029134972578009 0.12982751174157059 0.15340911958486458 0.12586925148378222 0.17009842243191287 0.20229629169631735 0.13413389799396949 0.13157719800724443 0.078922972577295525 0.076334710249878701 0.10382279801135574 0.11701462704373711 0.095458220060961496 0.098898367986041791 0.070026470279758612 0.08747723451101308 0.062583183174460544 0.053630398544899531 0.056592494529254245 0.071845520986034472 0.078562962321344187 0.098723828852126161 0.037396497810120444 0.063812834399737284 0.047036480303805916 0.05242188987991625 0.056826692940095569 0.071936213557316719 0.083651092725299192 0.079370931029355773 0.06139490290535965 0.073559140043579774 0.052050641654506791 0.049312618617560366 0.044960916651110239 0.059271581146459695 0.040036907786316078 0.041723863112141046 0.023963117550945157 0.048292119014353929 0.01622738087090525 0.019451668265293875 0.034000062724507174 0.027654792108603665 0.01820757910241011 0.033964993789609821 0.031459939855905672 0.041500891426331066 0.018207804610002043 0.023355509264463947 0.010730529958219603 0.0033961161527802375 0.0070408406867309981 0.016580204083549432 0.0062969242783470492 0.0068544823496718976 0.00800023163607122 0.017234280624791126 0.036134887793888737 0.053360294278983589 0.035513552382933966 0.048828513579957544 0.03431201787540672 0.01764100893887588 0.028437896311967137 0.0014164618456593558 0.013859679954231804 5.4767997037075133e-05 0.016366186382817428 0.032872534195918846 0.036957683795291629 -0.0020754137780478743 0.017261097879888943 0.00065649341811280237 0.013595555935419057 0.03754461924539565 0.019308369266349601 0.022721832558099564 0.052910450499435768 0.042128510418793397 0.056690757724474405 0.026739062465923169 0.028522407590353183 0.042548036634808994 0.013577078023334188 0.013706745743453652 0.020568461582177733 0.0044024570076155456 0.0061296395556116323 0.0091517481039238291 0.0052953962177371139 -4.7432239233202722e-05 0.0029128181867488223 0.00063634142802815319 -0.0024573255372928315 0.0092352441789236295 0.0019246561724344247 0.004755974006398489 0.013731808267756662 -0.0046994934408246536 0.017036989577915662 0.017603094416493548 0.014882315245119848 0.022486195044837842 0.047103535760879112 0.034516660985246972 0.017375777595004749 0.046348021616911719 0.007704862896059872 0.0083703103779360077 0.02271576874742649 0.036195881716443168 0.0018762487876529121 0.012412917636645204 -0.013434741842299758 0.034833751181697181 0.079828223006414234 0.031827214628792788 0.065447305959540181 0.038857652865978309 0.090892877800990313 0.061766086522868413 0.056491289621099838 0.092087563534016148 0.1277388581291099 0.11463454703165787 0.10544709578325673 0.13259566383726096 0.079360526684572719 0.10201780106547176 0.10274032399333599 0.059728735686450207 0.082447096114961482 0.061339897252192799 0.067926210027397183 0.025872756987100232 0.050305773241253071 0.062220805724976458 
</DataArray>
</CellData>
</Piece>
</UnstructuredGrid>
</VTKFile>
