<?xml version="1.0"?>
<VTKFile type="UnstructuredGrid" version="0.1" byte_order="LittleEndian">
<UnstructuredGrid>
<Piece NumberOfPoints="3186" NumberOfCells="1062">
<Points>
<DataArray type="Float64" NumberOfComponents="3" format="ascii">
0 0 0 0.14285714285686729 0 0 0.10402057578810379 0.10402057578810379 0 0 0 0 0.10402057578810379 0.10402057578810379 0 0 0.14285714285686729 0 0.14285714285686729 0 0 0.10402057578810379 0.10402057578810379 0 0.21622614199724011 0.1170905489967794 0 0.10402057578810379 0.10402057578810379 0 0.12873413335214179 0.22892000827465461 0 0.21622614199724011 0.1170905489967794 0 0.10402057578810379 0.10402057578810379 0 0 0.14285714285686729 0 0.12873413335214179 0.22892000827465461 0 0 0.14285714285686729 0 0 0.28571428571359381 0 0.12873413335214179 0.22892000827465461 0 0.093737460955887239 0.36334567880837831 0 0 0.28571428571359381 0 0 0.42857142857032021 0 0.093737460955887239 0.36334567880837831 0 0 0.28571428571359381 0 0.12873413335214179 0.22892000827465461 0 0.093737460955887239 0.36334567880837831 0 0.12873413335214179 0.22892000827465461 0 0.21341038379882901 0.37169997079090128 0 0.12873413335214179 0.22892000827465461 0 0.28183877965613813 0.2453094238274868 0 0.21622614199724011 0.1170905489967794 0 0.12873413335214179 0.22892000827465461 0 0.21341038379882901 0.37169997079090128 0 0.28183877965613813 0.2453094238274868 0 0.21341038379882901 0.37169997079090128 0 0.28183877965613813 0.2453094238274868 0 0.35714458040172548 0.37949340689832922 0 0.28183877965613813 0.2453094238274868 0 0.35714458040172548 0.37949340689832922 0 0.42857142856968189 0.24782843958009351 0 0.28183877965613813 0.2453094238274868 0 0.35419193461659548 0.1242932860904311 0 0.42857142856968189 0.24782843958009351 0 0.28183877965613813 0.2453094238274868 0 0.35419193461659548 0.1242932860904311 0 0.21622614199724011 0.1170905489967794 0 0.35419193461659548 0.1242932860904311 0 0.28571428571359381 0 0 0.21622614199724011 0.1170905489967794 0 0.35419193461659548 0.1242932860904311 0 0.28571428571359381 0 0 0.42857142857032021 0 0 0.14285714285686729 0 0 0.28571428571359381 0 0 0.21622614199724011 0.1170905489967794 0 0.091975849439628388 0.63906079561326345 0 0.21183497469564019 0.63320029487793694 0 0.12868163055416221 0.76697400229767487 0 0 0.71428571428496201 0 0.091975849439628388 0.63906079561326345 0 0.12868163055416221 0.76697400229767487 0 0.091975849439628388 0.63906079561326345 0 0 0.57142857142744297 0 0.12654278762846541 0.50182270069242174 0 0 0.71428571428496201 0 0.091975849439628388 0.63906079561326345 0 0 0.57142857142744297 0 0.091975849439628388 0.63906079561326345 0 0.12654278762846541 0.50182270069242174 0 0.21183497469564019 0.63320029487793694 0 0 0.57142857142744297 0 0.12654278762846541 0.50182270069242174 0 0 0.42857142857032021 0 0.093737460955887239 0.36334567880837831 0 0.12654278762846541 0.50182270069242174 0 0 0.42857142857032021 0 0.093737460955887239 0.36334567880837831 0 0.21341038379882901 0.37169997079090128 0 0.12654278762846541 0.50182270069242174 0 0.21341038379882901 0.37169997079090128 0 0.12654278762846541 0.50182270069242174 0 0.28571428571288859 0.50512834069527579 0 0.35714458040172548 0.37949340689832922 0 0.28571428571288859 0.50512834069527579 0 0.42857911129460902 0.5051327763182708 0 0.21341038379882901 0.37169997079090128 0 0.35714458040172548 0.37949340689832922 0 0.28571428571288859 0.50512834069527579 0 0.28571428571288859 0.50512834069527579 0 0.35657912408519199 0.6297632267709089 0 0.42857911129460902 0.5051327763182708 0 0.12654278762846541 0.50182270069242174 0 0.28571428571288859 0.50512834069527579 0 0.21183497469564019 0.63320029487793694 0 0.28571428571288859 0.50512834069527579 0 0.21183497469564019 0.63320029487793694 0 0.35657912408519199 0.6297632267709089 0 0.35657912408519199 0.6297632267709089 0 0.42876602422768972 0.75267652020288756 0 0.28454251053718921 0.75357332720455328 0 0.21183497469564019 0.63320029487793694 0 0.35657912408519199 0.6297632267709089 0 0.28454251053718921 0.75357332720455328 0 0.21183497469564019 0.63320029487793694 0 0.28454251053718921 0.75357332720455328 0 0.12868163055416221 0.76697400229767487 0 0.50003783804313584 0.62886810132652948 0 0.57146100403685018 0.75258289532342593 0 0.42876602422768972 0.75267652020288756 0 0.35657912408519199 0.6297632267709089 0 0.50003783804313584 0.62886810132652948 0 0.42876602422768972 0.75267652020288756 0 0.35657912408519199 0.6297632267709089 0 0.50003783804313584 0.62886810132652948 0 0.42857911129460902 0.5051327763182708 0 0.50003783804313584 0.62886810132652948 0 0.42857911129460902 0.5051327763182708 0 0.57143682973041188 0.50513310862866234 0 0.35714458040172548 0.37949340689832922 0 0.42857911129460902 0.5051327763182708 0 0.50000265683637624 0.3797679478844822 0 0.42857911129460902 0.5051327763182708 0 0.50000265683637624 0.3797679478844822 0 0.57143682973041188 0.50513310862866234 0 0.6428589620457259 0.38113747419351418 0 0.71689882325258081 0.50562151542895928 0 0.57143682973041188 0.50513310862866234 0 0.50000265683637624 0.3797679478844822 0 0.6428589620457259 0.38113747419351418 0 0.57143682973041188 0.50513310862866234 0 0.6428589620457259 0.38113747419351418 0 0.71689882325258081 0.50562151542895928 0 0.78571428571267199 0.38141042586853341 0 0.71689882325258081 0.50562151542895928 0 0.57143682973041188 0.50513310862866234 0 0.6428688546313952 0.62885301731806609 0 0.50003783804313584 0.62886810132652948 0 0.57143682973041188 0.50513310862866234 0 0.6428688546313952 0.62885301731806609 0 0.71689882325258081 0.50562151542895928 0 0.6428688546313952 0.62885301731806609 0 0.7865654166374938 0.63474444568669874 0 0.6428688546313952 0.62885301731806609 0 0.7865654166374938 0.63474444568669874 0 0.71537080136980369 0.7565812122385458 0 0.50003783804313584 0.62886810132652948 0 0.6428688546313952 0.62885301731806609 0 0.57146100403685018 0.75258289532342593 0 0.6428688546313952 0.62885301731806609 0 0.57146100403685018 0.75258289532342593 0 0.71537080136980369 0.7565812122385458 0 0.49927531931040692 0.1259400136946118 0 0.42857142857032021 0 0 0.57142857142744297 0 0 0.35419193461659548 0.1242932860904311 0 0.49927531931040692 0.1259400136946118 0 0.42857142857032021 0 0 0.35419193461659548 0.1242932860904311 0 0.49927531931040692 0.1259400136946118 0 0.42857142856968189 0.24782843958009351 0 0.35714458040172548 0.37949340689832922 0 0.50000265683637624 0.3797679478844822 0 0.42857142856968189 0.24782843958009351 0 0.50000265683637624 0.3797679478844822 0 0.42857142856968189 0.24782843958009351 0 0.57134283277699616 0.25528695228377429 0 0.49927531931040692 0.1259400136946118 0 0.42857142856968189 0.24782843958009351 0 0.57134283277699616 0.25528695228377429 0 0.57134283277699616 0.25528695228377429 0 0.71335089116972128 0.25578338314493299 0 0.64223892332544308 0.130274960827549 0 0.6428589620457259 0.38113747419351418 0 0.57134283277699616 0.25528695228377429 0 0.71335089116972128 0.25578338314493299 0 0.50000265683637624 0.3797679478844822 0 0.6428589620457259 0.38113747419351418 0 0.57134283277699616 0.25528695228377429 0 0.6428589620457259 0.38113747419351418 0 0.71335089116972128 0.25578338314493299 0 0.78571428571267199 0.38141042586853341 0 0.71335089116972128 0.25578338314493299 0 0.64223892332544308 0.130274960827549 0 0.78018926648548503 0.12559094919453551 0 0.49927531931040692 0.1259400136946118 0 0.57134283277699616 0.25528695228377429 0 0.64223892332544308 0.130274960827549 0 0.64223892332544308 0.130274960827549 0 0.57142857142744297 0 0 0.71428571428496201 0 0 0.49927531931040692 0.1259400136946118 0 0.64223892332544308 0.130274960827549 0 0.57142857142744297 0 0 0.64223892332544308 0.130274960827549 0 0.71428571428496201 0 0 0.78018926648548503 0.12559094919453551 0 0.71428571428496201 0 0 0.78018926648548503 0.12559094919453551 0 0.85714285714248095 0 0 0.78018926648548503 0.12559094919453551 0 0.89542131320406015 0.10457868679576519 0 0.86802342313663505 0.2373869704637242 0 0.89542131320406015 0.10457868679576519 0 1 0.14285714285686729 0 0.86802342313663505 0.2373869704637242 0 0.89542131320406015 0.10457868679576519 0 0.85714285714248095 0 0 1 0 0 0.78018926648548503 0.12559094919453551 0 0.89542131320406015 0.10457868679576519 0 0.85714285714248095 0 0 0.89542131320406015 0.10457868679576519 0 1 0 0 1 0.14285714285686729 0 1 0.14285714285686729 0 1.1045786867956009 0.1045786867955263 0 1.11654878083672 0.2171580770020253 0 1 0 0 1 0.14285714285686729 0 1.1045786867956009 0.1045786867955263 0 1 0 0 1.1045786867956009 0.1045786867955263 0 1.142857142857143 0 0 1.120408926261548 0.35723491808527941 0 1 0.28571428571359381 0 1 0.42857142857032021 0 1.120408926261548 0.35723491808527941 0 1.11654878083672 0.2171580770020253 0 1 0.28571428571359381 0 1 0.14285714285686729 0 1.11654878083672 0.2171580770020253 0 1 0.28571428571359381 0 1 0.14285714285686729 0 1 0.28571428571359381 0 0.86802342313663505 0.2373869704637242 0 1 0.28571428571359381 0 0.90513725992141869 0.36710674629889062 0 1 0.42857142857032021 0 1 0.28571428571359381 0 0.90513725992141869 0.36710674629889062 0 0.86802342313663505 0.2373869704637242 0 0.90513725992141869 0.36710674629889062 0 0.86802342313663505 0.2373869704637242 0 0.78571428571267199 0.38141042586853341 0 0.71335089116972128 0.25578338314493299 0 0.78018926648548503 0.12559094919453551 0 0.86802342313663505 0.2373869704637242 0 0.71335089116972128 0.25578338314493299 0 0.86802342313663505 0.2373869704637242 0 0.78571428571267199 0.38141042586853341 0 0.71689882325258081 0.50562151542895928 0 0.78571428571267199 0.38141042586853341 0 0.87194859075778619 0.50245062087828152 0 0.71689882325258081 0.50562151542895928 0 0.87194859075778619 0.50245062087828152 0 0.7865654166374938 0.63474444568669874 0 0.90513725992141869 0.36710674629889062 0 0.87194859075778619 0.50245062087828152 0 1 0.42857142857032021 0 0.90513725992141869 0.36710674629889062 0 0.78571428571267199 0.38141042586853341 0 0.87194859075778619 0.50245062087828152 0 0.7865654166374938 0.63474444568669874 0 0.87061467893647215 0.77259634013423817 0 0.71537080136980369 0.7565812122385458 0 0.87194859075778619 0.50245062087828152 0 0.90582573726635052 0.63910113848232464 0 1 0.57142857142744297 0 0.87194859075778619 0.50245062087828152 0 0.7865654166374938 0.63474444568669874 0 0.90582573726635052 0.63910113848232464 0 0.90582573726635052 0.63910113848232464 0 1 0.71428571428496201 0 0.87061467893647215 0.77259634013423817 0 0.7865654166374938 0.63474444568669874 0 0.90582573726635052 0.63910113848232464 0 0.87061467893647215 0.77259634013423817 0 0.90582573726635052 0.63910113848232464 0 1 0.71428571428496201 0 1 0.57142857142744297 0 1 0.57142857142744297 0 1.1230850406616231 0.64211163998861642 0 1.1231105411754949 0.50105200202130007 0 1 0.71428571428496201 0 1 0.57142857142744297 0 1.1230850406616231 0.64211163998861642 0 1 0.71428571428496201 0 1.1230850406616231 0.64211163998861642 0 1.1205280434883049 0.78018926648583675 0 0.87194859075778619 0.50245062087828152 0 1 0.57142857142744297 0 1 0.42857142857032021 0 1 0.57142857142744297 0 1 0.42857142857032021 0 1.1231105411754949 0.50105200202130007 0 1.120408926261548 0.35723491808527941 0 1 0.42857142857032021 0 1.1231105411754949 0.50105200202130007 0 1.120408926261548 0.35723491808527941 0 1.1231105411754949 0.50105200202130007 0 1.242992467502205 0.4277245950738956 0 1.1231105411754949 0.50105200202130007 0 1.242992467502205 0.4277245950738956 0 1.247229121683481 0.57147965461975947 0 1.242992467502205 0.4277245950738956 0 1.247229121683481 0.57147965461975947 0 1.369122867196076 0.49769215192747729 0 1.1230850406616231 0.64211163998861642 0 1.246702098928647 0.71318645322081164 0 1.1205280434883049 0.78018926648583675 0 1.1230850406616231 0.64211163998861642 0 1.1231105411754949 0.50105200202130007 0 1.247229121683481 0.57147965461975947 0 1.1230850406616231 0.64211163998861642 0 1.247229121683481 0.57147965461975947 0 1.246702098928647 0.71318645322081164 0 1.247229121683481 0.57147965461975947 0 1.246702098928647 0.71318645322081164 0 1.3707808136040489 0.64248101537579216 0 1.246702098928647 0.71318645322081164 0 1.3707808136040489 0.64248101537579216 0 1.369080439626563 0.78389141510404459 0 1.247229121683481 0.57147965461975947 0 1.3707808136040489 0.64248101537579216 0 1.369122867196076 0.49769215192747729 0 1.3707808136040489 0.64248101537579216 0 1.49447102461245 0.57098124216803303 0 1.4948716593059641 0.71428571428344279 0 1.3707808136040489 0.64248101537579216 0 1.49447102461245 0.57098124216803303 0 1.369122867196076 0.49769215192747729 0 1.3707808136040489 0.64248101537579216 0 1.4948716593059641 0.71428571428344279 0 1.369080439626563 0.78389141510404459 0 1.242992467502205 0.4277245950738956 0 1.369122867196076 0.49769215192747729 0 1.365913983939659 0.35404229584497132 0 1.49447102461245 0.57098124216803303 0 1.369122867196076 0.49769215192747729 0 1.493210541712801 0.42593700932760992 0 1.369122867196076 0.49769215192747729 0 1.493210541712801 0.42593700932760992 0 1.365913983939659 0.35404229584497132 0 1.493210541712801 0.42593700932760992 0 1.365913983939659 0.35404229584497132 0 1.4945915486603041 0.278046120036475 0 1.365913983939659 0.35404229584497132 0 1.362797304713371 0.2085843731968661 0 1.239801768054871 0.28318912013054159 0 1.362797304713371 0.2085843731968661 0 1.4945915486603041 0.278046120036475 0 1.4981772993068541 0.1265427876282571 0 1.365913983939659 0.35404229584497132 0 1.362797304713371 0.2085843731968661 0 1.4945915486603041 0.278046120036475 0 1.4981772993068541 0.1265427876282571 0 1.4285714285714279 0 0 1.357142857142857 0.088385776599927718 0 1.4981772993068541 0.1265427876282571 0 1.4285714285714279 0 0 1.571428571428571 0 0 1.4285714285714279 0 0 1.357142857142857 0.088385776599927718 0 1.2857142857142849 0 0 1.362797304713371 0.2085843731968661 0 1.357142857142857 0.088385776599927718 0 1.230484398416066 0.12817051038898539 0 1.362797304713371 0.2085843731968661 0 1.4981772993068541 0.1265427876282571 0 1.357142857142857 0.088385776599927718 0 1.230484398416066 0.12817051038898539 0 1.2857142857142849 0 0 1.142857142857143 0 0 1.357142857142857 0.088385776599927718 0 1.230484398416066 0.12817051038898539 0 1.2857142857142849 0 0 1.1045786867956009 0.1045786867955263 0 1.230484398416066 0.12817051038898539 0 1.142857142857143 0 0 1.1045786867956009 0.1045786867955263 0 1.11654878083672 0.2171580770020253 0 1.230484398416066 0.12817051038898539 0 1.11654878083672 0.2171580770020253 0 1.230484398416066 0.12817051038898539 0 1.239801768054871 0.28318912013054159 0 1.120408926261548 0.35723491808527941 0 1.242992467502205 0.4277245950738956 0 1.239801768054871 0.28318912013054159 0 1.120408926261548 0.35723491808527941 0 1.11654878083672 0.2171580770020253 0 1.239801768054871 0.28318912013054159 0 1.242992467502205 0.4277245950738956 0 1.365913983939659 0.35404229584497132 0 1.239801768054871 0.28318912013054159 0 1.362797304713371 0.2085843731968661 0 1.230484398416066 0.12817051038898539 0 1.239801768054871 0.28318912013054159 0 1.2843187895246739 1.251849118408489 0 1.356519680644851 1.1297688427831769 0 1.217136293327606 1.122039968907099 0 1.2843187895246739 1.251849118408489 0 1.1309902448456099 1.235084640813384 0 1.217136293327606 1.122039968907099 0 1.1309902448456099 1.235084640813384 0 1.217136293327606 1.122039968907099 0 1.1045786867955529 1.1045786867955529 0 1.2843187895246739 1.251849118408489 0 1.1309902448456099 1.235084640813384 0 1.214285714285708 1.381410425868262 0 1.1309902448456099 1.235084640813384 0 1.214285714285708 1.381410425868262 0 1.0966122299857239 1.357142857142857 0 1.214285714285708 1.381410425868262 0 1.1265427876294609 1.501822700692834 0 1.285714285714282 1.505128340694609 0 1.214285714285708 1.381410425868262 0 1.0966122299857239 1.357142857142857 0 1.1265427876294609 1.501822700692834 0 1.214285714285708 1.381410425868262 0 1.3557237634480139 1.380474745153186 0 1.285714285714282 1.505128340694609 0 1.2843187895246739 1.251849118408489 0 1.214285714285708 1.381410425868262 0 1.3557237634480139 1.380474745153186 0 1.3557237634480139 1.380474745153186 0 1.285714285714282 1.505128340694609 0 1.42857911129607 1.505132776317748 0 1.3557237634480139 1.380474745153186 0 1.4999999999999949 1.3814104258682569 0 1.42857911129607 1.505132776317748 0 1.3557237634480139 1.380474745153186 0 1.4999999999999949 1.3814104258682569 0 1.426914538806672 1.255395578508163 0 1.4999999999999949 1.3814104258682569 0 1.426914538806672 1.255395578508163 0 1.571152652531757 1.256105255633247 0 1.2843187895246739 1.251849118408489 0 1.3557237634480139 1.380474745153186 0 1.426914538806672 1.255395578508163 0 1.2843187895246739 1.251849118408489 0 1.426914538806672 1.255395578508163 0 1.356519680644851 1.1297688427831769 0 1.426914538806672 1.255395578508163 0 1.499999999999998 1.1271398115696349 0 1.571152652531757 1.256105255633247 0 1.426914538806672 1.255395578508163 0 1.356519680644851 1.1297688427831769 0 1.499999999999998 1.1271398115696349 0 1.499999999999998 1.1271398115696349 0 1.4285714285714279 1 0 1.571428571428571 1 0 1.356519680644851 1.1297688427831769 0 1.499999999999998 1.1271398115696349 0 1.4285714285714279 1 0 1.4285714285714279 1 0 1.497549379121643 0.87194859075748521 0 1.571428571428571 1 0 1.4285714285714279 1 0 1.359152564409752 0.9044833397938371 0 1.2857142857142849 1 0 1.356519680644851 1.1297688427831769 0 1.4285714285714279 1 0 1.2857142857142849 1 0 1.4948716593059641 0.71428571428344279 0 1.497549379121643 0.87194859075748521 0 1.369080439626563 0.78389141510404459 0 1.497549379121643 0.87194859075748521 0 1.359152564409752 0.9044833397938371 0 1.369080439626563 0.78389141510404459 0 1.4285714285714279 1 0 1.497549379121643 0.87194859075748521 0 1.359152564409752 0.9044833397938371 0 1.359152564409752 0.9044833397938371 0 1.369080439626563 0.78389141510404459 0 1.2323719363650789 0.86814175826561835 0 1.246702098928647 0.71318645322081164 0 1.369080439626563 0.78389141510404459 0 1.2323719363650789 0.86814175826561835 0 1.359152564409752 0.9044833397938371 0 1.2323719363650789 0.86814175826561835 0 1.2857142857142849 1 0 1.2323719363650789 0.86814175826561835 0 1.142857142857143 1 0 1.104578686795793 0.89542131320410689 0 1.2323719363650789 0.86814175826561835 0 1.1205280434883049 0.78018926648583675 0 1.104578686795793 0.89542131320410689 0 1.246702098928647 0.71318645322081164 0 1.2323719363650789 0.86814175826561835 0 1.1205280434883049 0.78018926648583675 0 1.356519680644851 1.1297688427831769 0 1.2857142857142849 1 0 1.217136293327606 1.122039968907099 0 1.2323719363650789 0.86814175826561835 0 1.2857142857142849 1 0 1.142857142857143 1 0 1.142857142857143 1 0 1.217136293327606 1.122039968907099 0 1.1045786867955529 1.1045786867955529 0 1.2857142857142849 1 0 1.142857142857143 1 0 1.217136293327606 1.122039968907099 0 1.1045786867955529 1.1045786867955529 0 1 1 0 1 1.142857142857143 0 1.142857142857143 1 0 1.1045786867955529 1.1045786867955529 0 1 1 0 1.142857142857143 1 0 1 1 0 1.104578686795793 0.89542131320410689 0 1 1 0 0.89542131320410701 1.104578686795793 0 1 1.142857142857143 0 1 0.71428571428496201 0 1.1205280434883049 0.78018926648583675 0 1 0.85714285714248095 0 1 1 0 1.104578686795793 0.89542131320410689 0 1 0.85714285714248095 0 1.1205280434883049 0.78018926648583675 0 1.104578686795793 0.89542131320410689 0 1 0.85714285714248095 0 1 1 0 1 0.85714285714248095 0 0.89542131320417073 0.89542131320417073 0 1 0.71428571428496201 0 1 0.85714285714248095 0 0.87061467893647215 0.77259634013423817 0 1 0.85714285714248095 0 0.87061467893647215 0.77259634013423817 0 0.89542131320417073 0.89542131320417073 0 0.89542131320417073 0.89542131320417073 0 0.78149925341697946 0.88257916460195274 0 0.85714285714248095 1 0 0.87061467893647215 0.77259634013423817 0 0.89542131320417073 0.89542131320417073 0 0.78149925341697946 0.88257916460195274 0 0.87061467893647215 0.77259634013423817 0 0.78149925341697946 0.88257916460195274 0 0.71537080136980369 0.7565812122385458 0 0.89542131320410701 1.104578686795793 0 0.85714285714248095 1 0 0.78018926648585263 1.1205280434881351 0 1 1 0 0.89542131320410701 1.104578686795793 0 0.85714285714248095 1 0 1 1 0 0.89542131320417073 0.89542131320417073 0 0.85714285714248095 1 0 0.78149925341697946 0.88257916460195274 0 0.85714285714248095 1 0 0.71428571428496201 1 0 0.85714285714248095 1 0 0.78018926648585263 1.1205280434881351 0 0.71428571428496201 1 0 0.78018926648585263 1.1205280434881351 0 0.8681417582656602 1.2323719363648691 0 0.71318645322083074 1.246702098928443 0 0.8681417582656602 1.2323719363648691 0 0.78389141510410065 1.3690804396262211 0 0.71318645322083074 1.246702098928443 0 0.8681417582656602 1.2323719363648691 0 1 1.2857142857142849 0 0.90448333979397377 1.359152564409229 0 0.89542131320410701 1.104578686795793 0 0.78018926648585263 1.1205280434881351 0 0.8681417582656602 1.2323719363648691 0 0.89542131320410701 1.104578686795793 0 0.8681417582656602 1.2323719363648691 0 1 1.142857142857143 0 0.8681417582656602 1.2323719363648691 0 1 1.142857142857143 0 1 1.2857142857142849 0 1.1309902448456099 1.235084640813384 0 1 1.2857142857142849 0 1.0966122299857239 1.357142857142857 0 1.1309902448456099 1.235084640813384 0 1 1.142857142857143 0 1 1.2857142857142849 0 1.1309902448456099 1.235084640813384 0 1.1045786867955529 1.1045786867955529 0 1 1.142857142857143 0 1.0966122299857239 1.357142857142857 0 1 1.4285714285714279 0 1.1265427876294609 1.501822700692834 0 1 1.2857142857142849 0 1.0966122299857239 1.357142857142857 0 1 1.4285714285714279 0 1 1.2857142857142849 0 1 1.4285714285714279 0 0.90448333979397377 1.359152564409229 0 1 1.4285714285714279 0 0.87194859075750586 1.497549379121565 0 1 1.571428571428571 0 0.87194859075750586 1.497549379121565 0 0.90448333979397377 1.359152564409229 0 0.78389141510410065 1.3690804396262211 0 1 1.4285714285714279 0 0.87194859075750586 1.497549379121565 0 0.90448333979397377 1.359152564409229 0 0.8681417582656602 1.2323719363648691 0 0.90448333979397377 1.359152564409229 0 0.78389141510410065 1.3690804396262211 0 0.87194859075750586 1.497549379121565 0 0.78389141510410065 1.3690804396262211 0 0.71428571428344279 1.494871659305963 0 0.78389141510410065 1.3690804396262211 0 0.71428571428344279 1.494871659305963 0 0.64248101537579227 1.370780813604048 0 0.71428571428344279 1.494871659305963 0 0.5709812421680337 1.49447102461245 0 0.64248101537579227 1.370780813604048 0 0.5709812421680337 1.49447102461245 0 0.64248101537579227 1.370780813604048 0 0.49769215192747779 1.3691228671960749 0 0.64248101537579227 1.370780813604048 0 0.57147965461975991 1.2472291216834761 0 0.49769215192747779 1.3691228671960749 0 0.78389141510410065 1.3690804396262211 0 0.64248101537579227 1.370780813604048 0 0.71318645322083074 1.246702098928443 0 0.78018926648585263 1.1205280434881351 0 0.71318645322083074 1.246702098928443 0 0.64211163998861909 1.1230850406615951 0 0.71318645322083074 1.246702098928443 0 0.57147965461975991 1.2472291216834761 0 0.64211163998861909 1.1230850406615951 0 0.57147965461975991 1.2472291216834761 0 0.64211163998861909 1.1230850406615951 0 0.50105200202129974 1.1231105411754949 0 0.64248101537579227 1.370780813604048 0 0.71318645322083074 1.246702098928443 0 0.57147965461975991 1.2472291216834761 0 0.57147965461975991 1.2472291216834761 0 0.42772459507389549 1.2429924675022059 0 0.49769215192747779 1.3691228671960749 0 0.57147965461975991 1.2472291216834761 0 0.42772459507389549 1.2429924675022059 0 0.50105200202129974 1.1231105411754949 0 0.42772459507389549 1.2429924675022059 0 0.50105200202129974 1.1231105411754949 0 0.35723491808528002 1.1204089262615491 0 0.42772459507389549 1.2429924675022059 0 0.49769215192747779 1.3691228671960749 0 0.35404229584497188 1.365913983939661 0 0.42593700932761119 1.4932105417128021 0 0.49769215192747779 1.3691228671960749 0 0.35404229584497188 1.365913983939661 0 0.5709812421680337 1.49447102461245 0 0.42593700932761119 1.4932105417128021 0 0.49769215192747779 1.3691228671960749 0 0.57146100403685018 0.75258289532342593 0 0.71537080136980369 0.7565812122385458 0 0.64285714285588325 0.87628208517373918 0 0.57146100403685018 0.75258289532342593 0 0.64285714285588325 0.87628208517373918 0 0.49999999999885258 0.87628208517384021 0 0.78149925341697946 0.88257916460195274 0 0.71537080136980369 0.7565812122385458 0 0.64285714285588325 0.87628208517373918 0 0.78149925341697946 0.88257916460195274 0 0.64285714285588325 0.87628208517373918 0 0.71428571428496201 1 0 0.64285714285588325 0.87628208517373918 0 0.57142857142744297 1 0 0.49999999999885258 0.87628208517384021 0 0.64285714285588325 0.87628208517373918 0 0.57142857142744297 1 0 0.71428571428496201 1 0 0.78018926648585263 1.1205280434881351 0 0.71428571428496201 1 0 0.64211163998861909 1.1230850406615951 0 0.57142857142744297 1 0 0.71428571428496201 1 0 0.64211163998861909 1.1230850406615951 0 0.57142857142744297 1 0 0.64211163998861909 1.1230850406615951 0 0.50105200202129974 1.1231105411754949 0 0.57142857142744297 1 0 0.50105200202129974 1.1231105411754949 0 0.42857142857032021 1 0 0.50105200202129974 1.1231105411754949 0 0.42857142857032021 1 0 0.35723491808528002 1.1204089262615491 0 0.57142857142744297 1 0 0.42857142857032021 1 0 0.49999999999885258 0.87628208517384021 0 0.42857142857032021 1 0 0.49999999999885258 0.87628208517384021 0 0.35831043108656913 0.87695618430515165 0 0.49999999999885258 0.87628208517384021 0 0.42876602422768972 0.75267652020288756 0 0.35831043108656913 0.87695618430515165 0 0.57146100403685018 0.75258289532342593 0 0.49999999999885258 0.87628208517384021 0 0.42876602422768972 0.75267652020288756 0 0.28454251053718921 0.75357332720455328 0 0.22029060869521661 0.88080238224013152 0 0.12868163055416221 0.76697400229767487 0 0.28454251053718921 0.75357332720455328 0 0.35831043108656913 0.87695618430515165 0 0.22029060869521661 0.88080238224013152 0 0.42876602422768972 0.75267652020288756 0 0.28454251053718921 0.75357332720455328 0 0.35831043108656913 0.87695618430515165 0 0.35831043108656913 0.87695618430515165 0 0.22029060869521661 0.88080238224013152 0 0.28571428571359381 1 0 0.22029060869521661 0.88080238224013152 0 0.28571428571359381 1 0 0.14285714285686729 1 0 0.42857142857032021 1 0 0.35831043108656913 0.87695618430515165 0 0.28571428571359381 1 0 0.42857142857032021 1 0 0.28571428571359381 1 0 0.35723491808528002 1.1204089262615491 0 0.28571428571359381 1 0 0.35723491808528002 1.1204089262615491 0 0.21715807700202849 1.116548780836722 0 0.28571428571359381 1 0 0.21715807700202849 1.116548780836722 0 0.14285714285686729 1 0 0.21715807700202849 1.116548780836722 0 0.1045786867955263 1.1045786867956 0 0.14285714285686729 1 0 0.1045786867955263 1.1045786867956 0 0 1 0 0 1.142857142857143 0 0.1045786867955263 1.1045786867956 0 0 1 0 0.14285714285686729 1 0 0 1 0 0.14285714285686729 1 0 0.1045786867957653 0.89542131320405993 0 0.22029060869521661 0.88080238224013152 0 0.1045786867957653 0.89542131320405993 0 0.12868163055416221 0.76697400229767487 0 0.22029060869521661 0.88080238224013152 0 0.14285714285686729 1 0 0.1045786867957653 0.89542131320405993 0 0 1 0 0.1045786867957653 0.89542131320405993 0 0 0.85714285714248095 0 0.1045786867957653 0.89542131320405993 0 0 0.85714285714248095 0 0.12868163055416221 0.76697400229767487 0 0 0.71428571428496201 0 0 0.85714285714248095 0 0.12868163055416221 0.76697400229767487 0 0.2085843731968674 1.3627973047133739 0 0.27804612003647688 1.494591548660307 0 0.12654278762825799 1.4981772993068549 0 0.2085843731968674 1.3627973047133739 0 0.27804612003647688 1.494591548660307 0 0.35404229584497188 1.365913983939661 0 0.42593700932761119 1.4932105417128021 0 0.27804612003647688 1.494591548660307 0 0.35404229584497188 1.365913983939661 0 0.2085843731968674 1.3627973047133739 0 0.35404229584497188 1.365913983939661 0 0.2831891201305422 1.2398017680548721 0 0.42772459507389549 1.2429924675022059 0 0.35404229584497188 1.365913983939661 0 0.2831891201305422 1.2398017680548721 0 0.42772459507389549 1.2429924675022059 0 0.35723491808528002 1.1204089262615491 0 0.2831891201305422 1.2398017680548721 0 0.35723491808528002 1.1204089262615491 0 0.21715807700202849 1.116548780836722 0 0.2831891201305422 1.2398017680548721 0 0.21715807700202849 1.116548780836722 0 0.2831891201305422 1.2398017680548721 0 0.1281705103889863 1.2304843984160669 0 0.2085843731968674 1.3627973047133739 0 0.2831891201305422 1.2398017680548721 0 0.1281705103889863 1.2304843984160669 0 0.21715807700202849 1.116548780836722 0 0.1045786867955263 1.1045786867956 0 0.1281705103889863 1.2304843984160669 0 0.1045786867955263 1.1045786867956 0 0.1281705103889863 1.2304843984160669 0 0 1.142857142857143 0 0.1281705103889863 1.2304843984160669 0 0 1.2857142857142849 0 0.088385776599929494 1.357142857142857 0 0.1281705103889863 1.2304843984160669 0 0 1.142857142857143 0 0 1.2857142857142849 0 0 1.2857142857142849 0 0.088385776599929494 1.357142857142857 0 0 1.4285714285714279 0 0.2085843731968674 1.3627973047133739 0 0.088385776599929494 1.357142857142857 0 0.12654278762825799 1.4981772993068549 0 0.2085843731968674 1.3627973047133739 0 0.1281705103889863 1.2304843984160669 0 0.088385776599929494 1.357142857142857 0 0.12654278762825799 1.4981772993068549 0 0 1.4285714285714279 0 0 1.571428571428571 0 0.088385776599929494 1.357142857142857 0 0.12654278762825799 1.4981772993068549 0 0 1.4285714285714279 0 0.12654278762825799 1.4981772993068549 0 0 1.571428571428571 0 0.093464308857800493 1.636633879872754 0 0 1.571428571428571 0 0.093464308857800493 1.636633879872754 0 0 1.714285714285714 0 0.093464308857800493 1.636633879872754 0 0.21204462330902701 1.6281978226174341 0 0.12873413335171741 1.7710799917251949 0 0.12654278762825799 1.4981772993068549 0 0.093464308857800493 1.636633879872754 0 0.21204462330902701 1.6281978226174341 0 0.27804612003647688 1.494591548660307 0 0.12654278762825799 1.4981772993068549 0 0.21204462330902701 1.6281978226174341 0 0.21204462330902701 1.6281978226174341 0 0.35661818314176119 1.6201734641978449 0 0.2815234200304042 1.7546180202569051 0 0.27804612003647688 1.494591548660307 0 0.21204462330902701 1.6281978226174341 0 0.35661818314176119 1.6201734641978449 0 0.42593700932761119 1.4932105417128021 0 0.27804612003647688 1.494591548660307 0 0.35661818314176119 1.6201734641978449 0 0.2815234200304042 1.7546180202569051 0 0.35415439180319602 1.875698076300893 0 0.42857142856855118 1.752171560420507 0 0.2815234200304042 1.7546180202569051 0 0.21616732492381949 1.8828959187492971 0 0.35415439180319602 1.875698076300893 0 0.35661818314176119 1.6201734641978449 0 0.2815234200304042 1.7546180202569051 0 0.42857142856855118 1.752171560420507 0 0.21204462330902701 1.6281978226174341 0 0.2815234200304042 1.7546180202569051 0 0.12873413335171741 1.7710799917251949 0 0.2815234200304042 1.7546180202569051 0 0.12873413335171741 1.7710799917251949 0 0.21616732492381949 1.8828959187492971 0 0.12873413335171741 1.7710799917251949 0 0.1040205757871384 1.895979424212787 0 0.21616732492381949 1.8828959187492971 0 0.093464308857800493 1.636633879872754 0 0.12873413335171741 1.7710799917251949 0 0 1.714285714285714 0 0.12873413335171741 1.7710799917251949 0 0 1.714285714285714 0 0 1.857142857142857 0 0.12873413335171741 1.7710799917251949 0 0 1.857142857142857 0 0.1040205757871384 1.895979424212787 0 0 2 0 0.14285714285686729 2 0 0.1040205757871384 1.895979424212787 0 0 1.857142857142857 0 0 2 0 0.1040205757871384 1.895979424212787 0 0 2 0 0.14285714285686729 2 0 0.10402057578714501 2.104020575787219 0 0.14285714285686729 2 0 0.1040205757871384 1.895979424212787 0 0.21616732492381949 1.8828959187492971 0 0 2.1428571428571428 0 0.12873413335172121 2.2289200082748062 0 0 2.2857142857142851 0 0 2.1428571428571428 0 0.10402057578714501 2.104020575787219 0 0.12873413335172121 2.2289200082748062 0 0 2 0 0 2.1428571428571428 0 0.10402057578714501 2.104020575787219 0 0.10402057578714501 2.104020575787219 0 0.12873413335172121 2.2289200082748062 0 0.21616732492382371 2.1171040812507051 0 0.14285714285686729 2 0 0.10402057578714501 2.104020575787219 0 0.21616732492382371 2.1171040812507051 0 0.12873413335172121 2.2289200082748062 0 0.21616732492382371 2.1171040812507051 0 0.2815234200304122 2.2453819797430978 0 0.21616732492382371 2.1171040812507051 0 0.35415439180320291 2.1243019236991101 0 0.28571428571359381 2 0 0.21616732492382371 2.1171040812507051 0 0.35415439180320291 2.1243019236991101 0 0.2815234200304122 2.2453819797430978 0 0.35415439180320291 2.1243019236991101 0 0.2815234200304122 2.2453819797430978 0 0.42857142856855918 2.2478284395795001 0 0.14285714285686729 2 0 0.21616732492381949 1.8828959187492971 0 0.28571428571359381 2 0 0.14285714285686729 2 0 0.21616732492382371 2.1171040812507051 0 0.28571428571359381 2 0 0.35415439180320291 2.1243019236991101 0 0.28571428571359381 2 0 0.42857142857032021 2 0 0.28571428571359381 2 0 0.35415439180319602 1.875698076300893 0 0.42857142857032021 2 0 0.21616732492381949 1.8828959187492971 0 0.28571428571359381 2 0 0.35415439180319602 1.875698076300893 0 0.35415439180319602 1.875698076300893 0 0.42857142857032021 2 0 0.49927531931007929 1.874059986305624 0 0.42857142857032021 2 0 0.49927531931008179 2.1259400136943771 0 0.57142857142744297 2 0 0.42857142857032021 2 0 0.57142857142744297 2 0 0.49927531931007929 1.874059986305624 0 0.35415439180320291 2.1243019236991101 0 0.42857142856855918 2.2478284395795001 0 0.49927531931008179 2.1259400136943771 0 0.35415439180320291 2.1243019236991101 0 0.42857142857032021 2 0 0.49927531931008179 2.1259400136943771 0 0.42857142856855918 2.2478284395795001 0 0.49927531931008179 2.1259400136943771 0 0.57126208756432351 2.2553423194843969 0 0.49927531931008179 2.1259400136943771 0 0.64222861727828873 2.130282196703202 0 0.57126208756432351 2.2553423194843969 0 0.64222861727828873 2.130282196703202 0 0.57126208756432351 2.2553423194843969 0 0.7133104372685124 2.2558131098502412 0 0.49927531931008179 2.1259400136943771 0 0.64222861727828873 2.130282196703202 0 0.57142857142744297 2 0 0.64222861727828873 2.130282196703202 0 0.71428571428496201 2 0 0.78018926648515108 2.1255909491940099 0 0.64222861727828873 2.130282196703202 0 0.7133104372685124 2.2558131098502412 0 0.78018926648515108 2.1255909491940099 0 0.57142857142744297 2 0 0.71428571428496201 2 0 0.6422286172782864 1.869717803296798 0 0.57142857142744297 2 0 0.6422286172782864 1.869717803296798 0 0.49927531931007929 1.874059986305624 0 0.64222861727828873 2.130282196703202 0 0.57142857142744297 2 0 0.71428571428496201 2 0 0.71428571428496201 2 0 0.6422286172782864 1.869717803296798 0 0.78018926648514864 1.8744090508059901 0 0.6422286172782864 1.869717803296798 0 0.71331043726850674 1.744186890149759 0 0.78018926648514864 1.8744090508059901 0 0.6422286172782864 1.869717803296798 0 0.57126208756431718 1.7446576805156051 0 0.71331043726850674 1.744186890149759 0 0.6422286172782864 1.869717803296798 0 0.57126208756431718 1.7446576805156051 0 0.49927531931007929 1.874059986305624 0 0.57126208756431718 1.7446576805156051 0 0.71331043726850674 1.744186890149759 0 0.64269698385324503 1.618739532771452 0 0.71331043726850674 1.744186890149759 0 0.64269698385324503 1.618739532771452 0 0.78571428571188839 1.618589574132365 0 0.71428571428344279 1.494871659305963 0 0.64269698385324503 1.618739532771452 0 0.78571428571188839 1.618589574132365 0 0.71428571428344279 1.494871659305963 0 0.5709812421680337 1.49447102461245 0 0.64269698385324503 1.618739532771452 0 0.5709812421680337 1.49447102461245 0 0.64269698385324503 1.618739532771452 0 0.49948637524749079 1.619889960661181 0 0.57126208756431718 1.7446576805156051 0 0.64269698385324503 1.618739532771452 0 0.49948637524749079 1.619889960661181 0 0.5709812421680337 1.49447102461245 0 0.42593700932761119 1.4932105417128021 0 0.49948637524749079 1.619889960661181 0 0.42593700932761119 1.4932105417128021 0 0.35661818314176119 1.6201734641978449 0 0.49948637524749079 1.619889960661181 0 0.35661818314176119 1.6201734641978449 0 0.49948637524749079 1.619889960661181 0 0.42857142856855118 1.752171560420507 0 0.35415439180319602 1.875698076300893 0 0.42857142856855118 1.752171560420507 0 0.49927531931007929 1.874059986305624 0 0.57126208756431718 1.7446576805156051 0 0.42857142856855118 1.752171560420507 0 0.49927531931007929 1.874059986305624 0 0.57126208756431718 1.7446576805156051 0 0.49948637524749079 1.619889960661181 0 0.42857142856855118 1.752171560420507 0 0.28571428571359381 3 0 0.35723491808528102 2.87959107373845 0 0.42857142857032021 3 0 0.28571428571359381 3 0 0.35723491808528102 2.87959107373845 0 0.21715807700202869 2.883451219163276 0 0.35723491808528102 2.87959107373845 0 0.21715807700202869 2.883451219163276 0 0.28318912013054431 2.760198231945127 0 0.28571428571359381 3 0 0.21715807700202869 2.883451219163276 0 0.14285714285686729 3 0 0.21715807700202869 2.883451219163276 0 0.14285714285686729 3 0 0.10457868679552811 2.8954213132043991 0 0 3 0 0 2.8571428571428572 0 0.10457868679552811 2.8954213132043991 0 0.14285714285686729 3 0 0 3 0 0.10457868679552811 2.8954213132043991 0 0 2.8571428571428572 0 0.10457868679552811 2.8954213132043991 0 0.1281705103889878 2.7695156015839308 0 0.21715807700202869 2.883451219163276 0 0.10457868679552811 2.8954213132043991 0 0.1281705103889878 2.7695156015839308 0 0 2.8571428571428572 0 0.1281705103889878 2.7695156015839308 0 0 2.714285714285714 0 0.1281705103889878 2.7695156015839308 0 0 2.714285714285714 0 0.088385776599930521 2.6428571428571428 0 0 2.714285714285714 0 0.088385776599930521 2.6428571428571428 0 0 2.5714285714285712 0 0.1281705103889878 2.7695156015839308 0 0.088385776599930521 2.6428571428571428 0 0.20858437319687029 2.6372026952866259 0 0.21715807700202869 2.883451219163276 0 0.1281705103889878 2.7695156015839308 0 0.28318912013054431 2.760198231945127 0 0.1281705103889878 2.7695156015839308 0 0.20858437319687029 2.6372026952866259 0 0.28318912013054431 2.760198231945127 0 0.35723491808528102 2.87959107373845 0 0.28318912013054431 2.760198231945127 0 0.42772459507389821 2.7570075324977932 0 0.28318912013054431 2.760198231945127 0 0.35404229584497637 2.6340860160603379 0 0.42772459507389821 2.7570075324977932 0 0.20858437319687029 2.6372026952866259 0 0.28318912013054431 2.760198231945127 0 0.35404229584497637 2.6340860160603379 0 0.35404229584497637 2.6340860160603379 0 0.27804612003648221 2.5054084513396928 0 0.42593700932761791 2.506789458287197 0 0.27804612003648221 2.5054084513396928 0 0.35661818314176918 2.3798265358021551 0 0.42593700932761791 2.506789458287197 0 0.27804612003648221 2.5054084513396928 0 0.1265427876282616 2.5018227006931442 0 0.21204462330903229 2.3718021773825648 0 0.20858437319687029 2.6372026952866259 0 0.27804612003648221 2.5054084513396928 0 0.1265427876282616 2.5018227006931442 0 0.20858437319687029 2.6372026952866259 0 0.35404229584497637 2.6340860160603379 0 0.27804612003648221 2.5054084513396928 0 0.088385776599930521 2.6428571428571428 0 0.20858437319687029 2.6372026952866259 0 0.1265427876282616 2.5018227006931442 0 0.088385776599930521 2.6428571428571428 0 0 2.5714285714285712 0 0.1265427876282616 2.5018227006931442 0 0 2.5714285714285712 0 0.1265427876282616 2.5018227006931442 0 0 2.4285714285714279 0 0.1265427876282616 2.5018227006931442 0 0.093464308857803033 2.363366120127246 0 0.21204462330903229 2.3718021773825648 0 0.1265427876282616 2.5018227006931442 0 0.093464308857803033 2.363366120127246 0 0 2.4285714285714279 0 0.093464308857803033 2.363366120127246 0 0 2.4285714285714279 0 0 2.2857142857142851 0 0.12873413335172121 2.2289200082748062 0 0.093464308857803033 2.363366120127246 0 0 2.2857142857142851 0 0.12873413335172121 2.2289200082748062 0 0.093464308857803033 2.363366120127246 0 0.21204462330903229 2.3718021773825648 0 0.12873413335172121 2.2289200082748062 0 0.2815234200304122 2.2453819797430978 0 0.21204462330903229 2.3718021773825648 0 0.27804612003648221 2.5054084513396928 0 0.21204462330903229 2.3718021773825648 0 0.35661818314176918 2.3798265358021551 0 0.2815234200304122 2.2453819797430978 0 0.21204462330903229 2.3718021773825648 0 0.35661818314176918 2.3798265358021551 0 0.2815234200304122 2.2453819797430978 0 0.42857142856855918 2.2478284395795001 0 0.35661818314176918 2.3798265358021551 0 0.42857142856855918 2.2478284395795001 0 0.35661818314176918 2.3798265358021551 0 0.49948637524749862 2.3801100393388199 0 0.35661818314176918 2.3798265358021551 0 0.49948637524749862 2.3801100393388199 0 0.42593700932761791 2.506789458287197 0 0.42857142856855918 2.2478284395795001 0 0.49948637524749862 2.3801100393388199 0 0.57126208756432351 2.2553423194843969 0 0.49948637524749862 2.3801100393388199 0 0.57126208756432351 2.2553423194843969 0 0.64269698385325302 2.3812604672285489 0 0.57126208756432351 2.2553423194843969 0 0.7133104372685124 2.2558131098502412 0 0.64269698385325302 2.3812604672285489 0 0.7133104372685124 2.2558131098502412 0 0.64269698385325302 2.3812604672285489 0 0.78571428571189661 2.3814104258676352 0 0.64269698385325302 2.3812604672285489 0 0.714285714283452 2.5051283406940419 0 0.78571428571189661 2.3814104258676352 0 0.49948637524749862 2.3801100393388199 0 0.64269698385325302 2.3812604672285489 0 0.57098124216804058 2.5055289753875498 0 0.64269698385325302 2.3812604672285489 0 0.57098124216804058 2.5055289753875498 0 0.714285714283452 2.5051283406940419 0 0.714285714283452 2.5051283406940419 0 0.64248101537579549 2.6292191863959529 0 0.78389141510404725 2.630919560373445 0 0.57098124216804058 2.5055289753875498 0 0.49769215192748217 2.6308771328039229 0 0.64248101537579549 2.6292191863959529 0 0.57098124216804058 2.5055289753875498 0 0.714285714283452 2.5051283406940419 0 0.64248101537579549 2.6292191863959529 0 0.57098124216804058 2.5055289753875498 0 0.42593700932761791 2.506789458287197 0 0.49769215192748217 2.6308771328039229 0 0.49948637524749862 2.3801100393388199 0 0.57098124216804058 2.5055289753875498 0 0.42593700932761791 2.506789458287197 0 0.35404229584497637 2.6340860160603379 0 0.42593700932761791 2.506789458287197 0 0.49769215192748217 2.6308771328039229 0 0.35404229584497637 2.6340860160603379 0 0.42772459507389821 2.7570075324977932 0 0.49769215192748217 2.6308771328039229 0 0.42772459507389821 2.7570075324977932 0 0.57147965461976069 2.752770878316519 0 0.50105200202130085 2.8768894588245049 0 0.42772459507389821 2.7570075324977932 0 0.49769215192748217 2.6308771328039229 0 0.57147965461976069 2.752770878316519 0 0.49769215192748217 2.6308771328039229 0 0.64248101537579549 2.6292191863959529 0 0.57147965461976069 2.752770878316519 0 0.64248101537579549 2.6292191863959529 0 0.71318645322081142 2.7532979010713579 0 0.57147965461976069 2.752770878316519 0 0.64248101537579549 2.6292191863959529 0 0.71318645322081142 2.7532979010713579 0 0.78389141510404725 2.630919560373445 0 0.71318645322081142 2.7532979010713579 0 0.57147965461976069 2.752770878316519 0 0.64211163998861565 2.8769149593383769 0 0.57147965461976069 2.752770878316519 0 0.64211163998861565 2.8769149593383769 0 0.50105200202130085 2.8768894588245049 0 0.71318645322081142 2.7532979010713579 0 0.64211163998861565 2.8769149593383769 0 0.78018926648583442 2.8794719565116988 0 0.64211163998861565 2.8769149593383769 0 0.71428571428496201 3 0 0.78018926648583442 2.8794719565116988 0 0.64211163998861565 2.8769149593383769 0 0.71428571428496201 3 0 0.57142857142744297 3 0 0.64211163998861565 2.8769149593383769 0 0.57142857142744297 3 0 0.50105200202130085 2.8768894588245049 0 0.57142857142744297 3 0 0.50105200202130085 2.8768894588245049 0 0.42857142857032021 3 0 0.35723491808528102 2.87959107373845 0 0.42772459507389821 2.7570075324977932 0 0.50105200202130085 2.8768894588245049 0 0.35723491808528102 2.87959107373845 0 0.50105200202130085 2.8768894588245049 0 0.42857142857032021 3 0 1.1045786867955549 2.8954213132044448 0 1 3 0 1.142857142857143 3 0 1.1045786867955549 2.8954213132044448 0 1 2.8571428571428572 0 1 3 0 1.1045786867955549 2.8954213132044448 0 1 2.8571428571428572 0 1.1205280434878859 2.780189266486456 0 1 2.8571428571428572 0 1 3 0 0.89542131320410789 2.8954213132042099 0 1 3 0 0.85714285714248095 3 0 0.89542131320410789 2.8954213132042099 0 0.85714285714248095 3 0 0.78018926648583442 2.8794719565116988 0 0.89542131320410789 2.8954213132042099 0 0.71428571428496201 3 0 0.85714285714248095 3 0 0.78018926648583442 2.8794719565116988 0 1 2.8571428571428572 0 0.89542131320410789 2.8954213132042099 0 0.86814175826561968 2.7676280636349269 0 0.78018926648583442 2.8794719565116988 0 0.89542131320410789 2.8954213132042099 0 0.86814175826561968 2.7676280636349269 0 0.71318645322081142 2.7532979010713579 0 0.78018926648583442 2.8794719565116988 0 0.86814175826561968 2.7676280636349269 0 0.71318645322081142 2.7532979010713579 0 0.86814175826561968 2.7676280636349269 0 0.78389141510404725 2.630919560373445 0 0.86814175826561968 2.7676280636349269 0 0.78389141510404725 2.630919560373445 0 0.9044833397938421 2.6408474355902611 0 0.86814175826561968 2.7676280636349269 0 0.9044833397938421 2.6408474355902611 0 1 2.714285714285714 0 0.9044833397938421 2.6408474355902611 0 1 2.714285714285714 0 1 2.5714285714285712 0 1 2.8571428571428572 0 0.86814175826561968 2.7676280636349269 0 1 2.714285714285714 0 1 2.8571428571428572 0 1 2.714285714285714 0 1.1205280434878859 2.780189266486456 0 1 2.714285714285714 0 1.1231862696032711 2.6419363063191699 0 1 2.5714285714285712 0 1 2.714285714285714 0 1.1205280434878859 2.780189266486456 0 1.1231862696032711 2.6419363063191699 0 1.1231862696032711 2.6419363063191699 0 1.1237179148263481 2.4999999999999978 0 1 2.5714285714285712 0 1.1237179148263481 2.4999999999999978 0 1 2.5714285714285712 0 1 2.4285714285714279 0 1 2.5714285714285712 0 0.87194859075748876 2.5024506208783599 0 1 2.4285714285714279 0 0.78389141510404725 2.630919560373445 0 0.9044833397938421 2.6408474355902611 0 0.87194859075748876 2.5024506208783599 0 0.9044833397938421 2.6408474355902611 0 1 2.5714285714285712 0 0.87194859075748876 2.5024506208783599 0 0.714285714283452 2.5051283406940419 0 0.78389141510404725 2.630919560373445 0 0.87194859075748876 2.5024506208783599 0 0.714285714283452 2.5051283406940419 0 0.87194859075748876 2.5024506208783599 0 0.78571428571189661 2.3814104258676352 0 0.87194859075748876 2.5024506208783599 0 0.905136104095428 2.367107595633493 0 0.78571428571189661 2.3814104258676352 0 0.87194859075748876 2.5024506208783599 0 0.905136104095428 2.367107595633493 0 1 2.4285714285714279 0 0.7133104372685124 2.2558131098502412 0 0.78571428571189661 2.3814104258676352 0 0.86801764400775483 2.2373912171357588 0 0.905136104095428 2.367107595633493 0 0.78571428571189661 2.3814104258676352 0 0.86801764400775483 2.2373912171357588 0 0.905136104095428 2.367107595633493 0 1 2.2857142857142851 0 0.86801764400775483 2.2373912171357588 0 0.905136104095428 2.367107595633493 0 1 2.2857142857142851 0 1 2.4285714285714279 0 1.1237179148263481 2.4999999999999978 0 1 2.4285714285714279 0 1.124445554570056 2.3535499438421961 0 1 2.2857142857142851 0 1 2.4285714285714279 0 1.124445554570056 2.3535499438421961 0 1 2.2857142857142851 0 1.124445554570056 2.3535499438421961 0 1.1237179148263481 2.2142857142857149 0 1.124445554570056 2.3535499438421961 0 1.2437589323753271 2.2790339186609172 0 1.1237179148263481 2.2142857142857149 0 1.1237179148263481 2.4999999999999978 0 1.124445554570056 2.3535499438421961 0 1.247435829652694 2.4285714285714248 0 1.124445554570056 2.3535499438421961 0 1.247435829652694 2.4285714285714248 0 1.2437589323753271 2.2790339186609172 0 1.247435829652694 2.4285714285714248 0 1.2437589323753271 2.2790339186609172 0 1.367319104369215 2.3469268258187319 0 1.2437589323753271 2.2790339186609172 0 1.367319104369215 2.3469268258187319 0 1.3682878852476059 2.2035940021081579 0 1.4944588869160489 2.2778135148397252 0 1.367319104369215 2.3469268258187319 0 1.3682878852476059 2.2035940021081579 0 1.49336243329776 2.4259573724460979 0 1.367319104369215 2.3469268258187319 0 1.3698831109599341 2.4977991981870939 0 1.4944588869160489 2.2778135148397252 0 1.49336243329776 2.4259573724460979 0 1.367319104369215 2.3469268258187319 0 1.247435829652694 2.4285714285714248 0 1.367319104369215 2.3469268258187319 0 1.3698831109599341 2.4977991981870939 0 1.49336243329776 2.4259573724460979 0 1.3698831109599341 2.4977991981870939 0 1.4946221303562011 2.5709963746106008 0 1.3698831109599341 2.4977991981870939 0 1.4946221303562011 2.5709963746106008 0 1.370927204302999 2.6424647637622658 0 1.3698831109599341 2.4977991981870939 0 1.2473472221155171 2.5712750986722401 0 1.370927204302999 2.6424647637622658 0 1.247435829652694 2.4285714285714248 0 1.3698831109599341 2.4977991981870939 0 1.2473472221155171 2.5712750986722401 0 1.1237179148263481 2.4999999999999978 0 1.247435829652694 2.4285714285714248 0 1.2473472221155171 2.5712750986722401 0 1.1231862696032711 2.6419363063191699 0 1.1237179148263481 2.4999999999999978 0 1.2473472221155171 2.5712750986722401 0 1.1205280434878859 2.780189266486456 0 1.1231862696032711 2.6419363063191699 0 1.2467630522735731 2.713120429682879 0 1.1231862696032711 2.6419363063191699 0 1.2473472221155171 2.5712750986722401 0 1.2467630522735731 2.713120429682879 0 1.1205280434878859 2.780189266486456 0 1.2467630522735731 2.713120429682879 0 1.2323855807482531 2.8681303673999259 0 1.2467630522735731 2.713120429682879 0 1.3691149969664549 2.7838777025796868 0 1.2323855807482531 2.8681303673999259 0 1.2473472221155171 2.5712750986722401 0 1.2467630522735731 2.713120429682879 0 1.370927204302999 2.6424647637622658 0 1.2467630522735731 2.713120429682879 0 1.370927204302999 2.6424647637622658 0 1.3691149969664549 2.7838777025796868 0 1.370927204302999 2.6424647637622658 0 1.4948716593053959 2.7142857142857029 0 1.3691149969664549 2.7838777025796868 0 1.4946221303562011 2.5709963746106008 0 1.370927204302999 2.6424647637622658 0 1.4948716593053959 2.7142857142857029 0 1.4948716593053959 2.7142857142857029 0 1.3691149969664549 2.7838777025796868 0 1.49754937912118 2.871948590758397 0 1.3691149969664549 2.7838777025796868 0 1.3591560776536049 2.904481510101697 0 1.2323855807482531 2.8681303673999259 0 1.3691149969664549 2.7838777025796868 0 1.3591560776536049 2.904481510101697 0 1.49754937912118 2.871948590758397 0 1.3591560776536049 2.904481510101697 0 1.49754937912118 2.871948590758397 0 1.4285714285714279 3 0 1.49754937912118 2.871948590758397 0 1.4285714285714279 3 0 1.571428571428571 3 0 1.3591560776536049 2.904481510101697 0 1.4285714285714279 3 0 1.2857142857142849 3 0 1.3591560776536049 2.904481510101697 0 1.2857142857142849 3 0 1.2323855807482531 2.8681303673999259 0 1.2857142857142849 3 0 1.2323855807482531 2.8681303673999259 0 1.142857142857143 3 0 1.1045786867955549 2.8954213132044448 0 1.1205280434878859 2.780189266486456 0 1.2323855807482531 2.8681303673999259 0 1.1045786867955549 2.8954213132044448 0 1.2323855807482531 2.8681303673999259 0 1.142857142857143 3 0 1 1.714285714285714 0 1 1.857142857142857 0 0.86801764400775172 1.7626087828642401 0 1 1.857142857142857 0 1.1045786867955549 1.895421313204446 0 1.1286816305548799 1.7669740022979501 0 1 1.714285714285714 0 1.0919758494404179 1.6390607956138989 0 1.1286816305548799 1.7669740022979501 0 1 1.714285714285714 0 1 1.857142857142857 0 1.1286816305548799 1.7669740022979501 0 1.0919758494404179 1.6390607956138989 0 1 1.571428571428571 0 1.1265427876294609 1.501822700692834 0 1 1.4285714285714279 0 1 1.571428571428571 0 1.1265427876294609 1.501822700692834 0 1 1.714285714285714 0 1.0919758494404179 1.6390607956138989 0 1 1.571428571428571 0 1 1.714285714285714 0 1 1.571428571428571 0 0.90513610409542911 1.632892404366491 0 0.90513610409542911 1.632892404366491 0 0.78571428571188839 1.618589574132365 0 0.86801764400775172 1.7626087828642401 0 0.87194859075750586 1.497549379121565 0 1 1.571428571428571 0 0.90513610409542911 1.632892404366491 0 0.87194859075750586 1.497549379121565 0 0.90513610409542911 1.632892404366491 0 0.78571428571188839 1.618589574132365 0 0.87194859075750586 1.497549379121565 0 0.71428571428344279 1.494871659305963 0 0.78571428571188839 1.618589574132365 0 0.71331043726850674 1.744186890149759 0 0.78571428571188839 1.618589574132365 0 0.86801764400775172 1.7626087828642401 0 1 1.714285714285714 0 0.90513610409542911 1.632892404366491 0 0.86801764400775172 1.7626087828642401 0 1 1.857142857142857 0 0.86801764400775172 1.7626087828642401 0 0.89542131320410678 1.895421313204209 0 0.86801764400775172 1.7626087828642401 0 0.78018926648514864 1.8744090508059901 0 0.89542131320410678 1.895421313204209 0 0.71331043726850674 1.744186890149759 0 0.86801764400775172 1.7626087828642401 0 0.78018926648514864 1.8744090508059901 0 0.71428571428496201 2 0 0.78018926648514864 1.8744090508059901 0 0.85714285714248095 2 0 0.71428571428496201 2 0 0.85714285714248095 2 0 0.78018926648515108 2.1255909491940099 0 0.85714285714248095 2 0 0.8954213132041059 2.1045786867957932 0 1 2 0 0.78018926648514864 1.8744090508059901 0 0.85714285714248095 2 0 0.89542131320410678 1.895421313204209 0 0.85714285714248095 2 0 0.89542131320410678 1.895421313204209 0 1 2 0 0.7133104372685124 2.2558131098502412 0 0.78018926648515108 2.1255909491940099 0 0.86801764400775483 2.2373912171357588 0 0.78018926648515108 2.1255909491940099 0 0.8954213132041059 2.1045786867957932 0 0.86801764400775483 2.2373912171357588 0 0.85714285714248095 2 0 0.78018926648515108 2.1255909491940099 0 0.8954213132041059 2.1045786867957932 0 0.8954213132041059 2.1045786867957932 0 0.86801764400775483 2.2373912171357588 0 1 2.1428571428571428 0 1 2.2857142857142851 0 0.86801764400775483 2.2373912171357588 0 1 2.1428571428571428 0 0.8954213132041059 2.1045786867957932 0 1 2.1428571428571428 0 1 2 0 1 2.1428571428571428 0 1.1045786867955549 2.1045786867955538 0 1.1237179148263481 2.2142857142857149 0 1 2.1428571428571428 0 1.1045786867955549 2.1045786867955538 0 1 2 0 1 2.2857142857142851 0 1 2.1428571428571428 0 1.1237179148263481 2.2142857142857149 0 1 1.857142857142857 0 0.89542131320410678 1.895421313204209 0 1 2 0 1.1045786867955549 2.1045786867955538 0 1 2 0 1.142857142857143 2 0 1 2 0 1.1045786867955549 1.895421313204446 0 1.142857142857143 2 0 1 1.857142857142857 0 1 2 0 1.1045786867955549 1.895421313204446 0 1.1045786867955549 1.895421313204446 0 1.142857142857143 2 0 1.2202906086958949 1.8808023822399611 0 1.142857142857143 2 0 1.2857142857142849 2 0 1.2202906086958949 1.8808023822399611 0 1.142857142857143 2 0 1.2857142857142849 2 0 1.23134730558604 2.127275597339279 0 1.2857142857142849 2 0 1.2202906086958949 1.8808023822399611 0 1.3583104310875389 1.876956184304913 0 1.2437589323753271 2.2790339186609172 0 1.1237179148263481 2.2142857142857149 0 1.23134730558604 2.127275597339279 0 1.1045786867955549 2.1045786867955538 0 1.1237179148263481 2.2142857142857149 0 1.23134730558604 2.127275597339279 0 1.1045786867955549 2.1045786867955538 0 1.142857142857143 2 0 1.23134730558604 2.127275597339279 0 1.2857142857142849 2 0 1.23134730558604 2.127275597339279 0 1.357142857142857 2.0883857766009042 0 1.2437589323753271 2.2790339186609172 0 1.23134730558604 2.127275597339279 0 1.3682878852476059 2.2035940021081579 0 1.23134730558604 2.127275597339279 0 1.3682878852476059 2.2035940021081579 0 1.357142857142857 2.0883857766009042 0 1.357142857142857 2.0883857766009042 0 1.4981772993071649 2.1265427876294591 0 1.4285714285714279 2 0 1.3682878852476059 2.2035940021081579 0 1.357142857142857 2.0883857766009042 0 1.4981772993071649 2.1265427876294591 0 1.4944588869160489 2.2778135148397252 0 1.3682878852476059 2.2035940021081579 0 1.4981772993071649 2.1265427876294591 0 1.2857142857142849 2 0 1.3583104310875389 1.876956184304913 0 1.4285714285714279 2 0 1.2857142857142849 2 0 1.357142857142857 2.0883857766009042 0 1.4285714285714279 2 0 1.4981772993071649 2.1265427876294591 0 1.4285714285714279 2 0 1.571428571428571 2 0 1.4285714285714279 2 0 1.4999999999999989 1.876282085173651 0 1.571428571428571 2 0 1.3583104310875389 1.876956184304913 0 1.4285714285714279 2 0 1.4999999999999989 1.876282085173651 0 1.3583104310875389 1.876956184304913 0 1.4999999999999989 1.876282085173651 0 1.4287660242288751 1.752676520202513 0 1.4287660242288751 1.752676520202513 0 1.284542510538256 1.7535733272041241 0 1.35657912408646 1.6297632267705111 0 1.3583104310875389 1.876956184304913 0 1.4287660242288751 1.752676520202513 0 1.284542510538256 1.7535733272041241 0 1.2202906086958949 1.8808023822399611 0 1.3583104310875389 1.876956184304913 0 1.284542510538256 1.7535733272041241 0 1.284542510538256 1.7535733272041241 0 1.1286816305548799 1.7669740022979501 0 1.211834974696774 1.6332002948779361 0 1.2202906086958949 1.8808023822399611 0 1.284542510538256 1.7535733272041241 0 1.1286816305548799 1.7669740022979501 0 1.1045786867955549 1.895421313204446 0 1.2202906086958949 1.8808023822399611 0 1.1286816305548799 1.7669740022979501 0 1.0919758494404179 1.6390607956138989 0 1.1265427876294609 1.501822700692834 0 1.211834974696774 1.6332002948779361 0 1.1265427876294609 1.501822700692834 0 1.211834974696774 1.6332002948779361 0 1.285714285714282 1.505128340694609 0 1.0919758494404179 1.6390607956138989 0 1.1286816305548799 1.7669740022979501 0 1.211834974696774 1.6332002948779361 0 1.284542510538256 1.7535733272041241 0 1.211834974696774 1.6332002948779361 0 1.35657912408646 1.6297632267705111 0 1.211834974696774 1.6332002948779361 0 1.285714285714282 1.505128340694609 0 1.35657912408646 1.6297632267705111 0 1.285714285714282 1.505128340694609 0 1.35657912408646 1.6297632267705111 0 1.42857911129607 1.505132776317748 0 1.4287660242288751 1.752676520202513 0 1.35657912408646 1.6297632267705111 0 1.500037838044501 1.628868101326133 0 1.35657912408646 1.6297632267705111 0 1.42857911129607 1.505132776317748 0 1.500037838044501 1.628868101326133 0 1.42857911129607 1.505132776317748 0 1.5714368297319321 1.505133108628274 0 1.500037838044501 1.628868101326133 0 1.5714368297319321 1.505133108628274 0 1.500037838044501 1.628868101326133 0 1.642868854632821 1.6288530173177931 0 1.500037838044501 1.628868101326133 0 1.642868854632821 1.6288530173177931 0 1.571461004038144 1.7525828953231699 0 1.5714368297319321 1.505133108628274 0 1.642868854632821 1.6288530173177931 0 1.7164690164522749 1.505013992076764 0 1.642868854632821 1.6288530173177931 0 1.7164690164522749 1.505013992076764 0 1.7839870186351829 1.630825559243579 0 1.642868854632821 1.6288530173177931 0 1.7839870186351829 1.630825559243579 0 1.713372235145284 1.7531000633658289 0 1.7839870186351829 1.630825559243579 0 1.868181956188198 1.767586372373096 0 1.904493237859993 1.64083754547551 0 1.7839870186351829 1.630825559243579 0 1.871948590758401 1.50245062087882 0 1.904493237859993 1.64083754547551 0 1.7164690164522749 1.505013992076764 0 1.7839870186351829 1.630825559243579 0 1.871948590758401 1.50245062087882 0 1.868181956188198 1.767586372373096 0 1.713372235145284 1.7531000633658289 0 1.7801892664864549 1.879471956512115 0 1.868181956188198 1.767586372373096 0 1.7801892664864549 1.879471956512115 0 1.8954213132044451 1.8954213132044451 0 1.7839870186351829 1.630825559243579 0 1.868181956188198 1.767586372373096 0 1.713372235145284 1.7531000633658289 0 1.713372235145284 1.7531000633658289 0 1.6417894652306939 1.876906166729128 0 1.7801892664864549 1.879471956512115 0 1.713372235145284 1.7531000633658289 0 1.571461004038144 1.7525828953231699 0 1.6417894652306939 1.876906166729128 0 1.642868854632821 1.6288530173177931 0 1.713372235145284 1.7531000633658289 0 1.571461004038144 1.7525828953231699 0 1.4287660242288751 1.752676520202513 0 1.500037838044501 1.628868101326133 0 1.571461004038144 1.7525828953231699 0 1.4999999999999989 1.876282085173651 0 1.571461004038144 1.7525828953231699 0 1.6417894652306939 1.876906166729128 0 1.4999999999999989 1.876282085173651 0 1.4287660242288751 1.752676520202513 0 1.571461004038144 1.7525828953231699 0 1.4999999999999989 1.876282085173651 0 1.571428571428571 2 0 1.6417894652306939 1.876906166729128 0 1.571428571428571 2 0 1.6428571428571419 2.0966122299857219 0 1.714285714285714 2 0 1.571428571428571 2 0 1.6417894652306939 1.876906166729128 0 1.714285714285714 2 0 1.4944588869160489 2.2778135148397252 0 1.4981772993071649 2.1265427876294591 0 1.618589574131738 2.2142857142857051 0 1.4981772993071649 2.1265427876294591 0 1.571428571428571 2 0 1.6428571428571419 2.0966122299857219 0 1.4981772993071649 2.1265427876294591 0 1.6428571428571419 2.0966122299857219 0 1.618589574131738 2.2142857142857051 0 1.6428571428571419 2.0966122299857219 0 1.618589574131738 2.2142857142857051 0 1.764905672277584 2.1309733946265141 0 1.618589574131738 2.2142857142857051 0 1.764905672277584 2.1309733946265141 0 1.7480830732282899 2.2842008379910128 0 1.6428571428571419 2.0966122299857219 0 1.764905672277584 2.1309733946265141 0 1.714285714285714 2 0 1.764905672277584 2.1309733946265141 0 1.8779600310929021 2.2171362933276071 0 1.895421313204446 2.1045786867955552 0 1.764905672277584 2.1309733946265141 0 1.857142857142857 2 0 1.895421313204446 2.1045786867955552 0 1.764905672277584 2.1309733946265141 0 1.8779600310929021 2.2171362933276071 0 1.7480830732282899 2.2842008379910128 0 1.6417894652306939 1.876906166729128 0 1.7801892664864549 1.879471956512115 0 1.714285714285714 2 0 1.764905672277584 2.1309733946265141 0 1.714285714285714 2 0 1.857142857142857 2 0 1.7801892664864549 1.879471956512115 0 1.714285714285714 2 0 1.857142857142857 2 0 1.7801892664864549 1.879471956512115 0 1.857142857142857 2 0 1.8954213132044451 1.8954213132044451 0 1.8954213132044451 1.8954213132044451 0 2 2 0 2 1.857142857142857 0 1.857142857142857 2 0 1.8954213132044451 1.8954213132044451 0 2 2 0 1.857142857142857 2 0 2 2 0 1.895421313204446 2.1045786867955552 0 2 2 0 2.1045786867955552 1.8954213132044451 0 2 1.857142857142857 0 1.8779600310929021 2.2171362933276071 0 2 2.1428571428571428 0 2 2.2857142857142851 0 2 2 0 1.895421313204446 2.1045786867955552 0 2 2.1428571428571428 0 1.8779600310929021 2.2171362933276071 0 1.895421313204446 2.1045786867955552 0 2 2.1428571428571428 0 2 2 0 2 2.1428571428571428 0 2.1045786867955552 2.1045786867955552 0 2 2.1428571428571428 0 2.1237179148263481 2.2142857142857149 0 2 2.2857142857142851 0 2 2.1428571428571428 0 2.1237179148263481 2.2142857142857149 0 2.1045786867955552 2.1045786867955552 0 2.1237179148263481 2.2142857142857149 0 2.1045786867955552 2.1045786867955552 0 2.2313473055860129 2.1272755973392572 0 2.1045786867955552 2.1045786867955552 0 2.2313473055860129 2.1272755973392572 0 2.1428571428571428 2 0 2.1237179148263481 2.2142857142857149 0 2.2313473055860129 2.1272755973392572 0 2.2437590376264152 2.2790339820013181 0 2 2 0 2.1045786867955552 1.8954213132044451 0 2.1428571428571428 2 0 2.1045786867955552 1.8954213132044451 0 2.1428571428571428 2 0 2.2202906086958931 1.880802382239964 0 2 2 0 2.1045786867955552 2.1045786867955552 0 2.1428571428571428 2 0 2.2313473055860129 2.1272755973392572 0 2.1428571428571428 2 0 2.2857142857142851 2 0 2.1428571428571428 2 0 2.2202906086958931 1.880802382239964 0 2.2857142857142851 2 0 2.2202906086958931 1.880802382239964 0 2.1286816305548801 1.7669740022979501 0 2.2845425105382549 1.7535733272041241 0 2.1045786867955552 1.8954213132044451 0 2.2202906086958931 1.880802382239964 0 2.1286816305548801 1.7669740022979501 0 2.1045786867955552 1.8954213132044451 0 2.1286816305548801 1.7669740022979501 0 2 1.857142857142857 0 2.1286816305548801 1.7669740022979501 0 2.0920210771696688 1.6392662971026759 0 2 1.714285714285714 0 2.1286816305548801 1.7669740022979501 0 2.2118802024260251 1.6334057963667139 0 2.2845425105382549 1.7535733272041241 0 2.2118802024260251 1.6334057963667139 0 2.1268141540049612 1.5030557096254999 0 2.2857142857142878 1.505128340694611 0 2.1268141540049612 1.5030557096254999 0 2.0920210771696688 1.6392662971026759 0 2 1.571428571428571 0 2.2118802024260251 1.6334057963667139 0 2.1268141540049612 1.5030557096254999 0 2.0920210771696688 1.6392662971026759 0 2.1286816305548801 1.7669740022979501 0 2.2118802024260251 1.6334057963667139 0 2.0920210771696688 1.6392662971026759 0 2.0920210771696688 1.6392662971026759 0 2 1.571428571428571 0 2 1.714285714285714 0 2.1268141540049612 1.5030557096254999 0 2 1.571428571428571 0 2 1.4285714285714279 0 1.871948590758401 1.50245062087882 0 2 1.571428571428571 0 1.904493237859993 1.64083754547551 0 1.871948590758401 1.50245062087882 0 2 1.571428571428571 0 2 1.4285714285714279 0 2 1.571428571428571 0 1.904493237859993 1.64083754547551 0 2 1.714285714285714 0 1.868181956188198 1.767586372373096 0 2 1.857142857142857 0 2 1.714285714285714 0 1.868181956188198 1.767586372373096 0 1.904493237859993 1.64083754547551 0 2 1.714285714285714 0 1.868181956188198 1.767586372373096 0 1.8954213132044451 1.8954213132044451 0 2 1.857142857142857 0 2.1286816305548801 1.7669740022979501 0 2 1.857142857142857 0 2 1.714285714285714 0 1.857142857142857 3 0 1.7625829828895341 2.8680117993848531 0 1.895421313204446 2.8954213132044462 0 1.7625829828895341 2.8680117993848531 0 1.8744090508054969 2.7801892664864498 0 1.895421313204446 2.8954213132044462 0 1.857142857142857 3 0 1.7625829828895341 2.8680117993848531 0 1.714285714285714 3 0 1.7625829828895341 2.8680117993848531 0 1.714285714285714 3 0 1.6328872443713489 2.905134935171505 0 1.714285714285714 3 0 1.571428571428571 3 0 1.6328872443713489 2.905134935171505 0 1.49754937912118 2.871948590758397 0 1.571428571428571 3 0 1.6328872443713489 2.905134935171505 0 1.49754937912118 2.871948590758397 0 1.6328872443713489 2.905134935171505 0 1.618589574131748 2.7857142857142771 0 1.7625829828895341 2.8680117993848531 0 1.6328872443713489 2.905134935171505 0 1.618589574131748 2.7857142857142771 0 1.4948716593053959 2.7142857142857029 0 1.49754937912118 2.871948590758397 0 1.618589574131748 2.7857142857142771 0 1.4948716593053959 2.7142857142857029 0 1.618589574131748 2.7857142857142771 0 1.618499131669189 2.6427004919168251 0 1.4946221303562011 2.5709963746106008 0 1.4948716593053959 2.7142857142857029 0 1.618499131669189 2.6427004919168251 0 1.618589574131748 2.7857142857142771 0 1.618499131669189 2.6427004919168251 0 1.744006290327982 2.7132695249030081 0 1.618499131669189 2.6427004919168251 0 1.744006290327982 2.7132695249030081 0 1.7438144826910189 2.571013105300513 0 1.7625829828895341 2.8680117993848531 0 1.618589574131748 2.7857142857142771 0 1.744006290327982 2.7132695249030081 0 1.7625829828895341 2.8680117993848531 0 1.744006290327982 2.7132695249030081 0 1.8744090508054969 2.7801892664864498 0 1.744006290327982 2.7132695249030081 0 1.8744090508054969 2.7801892664864498 0 1.869528722044044 2.6422655888827711 0 1.744006290327982 2.7132695249030081 0 1.869528722044044 2.6422655888827711 0 1.7438144826910189 2.571013105300513 0 1.869528722044044 2.6422655888827711 0 1.8728601884303651 2.4999999999999969 0 1.7438144826910189 2.571013105300513 0 1.8728601884303651 2.4999999999999969 0 1.7438144826910189 2.571013105300513 0 1.7445056250705191 2.4267429915673051 0 1.7438144826910189 2.571013105300513 0 1.6182964483056039 2.499492291176109 0 1.7445056250705191 2.4267429915673051 0 1.618499131669189 2.6427004919168251 0 1.7438144826910189 2.571013105300513 0 1.6182964483056039 2.499492291176109 0 1.4946221303562011 2.5709963746106008 0 1.618499131669189 2.6427004919168251 0 1.6182964483056039 2.499492291176109 0 1.49336243329776 2.4259573724460979 0 1.4946221303562011 2.5709963746106008 0 1.6182964483056039 2.499492291176109 0 1.6182964483056039 2.499492291176109 0 1.619225602145042 2.355202188835702 0 1.7445056250705191 2.4267429915673051 0 1.49336243329776 2.4259573724460979 0 1.6182964483056039 2.499492291176109 0 1.619225602145042 2.355202188835702 0 1.4944588869160489 2.2778135148397252 0 1.49336243329776 2.4259573724460979 0 1.619225602145042 2.355202188835702 0 1.4944588869160489 2.2778135148397252 0 1.618589574131738 2.2142857142857051 0 1.619225602145042 2.355202188835702 0 1.618589574131738 2.2142857142857051 0 1.619225602145042 2.355202188835702 0 1.7480830732282899 2.2842008379910128 0 1.619225602145042 2.355202188835702 0 1.7480830732282899 2.2842008379910128 0 1.7445056250705191 2.4267429915673051 0 1.8728601884303651 2.4999999999999969 0 1.7445056250705191 2.4267429915673051 0 1.8702227561605891 2.3565050932945648 0 1.7480830732282899 2.2842008379910128 0 1.7445056250705191 2.4267429915673051 0 1.8702227561605891 2.3565050932945648 0 1.8779600310929021 2.2171362933276071 0 1.7480830732282899 2.2842008379910128 0 1.8702227561605891 2.3565050932945648 0 1.8779600310929021 2.2171362933276071 0 1.8702227561605891 2.3565050932945648 0 2 2.2857142857142851 0 1.8702227561605891 2.3565050932945648 0 2 2.4285714285714279 0 2 2.2857142857142851 0 1.8728601884303651 2.4999999999999969 0 1.8702227561605891 2.3565050932945648 0 2 2.4285714285714279 0 2 2.4285714285714279 0 2 2.2857142857142851 0 2.1244455545700558 2.3535499438421899 0 2.1237179148263481 2.2142857142857149 0 2 2.2857142857142851 0 2.1244455545700558 2.3535499438421899 0 2.1237179148263481 2.2142857142857149 0 2.2437590376264152 2.2790339820013181 0 2.1244455545700558 2.3535499438421899 0 2.2437590376264152 2.2790339820013181 0 2.2474358296526931 2.4285714285714239 0 2.1244455545700558 2.3535499438421899 0 2.2474358296526931 2.4285714285714239 0 2.1244455545700558 2.3535499438421899 0 2.1237179148263481 2.4999999999999978 0 2 2.4285714285714279 0 2.1244455545700558 2.3535499438421899 0 2.1237179148263481 2.4999999999999978 0 2.2474358296526931 2.4285714285714239 0 2.1237179148263481 2.4999999999999978 0 2.2473472221155188 2.571275098672237 0 2.1237179148263481 2.4999999999999978 0 2.2473472221155188 2.571275098672237 0 2.1231862696032739 2.641936306319169 0 2.1237179148263481 2.4999999999999978 0 2 2.5714285714285712 0 2.1231862696032739 2.641936306319169 0 2 2.4285714285714279 0 2.1237179148263481 2.4999999999999978 0 2 2.5714285714285712 0 1.8728601884303651 2.4999999999999969 0 2 2.4285714285714279 0 2 2.5714285714285712 0 1.869528722044044 2.6422655888827711 0 1.8728601884303651 2.4999999999999969 0 2 2.5714285714285712 0 1.8744090508054969 2.7801892664864498 0 1.869528722044044 2.6422655888827711 0 2 2.714285714285714 0 1.869528722044044 2.6422655888827711 0 2 2.5714285714285712 0 2 2.714285714285714 0 1.8744090508054969 2.7801892664864498 0 2 2.714285714285714 0 2 2.8571428571428572 0 2 2.714285714285714 0 2.1205280434878868 2.7801892664864529 0 2 2.8571428571428572 0 2 2.5714285714285712 0 2 2.714285714285714 0 2.1231862696032739 2.641936306319169 0 2 2.714285714285714 0 2.1231862696032739 2.641936306319169 0 2.1205280434878868 2.7801892664864529 0 2.1231862696032739 2.641936306319169 0 2.2467630522735749 2.713120429682875 0 2.1205280434878868 2.7801892664864529 0 2.2473472221155188 2.571275098672237 0 2.1231862696032739 2.641936306319169 0 2.2467630522735749 2.713120429682875 0 2.2467630522735749 2.713120429682875 0 2.1205280434878868 2.7801892664864529 0 2.232409009442776 2.8681560935612769 0 2.1205280434878868 2.7801892664864529 0 2.1045786867955552 2.8954213132044448 0 2.232409009442776 2.8681560935612769 0 2.1205280434878868 2.7801892664864529 0 2.1045786867955552 2.8954213132044448 0 2 2.8571428571428572 0 2.232409009442776 2.8681560935612769 0 2.1428571428571428 3 0 2.2857142857142851 3 0 2.1045786867955552 2.8954213132044448 0 2.232409009442776 2.8681560935612769 0 2.1428571428571428 3 0 2.1045786867955552 2.8954213132044448 0 2.1428571428571428 3 0 2 3 0 2.1045786867955552 2.8954213132044448 0 2 3 0 2 2.8571428571428572 0 1.8744090508054969 2.7801892664864498 0 2 2.8571428571428572 0 1.895421313204446 2.8954213132044462 0 2 3 0 2 2.8571428571428572 0 1.895421313204446 2.8954213132044462 0 1.857142857142857 3 0 2 3 0 1.895421313204446 2.8954213132044462 0 2.5714285714285712 3 0 2.498533384291155 2.8730290895352302 0 2.6413671075336191 2.906422072834058 0 2.498533384291155 2.8730290895352302 0 2.624345486027623 2.7856888613712472 0 2.6413671075336191 2.906422072834058 0 2.5714285714285712 3 0 2.498533384291155 2.8730290895352302 0 2.4285714285714279 3 0 2.4285714285714279 3 0 2.2857142857142851 3 0 2.3612561171619291 2.9048358126425291 0 2.498533384291155 2.8730290895352302 0 2.4285714285714279 3 0 2.3612561171619291 2.9048358126425291 0 2.232409009442776 2.8681560935612769 0 2.2857142857142851 3 0 2.3612561171619291 2.9048358126425291 0 2.232409009442776 2.8681560935612769 0 2.3612561171619291 2.9048358126425291 0 2.369278997828121 2.784057785709154 0 2.498533384291155 2.8730290895352302 0 2.3612561171619291 2.9048358126425291 0 2.369278997828121 2.784057785709154 0 2.2467630522735749 2.713120429682875 0 2.232409009442776 2.8681560935612769 0 2.369278997828121 2.784057785709154 0 2.2467630522735749 2.713120429682875 0 2.369278997828121 2.784057785709154 0 2.370927204303003 2.64246476376226 0 2.2473472221155188 2.571275098672237 0 2.2467630522735749 2.713120429682875 0 2.370927204303003 2.64246476376226 0 2.369278997828121 2.784057785709154 0 2.370927204303003 2.64246476376226 0 2.495616516317638 2.717626453377767 0 2.370927204303003 2.64246476376226 0 2.495616516317638 2.717626453377767 0 2.4946221303562042 2.5709963746105879 0 2.498533384291155 2.8730290895352302 0 2.369278997828121 2.784057785709154 0 2.495616516317638 2.717626453377767 0 2.498533384291155 2.8730290895352302 0 2.495616516317638 2.717626453377767 0 2.624345486027623 2.7856888613712472 0 2.495616516317638 2.717626453377767 0 2.624345486027623 2.7856888613712472 0 2.6192455835349819 2.6438414003703889 0 2.495616516317638 2.717626453377767 0 2.6192455835349819 2.6438414003703889 0 2.4946221303562042 2.5709963746105879 0 2.6192455835349819 2.6438414003703889 0 2.618402581522377 2.4995561624500251 0 2.4946221303562042 2.5709963746105879 0 2.618402581522377 2.4995561624500251 0 2.4946221303562042 2.5709963746105879 0 2.4933624332977531 2.4259573724460828 0 2.4946221303562042 2.5709963746105879 0 2.3698831109599312 2.497799198187086 0 2.4933624332977531 2.4259573724460828 0 2.370927204303003 2.64246476376226 0 2.4946221303562042 2.5709963746105879 0 2.3698831109599312 2.497799198187086 0 2.2473472221155188 2.571275098672237 0 2.370927204303003 2.64246476376226 0 2.3698831109599312 2.497799198187086 0 2.2474358296526931 2.4285714285714239 0 2.2473472221155188 2.571275098672237 0 2.3698831109599312 2.497799198187086 0 2.3698831109599312 2.497799198187086 0 2.3673193849061538 2.3469269946466551 0 2.4933624332977531 2.4259573724460828 0 2.2474358296526931 2.4285714285714239 0 2.3698831109599312 2.497799198187086 0 2.3673193849061538 2.3469269946466551 0 2.2437590376264152 2.2790339820013181 0 2.2474358296526931 2.4285714285714239 0 2.3673193849061538 2.3469269946466551 0 2.2437590376264152 2.2790339820013181 0 2.3673193849061538 2.3469269946466551 0 2.3682882362172282 2.20359421332267 0 2.3673193849061538 2.3469269946466551 0 2.4944618350609482 2.277815289041762 0 2.3682882362172282 2.20359421332267 0 2.3673193849061538 2.3469269946466551 0 2.4944618350609482 2.277815289041762 0 2.4933624332977531 2.4259573724460828 0 2.618402581522377 2.4995561624500251 0 2.4933624332977531 2.4259573724460828 0 2.619243291014496 2.3552128340480101 0 2.4944618350609482 2.277815289041762 0 2.4933624332977531 2.4259573724460828 0 2.619243291014496 2.3552128340480101 0 2.4944618350609482 2.277815289041762 0 2.619243291014496 2.3552128340480101 0 2.6185895741317191 2.2142857142856851 0 2.619243291014496 2.3552128340480101 0 2.7479931719733139 2.2843081023179281 0 2.6185895741317191 2.2142857142856851 0 2.618402581522377 2.4995561624500251 0 2.619243291014496 2.3552128340480101 0 2.7439826402435501 2.4273237749392429 0 2.619243291014496 2.3552128340480101 0 2.7439826402435501 2.4273237749392429 0 2.7479931719733139 2.2843081023179281 0 2.7439826402435501 2.4273237749392429 0 2.7479931719733139 2.2843081023179281 0 2.8701886445882661 2.3565572506718269 0 2.7479931719733139 2.2843081023179281 0 2.8701886445882661 2.3565572506718269 0 2.8779600310929019 2.217136293327608 0 3 2.2857142857142851 0 2.8701886445882661 2.3565572506718269 0 2.8779600310929019 2.217136293327608 0 3 2.4285714285714279 0 2.8701886445882661 2.3565572506718269 0 2.872982021166786 2.5000325873846538 0 3 2.2857142857142851 0 3 2.4285714285714279 0 2.8701886445882661 2.3565572506718269 0 2.7439826402435501 2.4273237749392429 0 2.8701886445882661 2.3565572506718269 0 2.872982021166786 2.5000325873846538 0 3 2.4285714285714279 0 2.872982021166786 2.5000325873846538 0 3 2.5714285714285712 0 2.872982021166786 2.5000325873846538 0 3 2.5714285714285712 0 2.8702940969356949 2.6423588347380189 0 2.872982021166786 2.5000325873846538 0 2.7446704713759029 2.571237155042541 0 2.8702940969356949 2.6423588347380189 0 2.7439826402435501 2.4273237749392429 0 2.872982021166786 2.5000325873846538 0 2.7446704713759029 2.571237155042541 0 2.618402581522377 2.4995561624500251 0 2.7439826402435501 2.4273237749392429 0 2.7446704713759029 2.571237155042541 0 2.6192455835349819 2.6438414003703889 0 2.618402581522377 2.4995561624500251 0 2.7446704713759029 2.571237155042541 0 2.6192455835349819 2.6438414003703889 0 2.7446704713759029 2.571237155042541 0 2.7461960343957288 2.7138118622537939 0 2.624345486027623 2.7856888613712472 0 2.6192455835349819 2.6438414003703889 0 2.7461960343957288 2.7138118622537939 0 2.624345486027623 2.7856888613712472 0 2.7461960343957288 2.7138118622537939 0 2.764916587633921 2.868832996132892 0 2.7461960343957288 2.7138118622537939 0 2.8756576008474641 2.7804868632666988 0 2.764916587633921 2.868832996132892 0 2.7446704713759029 2.571237155042541 0 2.7461960343957288 2.7138118622537939 0 2.8702940969356949 2.6423588347380189 0 2.7461960343957288 2.7138118622537939 0 2.8702940969356949 2.6423588347380189 0 2.8756576008474641 2.7804868632666988 0 3 2.5714285714285712 0 2.8702940969356949 2.6423588347380189 0 3 2.714285714285714 0 2.8702940969356949 2.6423588347380189 0 3 2.714285714285714 0 2.8756576008474641 2.7804868632666988 0 3 2.714285714285714 0 2.8756576008474641 2.7804868632666988 0 3 2.8571428571428572 0 2.8756576008474641 2.7804868632666988 0 2.895421313204448 2.895421313204448 0 2.764916587633921 2.868832996132892 0 2.8756576008474641 2.7804868632666988 0 2.895421313204448 2.895421313204448 0 3 2.8571428571428572 0 2.895421313204448 2.895421313204448 0 3 3 0 2.8571428571428572 3 0 2.895421313204448 2.895421313204448 0 3 2.8571428571428572 0 3 3 0 2.895421313204448 2.895421313204448 0 2.8571428571428572 3 0 2.764916587633921 2.868832996132892 0 2.8571428571428572 3 0 2.764916587633921 2.868832996132892 0 2.714285714285714 3 0 2.624345486027623 2.7856888613712472 0 2.764916587633921 2.868832996132892 0 2.6413671075336191 2.906422072834058 0 2.5714285714285712 3 0 2.6413671075336191 2.906422072834058 0 2.714285714285714 3 0 2.764916587633921 2.868832996132892 0 2.6413671075336191 2.906422072834058 0 2.714285714285714 3 0 2.5714610040381438 1.7525828953231719 0 2.5000378380445039 1.6288681013261359 0 2.4287660242288749 1.752676520202513 0 2.5714610040381438 1.7525828953231719 0 2.4287660242288749 1.752676520202513 0 2.4999999999999978 1.876282085173651 0 2.5714610040381438 1.7525828953231719 0 2.4999999999999978 1.876282085173651 0 2.6428571428571388 1.876282085173651 0 2.5714610040381438 1.7525828953231719 0 2.5000378380445039 1.6288681013261359 0 2.6427234372420072 1.628936974087531 0 2.5712671761093171 1.5052310581929651 0 2.5000378380445039 1.6288681013261359 0 2.6427234372420072 1.628936974087531 0 2.5712671761093171 1.5052310581929651 0 2.5000378380445039 1.6288681013261359 0 2.4285508356923038 1.5051491012451981 0 2.5000378380445039 1.6288681013261359 0 2.356581949440709 1.6298001978398831 0 2.4287660242288749 1.752676520202513 0 2.5000378380445039 1.6288681013261359 0 2.356581949440709 1.6298001978398831 0 2.4285508356923038 1.5051491012451981 0 2.356581949440709 1.6298001978398831 0 2.4285508356923038 1.5051491012451981 0 2.2857142857142878 1.505128340694611 0 2.2118802024260251 1.6334057963667139 0 2.356581949440709 1.6298001978398831 0 2.2857142857142878 1.505128340694611 0 2.2118802024260251 1.6334057963667139 0 2.356581949440709 1.6298001978398831 0 2.2845425105382549 1.7535733272041241 0 2.356581949440709 1.6298001978398831 0 2.2845425105382549 1.7535733272041241 0 2.4287660242288749 1.752676520202513 0 2.2845425105382549 1.7535733272041241 0 2.4287660242288749 1.752676520202513 0 2.358310431087538 1.876956184304913 0 2.4287660242288749 1.752676520202513 0 2.358310431087538 1.876956184304913 0 2.4999999999999978 1.876282085173651 0 2.2202906086958931 1.880802382239964 0 2.2845425105382549 1.7535733272041241 0 2.358310431087538 1.876956184304913 0 2.2202906086958931 1.880802382239964 0 2.2857142857142851 2 0 2.358310431087538 1.876956184304913 0 2.2857142857142851 2 0 2.4285714285714279 2 0 2.3571428571428541 2.088385776600894 0 2.4285714285714279 2 0 2.358310431087538 1.876956184304913 0 2.4999999999999978 1.876282085173651 0 2.2857142857142851 2 0 2.4285714285714279 2 0 2.358310431087538 1.876956184304913 0 2.2313473055860129 2.1272755973392572 0 2.2437590376264152 2.2790339820013181 0 2.3682882362172282 2.20359421332267 0 2.2313473055860129 2.1272755973392572 0 2.2857142857142851 2 0 2.3571428571428541 2.088385776600894 0 2.2313473055860129 2.1272755973392572 0 2.3571428571428541 2.088385776600894 0 2.3682882362172282 2.20359421332267 0 2.4285714285714279 2 0 2.3571428571428541 2.088385776600894 0 2.4981772993071591 2.1265427876294498 0 2.3571428571428541 2.088385776600894 0 2.3682882362172282 2.20359421332267 0 2.4981772993071591 2.1265427876294498 0 2.4944618350609482 2.277815289041762 0 2.3682882362172282 2.20359421332267 0 2.4981772993071591 2.1265427876294498 0 2.4981772993071591 2.1265427876294498 0 2.5714285714285712 2 0 2.6428571428571428 2.0966122299857148 0 2.4981772993071591 2.1265427876294498 0 2.6185895741317191 2.2142857142856851 0 2.6428571428571428 2.0966122299857148 0 2.4944618350609482 2.277815289041762 0 2.4981772993071591 2.1265427876294498 0 2.6185895741317191 2.2142857142856851 0 2.4285714285714279 2 0 2.4999999999999978 1.876282085173651 0 2.5714285714285712 2 0 2.4285714285714279 2 0 2.4981772993071591 2.1265427876294498 0 2.5714285714285712 2 0 2.4999999999999978 1.876282085173651 0 2.5714285714285712 2 0 2.6428571428571388 1.876282085173651 0 2.5714285714285712 2 0 2.6428571428571388 1.876282085173651 0 2.714285714285714 2 0 2.6428571428571388 1.876282085173651 0 2.714285714285714 2 0 2.7814963681520442 1.882580830411096 0 2.5714285714285712 2 0 2.714285714285714 2 0 2.6428571428571428 2.0966122299857148 0 2.714285714285714 2 0 2.7648928292411559 2.1309887181017841 0 2.8571428571428572 2 0 2.714285714285714 2 0 2.7814963681520442 1.882580830411096 0 2.8571428571428572 2 0 2.7479931719733139 2.2843081023179281 0 2.6185895741317191 2.2142857142856851 0 2.7648928292411559 2.1309887181017841 0 2.714285714285714 2 0 2.6428571428571428 2.0966122299857148 0 2.7648928292411559 2.1309887181017841 0 2.6185895741317191 2.2142857142856851 0 2.6428571428571428 2.0966122299857148 0 2.7648928292411559 2.1309887181017841 0 2.7479931719733139 2.2843081023179281 0 2.7648928292411559 2.1309887181017841 0 2.8779600310929019 2.217136293327608 0 2.7648928292411559 2.1309887181017841 0 2.8954213132044448 2.1045786867955552 0 2.8571428571428572 2 0 2.7648928292411559 2.1309887181017841 0 2.8779600310929019 2.217136293327608 0 2.8954213132044448 2.1045786867955552 0 2.8954213132044448 2.1045786867955552 0 3 2.1428571428571428 0 3 2 0 2.8779600310929019 2.217136293327608 0 2.8954213132044448 2.1045786867955552 0 3 2.1428571428571428 0 3 2.2857142857142851 0 2.8779600310929019 2.217136293327608 0 3 2.1428571428571428 0 2.7814963681520442 1.882580830411096 0 2.895421313204448 1.895421313204448 0 2.8571428571428572 2 0 2.8954213132044448 2.1045786867955552 0 2.8571428571428572 2 0 3 2 0 2.895421313204448 1.895421313204448 0 2.8571428571428572 2 0 3 2 0 2.895421313204448 1.895421313204448 0 3 2 0 3 1.857142857142857 0 2.895421313204448 1.895421313204448 0 3 1.857142857142857 0 2.870614678937029 1.7725963401346581 0 3 1.857142857142857 0 3 1.714285714285714 0 2.870614678937029 1.7725963401346581 0 3 1.714285714285714 0 2.870614678937029 1.7725963401346581 0 2.905423741759479 1.6391988482369699 0 2.7814963681520442 1.882580830411096 0 2.895421313204448 1.895421313204448 0 2.870614678937029 1.7725963401346581 0 2.7814963681520442 1.882580830411096 0 2.870614678937029 1.7725963401346581 0 2.7153465651391322 1.7565952050335309 0 2.870614678937029 1.7725963401346581 0 2.7153465651391322 1.7565952050335309 0 2.786129397280769 1.6349001941088239 0 2.5714610040381438 1.7525828953231719 0 2.7153465651391322 1.7565952050335309 0 2.6427234372420072 1.628936974087531 0 2.5714610040381438 1.7525828953231719 0 2.6428571428571388 1.876282085173651 0 2.7153465651391322 1.7565952050335309 0 2.6428571428571388 1.876282085173651 0 2.7814963681520442 1.882580830411096 0 2.7153465651391322 1.7565952050335309 0 2.5712671761093171 1.5052310581929651 0 2.7167234160060199 1.5059542429009301 0 2.6427234372420072 1.628936974087531 0 2.7167234160060199 1.5059542429009301 0 2.6427234372420072 1.628936974087531 0 2.786129397280769 1.6349001941088239 0 2.7153465651391322 1.7565952050335309 0 2.6427234372420072 1.628936974087531 0 2.786129397280769 1.6349001941088239 0 2.7167234160060199 1.5059542429009301 0 2.786129397280769 1.6349001941088239 0 2.870374632579594 1.502783421227085 0 2.786129397280769 1.6349001941088239 0 2.870374632579594 1.502783421227085 0 2.905423741759479 1.6391988482369699 0 2.870614678937029 1.7725963401346581 0 2.786129397280769 1.6349001941088239 0 2.905423741759479 1.6391988482369699 0 3 1.714285714285714 0 2.905423741759479 1.6391988482369699 0 3 1.571428571428571 0 2.870374632579594 1.502783421227085 0 3 1.571428571428571 0 3 1.4285714285714279 0 2.870374632579594 1.502783421227085 0 2.905423741759479 1.6391988482369699 0 3 1.571428571428571 0 2.870374632579594 1.502783421227085 0 3 1.4285714285714279 0 2.9030656089791811 1.3584705572527791 0 3 1.4285714285714279 0 2.9030656089791811 1.3584705572527791 0 3 1.2857142857142849 0 2.9030656089791811 1.3584705572527791 0 2.868688836155401 1.2355313237831811 0 2.786125463576842 1.383677911645713 0 2.870374632579594 1.502783421227085 0 2.9030656089791811 1.3584705572527791 0 2.786125463576842 1.383677911645713 0 3 1.142857142857143 0 2.868688836155401 1.2355313237831811 0 2.8954213132044462 1.104578686795556 0 3 1.142857142857143 0 3 1.2857142857142849 0 2.868688836155401 1.2355313237831811 0 2.9030656089791811 1.3584705572527791 0 3 1.2857142857142849 0 2.868688836155401 1.2355313237831811 0 2.868688836155401 1.2355313237831811 0 2.7814750862709881 1.1221194143447999 0 2.8954213132044462 1.104578686795556 0 2.868688836155401 1.2355313237831811 0 2.7147343810563518 1.251301267871989 0 2.7814750862709881 1.1221194143447999 0 2.868688836155401 1.2355313237831811 0 2.7147343810563518 1.251301267871989 0 2.786125463576842 1.383677911645713 0 2.7147343810563518 1.251301267871989 0 2.6437203892475911 1.3801958981434661 0 2.5728365947067089 1.2514338603666431 0 2.7147343810563518 1.251301267871989 0 2.642474724251239 1.124923408518995 0 2.7814750862709881 1.1221194143447999 0 2.7147343810563518 1.251301267871989 0 2.5728365947067089 1.2514338603666431 0 2.642474724251239 1.124923408518995 0 2.7167234160060199 1.5059542429009301 0 2.870374632579594 1.502783421227085 0 2.786125463576842 1.383677911645713 0 2.7147343810563518 1.251301267871989 0 2.786125463576842 1.383677911645713 0 2.6437203892475911 1.3801958981434661 0 2.5712671761093171 1.5052310581929651 0 2.7167234160060199 1.5059542429009301 0 2.6437203892475911 1.3801958981434661 0 2.7167234160060199 1.5059542429009301 0 2.786125463576842 1.383677911645713 0 2.6437203892475911 1.3801958981434661 0 2.5712671761093171 1.5052310581929651 0 2.6437203892475911 1.3801958981434661 0 2.5003077208249551 1.3799672261976821 0 2.5712671761093171 1.5052310581929651 0 2.4285508356923038 1.5051491012451981 0 2.5003077208249551 1.3799672261976821 0 2.6437203892475911 1.3801958981434661 0 2.5003077208249551 1.3799672261976821 0 2.5728365947067089 1.2514338603666431 0 2.5728365947067089 1.2514338603666431 0 2.5000879977590982 1.1246859085305361 0 2.642474724251239 1.124923408518995 0 2.5728365947067089 1.2514338603666431 0 2.428721567443501 1.25649282465861 0 2.5000879977590982 1.1246859085305361 0 2.5003077208249551 1.3799672261976821 0 2.5728365947067089 1.2514338603666431 0 2.428721567443501 1.25649282465861 0 2.428721567443501 1.25649282465861 0 2.2866681211738742 1.256066682441406 0 2.3571907118004951 1.3811733526815959 0 2.428721567443501 1.25649282465861 0 2.3577140298740269 1.130492812416215 0 2.2866681211738742 1.256066682441406 0 2.428721567443501 1.25649282465861 0 2.3577140298740269 1.130492812416215 0 2.5000879977590982 1.1246859085305361 0 2.3577140298740269 1.130492812416215 0 2.2866681211738742 1.256066682441406 0 2.2198107335135431 1.1256563841824909 0 2.2866681211738742 1.256066682441406 0 2.3571907118004951 1.3811733526815959 0 2.214285714285714 1.3814104258682629 0 2.2857142857142878 1.505128340694611 0 2.3571907118004951 1.3811733526815959 0 2.214285714285714 1.3814104258682629 0 2.4285508356923038 1.5051491012451981 0 2.2857142857142878 1.505128340694611 0 2.3571907118004951 1.3811733526815959 0 2.4285508356923038 1.5051491012451981 0 2.5003077208249551 1.3799672261976821 0 2.3571907118004951 1.3811733526815959 0 2.5003077208249551 1.3799672261976821 0 2.428721567443501 1.25649282465861 0 2.3571907118004951 1.3811733526815959 0 2.3591525644097571 0.90448333979383388 0 2.3690804396265648 0.78389141510404292 0 2.497549379121645 0.87194859075748421 0 2.3591525644097571 0.90448333979383388 0 2.4285714285714279 1 0 2.497549379121645 0.87194859075748421 0 2.3690804396265648 0.78389141510404292 0 2.2467020989286488 0.71318645322081209 0 2.2323719363650798 0.86814175826561746 0 2.3591525644097571 0.90448333979383388 0 2.3690804396265648 0.78389141510404292 0 2.2323719363650798 0.86814175826561746 0 2.3591525644097571 0.90448333979383388 0 2.2857142857142851 1 0 2.2323719363650798 0.86814175826561746 0 2.3577140298740269 1.130492812416215 0 2.2857142857142851 1 0 2.2198107335135431 1.1256563841824909 0 2.3577140298740269 1.130492812416215 0 2.2857142857142851 1 0 2.4285714285714279 1 0 2.3577140298740269 1.130492812416215 0 2.4285714285714279 1 0 2.5000879977590982 1.1246859085305361 0 2.3591525644097571 0.90448333979383388 0 2.2857142857142851 1 0 2.4285714285714279 1 0 2.4285714285714279 1 0 2.5714285714285712 1 0 2.497549379121645 0.87194859075748421 0 2.4285714285714279 1 0 2.5000879977590982 1.1246859085305361 0 2.5714285714285712 1 0 2.5000879977590982 1.1246859085305361 0 2.5714285714285712 1 0 2.642474724251239 1.124923408518995 0 2.497549379121645 0.87194859075748421 0 2.618589574132375 0.78571428571188628 0 2.6328924043665101 0.90513610409542433 0 2.5714285714285712 1 0 2.497549379121645 0.87194859075748421 0 2.6328924043665101 0.90513610409542433 0 2.3690804396265648 0.78389141510404292 0 2.497549379121645 0.87194859075748421 0 2.4948716593059621 0.71428571428343679 0 2.497549379121645 0.87194859075748421 0 2.618589574132375 0.78571428571188628 0 2.4948716593059621 0.71428571428343679 0 2.618589574132375 0.78571428571188628 0 2.7626087828642452 0.86801764400775083 0 2.744186890149765 0.71331043726850263 0 2.618589574132375 0.78571428571188628 0 2.6328924043665101 0.90513610409542433 0 2.7626087828642452 0.86801764400775083 0 2.6328924043665101 0.90513610409542433 0 2.7626087828642452 0.86801764400775083 0 2.714285714285714 1 0 2.7626087828642452 0.86801764400775083 0 2.874409050805995 0.78018926648514575 0 2.744186890149765 0.71331043726850263 0 2.5714285714285712 1 0 2.642474724251239 1.124923408518995 0 2.714285714285714 1 0 2.642474724251239 1.124923408518995 0 2.714285714285714 1 0 2.7814750862709881 1.1221194143447999 0 2.5714285714285712 1 0 2.6328924043665101 0.90513610409542433 0 2.714285714285714 1 0 2.7626087828642452 0.86801764400775083 0 2.714285714285714 1 0 2.8571428571428572 1 0 2.714285714285714 1 0 2.7814750862709881 1.1221194143447999 0 2.8571428571428572 1 0 2.7814750862709881 1.1221194143447999 0 2.8954213132044462 1.104578686795556 0 2.8571428571428572 1 0 2.8571428571428572 1 0 3 1 0 2.8954213132042099 0.895421313204108 0 2.8954213132044462 1.104578686795556 0 2.8571428571428572 1 0 3 1 0 3 1.142857142857143 0 2.8954213132044462 1.104578686795556 0 3 1 0 2.7626087828642452 0.86801764400775083 0 2.874409050805995 0.78018926648514575 0 2.8954213132042099 0.895421313204108 0 2.7626087828642452 0.86801764400775083 0 2.8571428571428572 1 0 2.8954213132042099 0.895421313204108 0 3 1 0 2.8954213132042099 0.895421313204108 0 3 0.85714285714248095 0 2.874409050805995 0.78018926648514575 0 2.8954213132042099 0.895421313204108 0 3 0.85714285714248095 0 2.874409050805995 0.78018926648514575 0 3 0.85714285714248095 0 3 0.71428571428496201 0 2.874409050805995 0.78018926648514575 0 3 0.71428571428496201 0 2.869717803296802 0.64222861727828529 0 2.874409050805995 0.78018926648514575 0 2.869717803296802 0.64222861727828529 0 2.744186890149765 0.71331043726850263 0 2.869717803296802 0.64222861727828529 0 2.8740599863056251 0.49927531931007729 0 2.7446576805156062 0.57126208756431218 0 2.869717803296802 0.64222861727828529 0 3 0.57142857142744297 0 2.8740599863056251 0.49927531931007729 0 3 0.71428571428496201 0 2.869717803296802 0.64222861727828529 0 3 0.57142857142744297 0 3 0.57142857142744297 0 3 0.42857142857032021 0 2.8740599863056251 0.49927531931007729 0 3 0.42857142857032021 0 2.8740599863056251 0.49927531931007729 0 2.875698076300893 0.35415439180319042 0 2.8740599863056251 0.49927531931007729 0 2.752171560420507 0.42857142856854402 0 2.875698076300893 0.35415439180319042 0 2.8740599863056251 0.49927531931007729 0 2.752171560420507 0.42857142856854402 0 2.7446576805156062 0.57126208756431218 0 2.752171560420507 0.42857142856854402 0 2.6201734641978431 0.35661818314175592 0 2.6198899606611801 0.49948637524748601 0 2.752171560420507 0.42857142856854402 0 2.7446576805156062 0.57126208756431218 0 2.6198899606611801 0.49948637524748601 0 2.7446576805156062 0.57126208756431218 0 2.6187395327714542 0.64269698385323981 0 2.6198899606611801 0.49948637524748601 0 2.744186890149765 0.71331043726850263 0 2.7446576805156062 0.57126208756431218 0 2.6187395327714542 0.64269698385323981 0 2.618589574132375 0.78571428571188628 0 2.744186890149765 0.71331043726850263 0 2.6187395327714542 0.64269698385323981 0 2.869717803296802 0.64222861727828529 0 2.744186890149765 0.71331043726850263 0 2.7446576805156062 0.57126208756431218 0 2.8571428571428572 0 0 2.895979424212793 0.1040205757871324 0 2.7710799917251951 0.12873413335171449 0 2.8571428571428572 0 0 3 0 0 2.895979424212793 0.1040205757871324 0 3 0 0 3 0.14285714285686729 0 2.895979424212793 0.1040205757871324 0 3 0.14285714285686729 0 2.895979424212793 0.1040205757871324 0 2.8828959187492971 0.2161673249238161 0 2.895979424212793 0.1040205757871324 0 2.8828959187492971 0.2161673249238161 0 2.7710799917251951 0.12873413335171449 0 3 0.14285714285686729 0 2.8828959187492971 0.2161673249238161 0 3 0.28571428571359381 0 2.8828959187492971 0.2161673249238161 0 3 0.28571428571359381 0 2.875698076300893 0.35415439180319042 0 3 0.42857142857032021 0 3 0.28571428571359381 0 2.875698076300893 0.35415439180319042 0 2.8828959187492971 0.2161673249238161 0 2.875698076300893 0.35415439180319042 0 2.7546180202569031 0.2815234200303981 0 2.752171560420507 0.42857142856854402 0 2.875698076300893 0.35415439180319042 0 2.7546180202569031 0.2815234200303981 0 2.752171560420507 0.42857142856854402 0 2.7546180202569031 0.2815234200303981 0 2.6201734641978431 0.35661818314175592 0 2.7546180202569031 0.2815234200303981 0 2.6281978226174312 0.2120446233090226 0 2.6201734641978431 0.35661818314175592 0 2.7546180202569031 0.2815234200303981 0 2.6281978226174312 0.2120446233090226 0 2.7710799917251951 0.12873413335171449 0 2.8828959187492971 0.2161673249238161 0 2.7546180202569031 0.2815234200303981 0 2.7710799917251951 0.12873413335171449 0 2.6281978226174312 0.2120446233090226 0 2.7710799917251951 0.12873413335171449 0 2.6366338798727531 0.093464308857798578 0 2.7710799917251951 0.12873413335171449 0 2.714285714285714 0 0 2.6366338798727531 0.093464308857798578 0 2.714285714285714 0 0 2.6366338798727531 0.093464308857798578 0 2.5714285714285712 0 0 2.8571428571428572 0 0 2.7710799917251951 0.12873413335171449 0 2.714285714285714 0 0 2.5714285714285712 0 0 2.4981772993068532 0.12654278762825569 0 2.4285714285714279 0 0 2.6366338798727531 0.093464308857798578 0 2.5714285714285712 0 0 2.4981772993068532 0.12654278762825569 0 2.6281978226174312 0.2120446233090226 0 2.6366338798727531 0.093464308857798578 0 2.4981772993068532 0.12654278762825569 0 2.4981772993068532 0.12654278762825569 0 2.4945915486603032 0.27804612003647211 0 2.3627973047133688 0.2085843731968646 0 2.6281978226174312 0.2120446233090226 0 2.4981772993068532 0.12654278762825569 0 2.4945915486603032 0.27804612003647211 0 2.6281978226174312 0.2120446233090226 0 2.4945915486603032 0.27804612003647211 0 2.6201734641978431 0.35661818314175592 0 2.4945915486603032 0.27804612003647211 0 2.6201734641978431 0.35661818314175592 0 2.4932105417127999 0.42593700932760742 0 2.4945915486603032 0.27804612003647211 0 2.3659139839396568 0.35404229584496971 0 2.4932105417127999 0.42593700932760742 0 2.3659139839396568 0.35404229584496971 0 2.2429924675022042 0.42772459507389499 0 2.239801768054869 0.28318912013054048 0 2.3659139839396568 0.35404229584496971 0 2.3627973047133688 0.2085843731968646 0 2.239801768054869 0.28318912013054048 0 2.3627973047133688 0.2085843731968646 0 2.2304843984160652 0.12817051038898469 0 2.239801768054869 0.28318912013054048 0 2.4945915486603032 0.27804612003647211 0 2.3659139839396568 0.35404229584496971 0 2.3627973047133688 0.2085843731968646 0 2.4981772993068532 0.12654278762825569 0 2.3627973047133688 0.2085843731968646 0 2.3571428571428541 0.088385776599927482 0 2.3627973047133688 0.2085843731968646 0 2.3571428571428541 0.088385776599927482 0 2.2304843984160652 0.12817051038898469 0 2.2857142857142851 0 0 2.3571428571428541 0.088385776599927482 0 2.2304843984160652 0.12817051038898469 0 2.2857142857142851 0 0 2.3571428571428541 0.088385776599927482 0 2.4285714285714279 0 0 2.4981772993068532 0.12654278762825569 0 2.3571428571428541 0.088385776599927482 0 2.4285714285714279 0 0 2.4944710246124502 0.57098124216803003 0 2.4948716593059621 0.71428571428343679 0 2.3707808136040498 0.64248101537579039 0 2.618589574132375 0.78571428571188628 0 2.4948716593059621 0.71428571428343679 0 2.6187395327714542 0.64269698385323981 0 2.4944710246124502 0.57098124216803003 0 2.6187395327714542 0.64269698385323981 0 2.6198899606611801 0.49948637524748601 0 2.4944710246124502 0.57098124216803003 0 2.4948716593059621 0.71428571428343679 0 2.6187395327714542 0.64269698385323981 0 2.4944710246124502 0.57098124216803003 0 2.6198899606611801 0.49948637524748601 0 2.4932105417127999 0.42593700932760742 0 2.6201734641978431 0.35661818314175592 0 2.6198899606611801 0.49948637524748601 0 2.4932105417127999 0.42593700932760742 0 2.4944710246124502 0.57098124216803003 0 2.4932105417127999 0.42593700932760742 0 2.3691228671960749 0.4976921519274754 0 2.3659139839396568 0.35404229584496971 0 2.4932105417127999 0.42593700932760742 0 2.3691228671960749 0.4976921519274754 0 2.3659139839396568 0.35404229584496971 0 2.3691228671960749 0.4976921519274754 0 2.2429924675022042 0.42772459507389499 0 2.3691228671960749 0.4976921519274754 0 2.247229121683481 0.57147965461975947 0 2.2429924675022042 0.42772459507389499 0 2.3707808136040498 0.64248101537579039 0 2.2467020989286488 0.71318645322081209 0 2.247229121683481 0.57147965461975947 0 2.3691228671960749 0.4976921519274754 0 2.3707808136040498 0.64248101537579039 0 2.247229121683481 0.57147965461975947 0 2.4944710246124502 0.57098124216803003 0 2.3691228671960749 0.4976921519274754 0 2.3707808136040498 0.64248101537579039 0 2.3690804396265648 0.78389141510404292 0 2.4948716593059621 0.71428571428343679 0 2.3707808136040498 0.64248101537579039 0 2.3690804396265648 0.78389141510404292 0 2.3707808136040498 0.64248101537579039 0 2.2467020989286488 0.71318645322081209 0 2.2467020989286488 0.71318645322081209 0 2.1230850406616231 0.64211163998861709 0 2.120528043488306 0.78018926648583753 0 2.1230850406616231 0.64211163998861709 0 2 0.71428571428496201 0 2.120528043488306 0.78018926648583753 0 2.1230850406616231 0.64211163998861709 0 2.1231105411754938 0.50105200202130029 0 2 0.57142857142744297 0 2.2467020989286488 0.71318645322081209 0 2.1230850406616231 0.64211163998861709 0 2.247229121683481 0.57147965461975947 0 2.1230850406616231 0.64211163998861709 0 2.247229121683481 0.57147965461975947 0 2.1231105411754938 0.50105200202130029 0 2.247229121683481 0.57147965461975947 0 2.2429924675022042 0.42772459507389499 0 2.1231105411754938 0.50105200202130029 0 2.2429924675022042 0.42772459507389499 0 2.1231105411754938 0.50105200202130029 0 2.1204089262615469 0.35723491808527857 0 2.1231105411754938 0.50105200202130029 0 2 0.42857142857032021 0 2.1204089262615469 0.35723491808527857 0 2.1231105411754938 0.50105200202130029 0 2 0.42857142857032021 0 2 0.57142857142744297 0 2 0.42857142857032021 0 1.8756980763008939 0.35415439180319208 0 1.8740599863056251 0.49927531931007818 0 2 0.42857142857032021 0 2 0.57142857142744297 0 1.8740599863056251 0.49927531931007818 0 2 0.71428571428496201 0 2 0.57142857142744297 0 1.8697178032968009 0.64222861727828584 0 2 0.57142857142744297 0 1.8697178032968009 0.64222861727828584 0 1.8740599863056251 0.49927531931007818 0 2 0.71428571428496201 0 1.8697178032968009 0.64222861727828584 0 1.8744090508059921 0.78018926648514741 0 2.1230850406616231 0.64211163998861709 0 2 0.71428571428496201 0 2 0.57142857142744297 0 2.1428571428571428 0 0 2.1045786867956009 0.1045786867955279 0 2 0 0 2.1428571428571428 0 0 2.2304843984160652 0.12817051038898469 0 2.1045786867956009 0.1045786867955279 0 2.2857142857142851 0 0 2.1428571428571428 0 0 2.2304843984160652 0.12817051038898469 0 2.1045786867956009 0.1045786867955279 0 2.1165487808367178 0.2171580770020218 0 2 0.14285714285686729 0 2.2304843984160652 0.12817051038898469 0 2.1045786867956009 0.1045786867955279 0 2.1165487808367178 0.2171580770020218 0 2.2304843984160652 0.12817051038898469 0 2.1165487808367178 0.2171580770020218 0 2.239801768054869 0.28318912013054048 0 2.2429924675022042 0.42772459507389499 0 2.239801768054869 0.28318912013054048 0 2.1204089262615469 0.35723491808527857 0 2.1165487808367178 0.2171580770020218 0 2.239801768054869 0.28318912013054048 0 2.1204089262615469 0.35723491808527857 0 2.1165487808367178 0.2171580770020218 0 2.1204089262615469 0.35723491808527857 0 2 0.28571428571359381 0 2 0.42857142857032021 0 2.1204089262615469 0.35723491808527857 0 2 0.28571428571359381 0 2 0.28571428571359381 0 1.8756980763008939 0.35415439180319208 0 1.882895918749298 0.21616732492381721 0 2 0.42857142857032021 0 2 0.28571428571359381 0 1.8756980763008939 0.35415439180319208 0 2 0.28571428571359381 0 1.882895918749298 0.21616732492381721 0 2 0.14285714285686729 0 2.1165487808367178 0.2171580770020218 0 2 0.28571428571359381 0 2 0.14285714285686729 0 1.882895918749298 0.21616732492381721 0 2 0.14285714285686729 0 1.8959794242127921 0.10402057578713381 0 2 0.14285714285686729 0 1.8959794242127921 0.10402057578713381 0 2 0 0 1.8959794242127921 0.10402057578713381 0 2 0 0 1.857142857142857 0 0 2.1045786867956009 0.1045786867955279 0 2 0.14285714285686729 0 2 0 0 1.714285714285714 0 0 1.857142857142857 0 0 1.7710799917251949 0.1287341333517158 0 1.714285714285714 0 0 1.7710799917251949 0.1287341333517158 0 1.6366338798727531 0.093464308857799619 0 1.8959794242127921 0.10402057578713381 0 1.857142857142857 0 0 1.7710799917251949 0.1287341333517158 0 1.882895918749298 0.21616732492381721 0 1.8959794242127921 0.10402057578713381 0 1.7710799917251949 0.1287341333517158 0 1.7710799917251949 0.1287341333517158 0 1.7546180202569051 0.28152342003040048 0 1.6281978226174321 0.21204462330902529 0 1.882895918749298 0.21616732492381721 0 1.7710799917251949 0.1287341333517158 0 1.7546180202569051 0.28152342003040048 0 1.8756980763008939 0.35415439180319208 0 1.882895918749298 0.21616732492381721 0 1.7546180202569051 0.28152342003040048 0 1.8756980763008939 0.35415439180319208 0 1.7546180202569051 0.28152342003040048 0 1.752171560420509 0.42857142856854807 0 1.7546180202569051 0.28152342003040048 0 1.620173464197844 0.35661818314175942 0 1.752171560420509 0.42857142856854807 0 1.7546180202569051 0.28152342003040048 0 1.620173464197844 0.35661818314175942 0 1.6281978226174321 0.21204462330902529 0 1.493210541712801 0.42593700932760992 0 1.4945915486603041 0.278046120036475 0 1.620173464197844 0.35661818314175942 0 1.4945915486603041 0.278046120036475 0 1.620173464197844 0.35661818314175942 0 1.6281978226174321 0.21204462330902529 0 1.4945915486603041 0.278046120036475 0 1.4981772993068541 0.1265427876282571 0 1.6281978226174321 0.21204462330902529 0 1.7710799917251949 0.1287341333517158 0 1.6281978226174321 0.21204462330902529 0 1.6366338798727531 0.093464308857799619 0 1.4981772993068541 0.1265427876282571 0 1.6281978226174321 0.21204462330902529 0 1.6366338798727531 0.093464308857799619 0 1.4981772993068541 0.1265427876282571 0 1.571428571428571 0 0 1.6366338798727531 0.093464308857799619 0 1.714285714285714 0 0 1.571428571428571 0 0 1.6366338798727531 0.093464308857799619 0 1.744657680515606 0.57126208756431485 0 1.744186890149763 0.71331043726850496 0 1.618739532771454 0.64269698385324336 0 1.744186890149763 0.71331043726850496 0 1.8697178032968009 0.64222861727828584 0 1.8744090508059921 0.78018926648514741 0 1.744657680515606 0.57126208756431485 0 1.744186890149763 0.71331043726850496 0 1.8697178032968009 0.64222861727828584 0 1.744657680515606 0.57126208756431485 0 1.8697178032968009 0.64222861727828584 0 1.8740599863056251 0.49927531931007818 0 1.744657680515606 0.57126208756431485 0 1.8740599863056251 0.49927531931007818 0 1.752171560420509 0.42857142856854807 0 1.8756980763008939 0.35415439180319208 0 1.8740599863056251 0.49927531931007818 0 1.752171560420509 0.42857142856854807 0 1.744657680515606 0.57126208756431485 0 1.752171560420509 0.42857142856854807 0 1.619889960661181 0.49948637524748901 0 1.620173464197844 0.35661818314175942 0 1.752171560420509 0.42857142856854807 0 1.619889960661181 0.49948637524748901 0 1.493210541712801 0.42593700932760992 0 1.620173464197844 0.35661818314175942 0 1.619889960661181 0.49948637524748901 0 1.49447102461245 0.57098124216803303 0 1.493210541712801 0.42593700932760992 0 1.619889960661181 0.49948637524748901 0 1.49447102461245 0.57098124216803303 0 1.619889960661181 0.49948637524748901 0 1.618739532771454 0.64269698385324336 0 1.49447102461245 0.57098124216803303 0 1.4948716593059641 0.71428571428344279 0 1.618739532771454 0.64269698385324336 0 1.744657680515606 0.57126208756431485 0 1.619889960661181 0.49948637524748901 0 1.618739532771454 0.64269698385324336 0 1.744186890149763 0.71331043726850496 0 1.618739532771454 0.64269698385324336 0 1.618589574132369 0.78571428571188717 0 1.4948716593059641 0.71428571428344279 0 1.618739532771454 0.64269698385324336 0 1.618589574132369 0.78571428571188717 0 1.4948716593059641 0.71428571428344279 0 1.497549379121643 0.87194859075748521 0 1.618589574132369 0.78571428571188717 0 1.497549379121643 0.87194859075748521 0 1.6328924043665081 0.90513610409542489 0 1.618589574132369 0.78571428571188717 0 1.497549379121643 0.87194859075748521 0 1.6328924043665081 0.90513610409542489 0 1.571428571428571 1 0 1.6328924043665081 0.90513610409542489 0 1.618589574132369 0.78571428571188717 0 1.7626087828642421 0.86801764400775128 0 1.744186890149763 0.71331043726850496 0 1.618589574132369 0.78571428571188717 0 1.7626087828642421 0.86801764400775128 0 1.6328924043665081 0.90513610409542489 0 1.7626087828642421 0.86801764400775128 0 1.714285714285714 1 0 1.7626087828642421 0.86801764400775128 0 1.857142857142857 1 0 1.895421313204209 0.89542131320410689 0 1.7626087828642421 0.86801764400775128 0 1.8744090508059921 0.78018926648514741 0 1.895421313204209 0.89542131320410689 0 1.744186890149763 0.71331043726850496 0 1.7626087828642421 0.86801764400775128 0 1.8744090508059921 0.78018926648514741 0 1.857142857142857 1 0 1.780189266486452 1.1255909491945031 0 1.895421313204446 1.104578686795554 0 1.857142857142857 1 0 1.714285714285714 1 0 1.780189266486452 1.1255909491945031 0 1.7626087828642421 0.86801764400775128 0 1.857142857142857 1 0 1.714285714285714 1 0 1.714285714285714 1 0 1.6422816724703979 1.1304620449693199 0 1.780189266486452 1.1255909491945031 0 1.714285714285714 1 0 1.571428571428571 1 0 1.6422816724703979 1.1304620449693199 0 1.6328924043665081 0.90513610409542489 0 1.714285714285714 1 0 1.571428571428571 1 0 1.499999999999998 1.1271398115696349 0 1.571428571428571 1 0 1.6422816724703979 1.1304620449693199 0 1.499999999999998 1.1271398115696349 0 1.571152652531757 1.256105255633247 0 1.6422816724703979 1.1304620449693199 0 1.571152652531757 1.256105255633247 0 1.6428585192410321 1.381411220523866 0 1.713319120662252 1.255965391424904 0 1.571152652531757 1.256105255633247 0 1.6422816724703979 1.1304620449693199 0 1.713319120662252 1.255965391424904 0 1.4999999999999949 1.3814104258682569 0 1.42857911129607 1.505132776317748 0 1.5714368297319321 1.505133108628274 0 1.4999999999999949 1.3814104258682569 0 1.5714368297319321 1.505133108628274 0 1.6428585192410321 1.381411220523866 0 1.4999999999999949 1.3814104258682569 0 1.571152652531757 1.256105255633247 0 1.6428585192410321 1.381411220523866 0 1.5714368297319321 1.505133108628274 0 1.7164690164522749 1.505013992076764 0 1.6428585192410321 1.381411220523866 0 1.7164690164522749 1.505013992076764 0 1.6428585192410321 1.381411220523866 0 1.785714285714282 1.38141042586825 0 1.6428585192410321 1.381411220523866 0 1.785714285714282 1.38141042586825 0 1.713319120662252 1.255965391424904 0 1.785714285714282 1.38141042586825 0 1.8680188844933181 1.2374129716465909 0 1.9051363521932001 1.367111946535875 0 1.871948590758401 1.50245062087882 0 1.785714285714282 1.38141042586825 0 1.9051363521932001 1.367111946535875 0 1.7164690164522749 1.505013992076764 0 1.871948590758401 1.50245062087882 0 1.785714285714282 1.38141042586825 0 1.6422816724703979 1.1304620449693199 0 1.780189266486452 1.1255909491945031 0 1.713319120662252 1.255965391424904 0 1.785714285714282 1.38141042586825 0 1.713319120662252 1.255965391424904 0 1.8680188844933181 1.2374129716465909 0 1.780189266486452 1.1255909491945031 0 1.713319120662252 1.255965391424904 0 1.8680188844933181 1.2374129716465909 0 1.780189266486452 1.1255909491945031 0 1.8680188844933181 1.2374129716465909 0 1.895421313204446 1.104578686795554 0 1.8680188844933181 1.2374129716465909 0 2 1.142857142857143 0 1.895421313204446 1.104578686795554 0 1.8680188844933181 1.2374129716465909 0 2 1.2857142857142849 0 1.9051363521932001 1.367111946535875 0 1.8680188844933181 1.2374129716465909 0 2 1.2857142857142849 0 2 1.142857142857143 0 2 1.2857142857142849 0 2 1.142857142857143 0 2.1319792929118409 1.2374367896472369 0 1.871948590758401 1.50245062087882 0 1.9051363521932001 1.367111946535875 0 2 1.4285714285714279 0 2 1.2857142857142849 0 1.9051363521932001 1.367111946535875 0 2 1.4285714285714279 0 2 1.2857142857142849 0 2 1.4285714285714279 0 2.0946158322405029 1.367237727885342 0 2.1268141540049612 1.5030557096254999 0 2.0946158322405029 1.367237727885342 0 2.214285714285714 1.3814104258682629 0 2.1268141540049612 1.5030557096254999 0 2 1.4285714285714279 0 2.0946158322405029 1.367237727885342 0 2.0946158322405029 1.367237727885342 0 2.214285714285714 1.3814104258682629 0 2.1319792929118409 1.2374367896472369 0 2.1268141540049612 1.5030557096254999 0 2.2857142857142878 1.505128340694611 0 2.214285714285714 1.3814104258682629 0 2 1.142857142857143 0 2.1319792929118409 1.2374367896472369 0 2.1045786867955538 1.1045786867955549 0 2.1319792929118409 1.2374367896472369 0 2.2198107335135431 1.1256563841824909 0 2.1045786867955538 1.1045786867955549 0 2 1.2857142857142849 0 2.0946158322405029 1.367237727885342 0 2.1319792929118409 1.2374367896472369 0 2.2866681211738742 1.256066682441406 0 2.214285714285714 1.3814104258682629 0 2.1319792929118409 1.2374367896472369 0 2.2866681211738742 1.256066682441406 0 2.1319792929118409 1.2374367896472369 0 2.2198107335135431 1.1256563841824909 0 2.2857142857142851 1 0 2.2198107335135431 1.1256563841824909 0 2.1428571428571428 1 0 2.1045786867955538 1.1045786867955549 0 2.1428571428571428 1 0 2 1 0 2.2198107335135431 1.1256563841824909 0 2.1045786867955538 1.1045786867955549 0 2.1428571428571428 1 0 2.1428571428571428 1 0 2.1045786867957932 0.89542131320410567 0 2 1 0 2.2857142857142851 1 0 2.1428571428571428 1 0 2.2323719363650798 0.86814175826561746 0 2.1428571428571428 1 0 2.2323719363650798 0.86814175826561746 0 2.1045786867957932 0.89542131320410567 0 2.2467020989286488 0.71318645322081209 0 2.2323719363650798 0.86814175826561746 0 2.120528043488306 0.78018926648583753 0 2.2323719363650798 0.86814175826561746 0 2.120528043488306 0.78018926648583753 0 2.1045786867957932 0.89542131320410567 0 2.120528043488306 0.78018926648583753 0 2.1045786867957932 0.89542131320410567 0 2 0.85714285714248095 0 2.1045786867957932 0.89542131320410567 0 2 0.85714285714248095 0 2 1 0 2 0.71428571428496201 0 2.120528043488306 0.78018926648583753 0 2 0.85714285714248095 0 2 0.71428571428496201 0 1.8744090508059921 0.78018926648514741 0 2 0.85714285714248095 0 1.8744090508059921 0.78018926648514741 0 2 0.85714285714248095 0 1.895421313204209 0.89542131320410689 0 2 0.85714285714248095 0 1.895421313204209 0.89542131320410689 0 2 1 0 1.857142857142857 1 0 1.895421313204209 0.89542131320410689 0 2 1 0 2 1.142857142857143 0 1.895421313204446 1.104578686795554 0 2 1 0 1.857142857142857 1 0 1.895421313204446 1.104578686795554 0 2 1 0 2 1.142857142857143 0 2.1045786867955538 1.1045786867955549 0 2 1 0 
</DataArray>
</Points>
<Cells>
<DataArray type="UInt32" Name="connectivity" format="ascii">
0 1 2 3 4 5 6 7 8 9 10 11 12 13 14 15 16 17 18 19 20 21 22 23 24 25 26 27 28 29 30 31 32 33 34 35 36 37 38 39 40 41 42 43 44 45 46 47 48 49 50 51 52 53 54 55 56 57 58 59 60 61 62 63 64 65 66 67 68 69 70 71 72 73 74 75 76 77 78 79 80 81 82 83 84 85 86 87 88 89 90 91 92 93 94 95 96 97 98 99 100 101 102 103 104 105 106 107 108 109 110 111 112 113 114 115 116 117 118 119 120 121 122 123 124 125 126 127 128 129 130 131 132 133 134 135 136 137 138 139 140 141 142 143 144 145 146 147 148 149 150 151 152 153 154 155 156 157 158 159 160 161 162 163 164 165 166 167 168 169 170 171 172 173 174 175 176 177 178 179 180 181 182 183 184 185 186 187 188 189 190 191 192 193 194 195 196 197 198 199 200 201 202 203 204 205 206 207 208 209 210 211 212 213 214 215 216 217 218 219 220 221 222 223 224 225 226 227 228 229 230 231 232 233 234 235 236 237 238 239 240 241 242 243 244 245 246 247 248 249 250 251 252 253 254 255 256 257 258 259 260 261 262 263 264 265 266 267 268 269 270 271 272 273 274 275 276 277 278 279 280 281 282 283 284 285 286 287 288 289 290 291 292 293 294 295 296 297 298 299 300 301 302 303 304 305 306 307 308 309 310 311 312 313 314 315 316 317 318 319 320 321 322 323 324 325 326 327 328 329 330 331 332 333 334 335 336 337 338 339 340 341 342 343 344 345 346 347 348 349 350 351 352 353 354 355 356 357 358 359 360 361 362 363 364 365 366 367 368 369 370 371 372 373 374 375 376 377 378 379 380 381 382 383 384 385 386 387 388 389 390 391 392 393 394 395 396 397 398 399 400 401 402 403 404 405 406 407 408 409 410 411 412 413 414 415 416 417 418 419 420 421 422 423 424 425 426 427 428 429 430 431 432 433 434 435 436 437 438 439 440 441 442 443 444 445 446 447 448 449 450 451 452 453 454 455 456 457 458 459 460 461 462 463 464 465 466 467 468 469 470 471 472 473 474 475 476 477 478 479 480 481 482 483 484 485 486 487 488 489 490 491 492 493 494 495 496 497 498 499 500 501 502 503 504 505 506 507 508 509 510 511 512 513 514 515 516 517 518 519 520 521 522 523 524 525 526 527 528 529 530 531 532 533 534 535 536 537 538 539 540 541 542 543 544 545 546 547 548 549 550 551 552 553 554 555 556 557 558 559 560 561 562 563 564 565 566 567 568 569 570 571 572 573 574 575 576 577 578 579 580 581 582 583 584 585 586 587 588 589 590 591 592 593 594 595 596 597 598 599 600 601 602 603 604 605 606 607 608 609 610 611 612 613 614 615 616 617 618 619 620 621 622 623 624 625 626 627 628 629 630 631 632 633 634 635 636 637 638 639 640 641 642 643 644 645 646 647 648 649 650 651 652 653 654 655 656 657 658 659 660 661 662 663 664 665 666 667 668 669 670 671 672 673 674 675 676 677 678 679 680 681 682 683 684 685 686 687 688 689 690 691 692 693 694 695 696 697 698 699 700 701 702 703 704 705 706 707 708 709 710 711 712 713 714 715 716 717 718 719 720 721 722 723 724 725 726 727 728 729 730 731 732 733 734 735 736 737 738 739 740 741 742 743 744 745 746 747 748 749 750 751 752 753 754 755 756 757 758 759 760 761 762 763 764 765 766 767 768 769 770 771 772 773 774 775 776 777 778 779 780 781 782 783 784 785 786 787 788 789 790 791 792 793 794 795 796 797 798 799 800 801 802 803 804 805 806 807 808 809 810 811 812 813 814 815 816 817 818 819 820 821 822 823 824 825 826 827 828 829 830 831 832 833 834 835 836 837 838 839 840 841 842 843 844 845 846 847 848 849 850 851 852 853 854 855 856 857 858 859 860 861 862 863 864 865 866 867 868 869 870 871 872 873 874 875 876 877 878 879 880 881 882 883 884 885 886 887 888 889 890 891 892 893 894 895 896 897 898 899 900 901 902 903 904 905 906 907 908 909 910 911 912 913 914 915 916 917 918 919 920 921 922 923 924 925 926 927 928 929 930 931 932 933 934 935 936 937 938 939 940 941 942 943 944 945 946 947 948 949 950 951 952 953 954 955 956 957 958 959 960 961 962 963 964 965 966 967 968 969 970 971 972 973 974 975 976 977 978 979 980 981 982 983 984 985 986 987 988 989 990 991 992 993 994 995 996 997 998 999 1000 1001 1002 1003 1004 1005 1006 1007 1008 1009 1010 1011 1012 1013 1014 1015 1016 1017 1018 1019 1020 1021 1022 1023 1024 1025 1026 1027 1028 1029 1030 1031 1032 1033 1034 1035 1036 1037 1038 1039 1040 1041 1042 1043 1044 1045 1046 1047 1048 1049 1050 1051 1052 1053 1054 1055 1056 1057 1058 1059 1060 1061 1062 1063 1064 1065 1066 1067 1068 1069 1070 1071 1072 1073 1074 1075 1076 1077 1078 1079 1080 1081 1082 1083 1084 1085 1086 1087 1088 1089 1090 1091 1092 1093 1094 1095 1096 1097 1098 1099 1100 1101 1102 1103 1104 1105 1106 1107 1108 1109 1110 1111 1112 1113 1114 1115 1116 1117 1118 1119 1120 1121 1122 1123 1124 1125 1126 1127 1128 1129 1130 1131 1132 1133 1134 1135 1136 1137 1138 1139 1140 1141 1142 1143 1144 1145 1146 1147 1148 1149 1150 1151 1152 1153 1154 1155 1156 1157 1158 1159 1160 1161 1162 1163 1164 1165 1166 1167 1168 1169 1170 1171 1172 1173 1174 1175 1176 1177 1178 1179 1180 1181 1182 1183 1184 1185 1186 1187 1188 1189 1190 1191 1192 1193 1194 1195 1196 1197 1198 1199 1200 1201 1202 1203 1204 1205 1206 1207 1208 1209 1210 1211 1212 1213 1214 1215 1216 1217 1218 1219 1220 1221 1222 1223 1224 1225 1226 1227 1228 1229 1230 1231 1232 1233 1234 1235 1236 1237 1238 1239 1240 1241 1242 1243 1244 1245 1246 1247 1248 1249 1250 1251 1252 1253 1254 1255 1256 1257 1258 1259 1260 1261 1262 1263 1264 1265 1266 1267 1268 1269 1270 1271 1272 1273 1274 1275 1276 1277 1278 1279 1280 1281 1282 1283 1284 1285 1286 1287 1288 1289 1290 1291 1292 1293 1294 1295 1296 1297 1298 1299 1300 1301 1302 1303 1304 1305 1306 1307 1308 1309 1310 1311 1312 1313 1314 1315 1316 1317 1318 1319 1320 1321 1322 1323 1324 1325 1326 1327 1328 1329 1330 1331 1332 1333 1334 1335 1336 1337 1338 1339 1340 1341 1342 1343 1344 1345 1346 1347 1348 1349 1350 1351 1352 1353 1354 1355 1356 1357 1358 1359 1360 1361 1362 1363 1364 1365 1366 1367 1368 1369 1370 1371 1372 1373 1374 1375 1376 1377 1378 1379 1380 1381 1382 1383 1384 1385 1386 1387 1388 1389 1390 1391 1392 1393 1394 1395 1396 1397 1398 1399 1400 1401 1402 1403 1404 1405 1406 1407 1408 1409 1410 1411 1412 1413 1414 1415 1416 1417 1418 1419 1420 1421 1422 1423 1424 1425 1426 1427 1428 1429 1430 1431 1432 1433 1434 1435 1436 1437 1438 1439 1440 1441 1442 1443 1444 1445 1446 1447 1448 1449 1450 1451 1452 1453 1454 1455 1456 1457 1458 1459 1460 1461 1462 1463 1464 1465 1466 1467 1468 1469 1470 1471 1472 1473 1474 1475 1476 1477 1478 1479 1480 1481 1482 1483 1484 1485 1486 1487 1488 1489 1490 1491 1492 1493 1494 1495 1496 1497 1498 1499 1500 1501 1502 1503 1504 1505 1506 1507 1508 1509 1510 1511 1512 1513 1514 1515 1516 1517 1518 1519 1520 1521 1522 1523 1524 1525 1526 1527 1528 1529 1530 1531 1532 1533 1534 1535 1536 1537 1538 1539 1540 1541 1542 1543 1544 1545 1546 1547 1548 1549 1550 1551 1552 1553 1554 1555 1556 1557 1558 1559 1560 1561 1562 1563 1564 1565 1566 1567 1568 1569 1570 1571 1572 1573 1574 1575 1576 1577 1578 1579 1580 1581 1582 1583 1584 1585 1586 1587 1588 1589 1590 1591 1592 1593 1594 1595 1596 1597 1598 1599 1600 1601 1602 1603 1604 1605 1606 1607 1608 1609 1610 1611 1612 1613 1614 1615 1616 1617 1618 1619 1620 1621 1622 1623 1624 1625 1626 1627 1628 1629 1630 1631 1632 1633 1634 1635 1636 1637 1638 1639 1640 1641 1642 1643 1644 1645 1646 1647 1648 1649 1650 1651 1652 1653 1654 1655 1656 1657 1658 1659 1660 1661 1662 1663 1664 1665 1666 1667 1668 1669 1670 1671 1672 1673 1674 1675 1676 1677 1678 1679 1680 1681 1682 1683 1684 1685 1686 1687 1688 1689 1690 1691 1692 1693 1694 1695 1696 1697 1698 1699 1700 1701 1702 1703 1704 1705 1706 1707 1708 1709 1710 1711 1712 1713 1714 1715 1716 1717 1718 1719 1720 1721 1722 1723 1724 1725 1726 1727 1728 1729 1730 1731 1732 1733 1734 1735 1736 1737 1738 1739 1740 1741 1742 1743 1744 1745 1746 1747 1748 1749 1750 1751 1752 1753 1754 1755 1756 1757 1758 1759 1760 1761 1762 1763 1764 1765 1766 1767 1768 1769 1770 1771 1772 1773 1774 1775 1776 1777 1778 1779 1780 1781 1782 1783 1784 1785 1786 1787 1788 1789 1790 1791 1792 1793 1794 1795 1796 1797 1798 1799 1800 1801 1802 1803 1804 1805 1806 1807 1808 1809 1810 1811 1812 1813 1814 1815 1816 1817 1818 1819 1820 1821 1822 1823 1824 1825 1826 1827 1828 1829 1830 1831 1832 1833 1834 1835 1836 1837 1838 1839 1840 1841 1842 1843 1844 1845 1846 1847 1848 1849 1850 1851 1852 1853 1854 1855 1856 1857 1858 1859 1860 1861 1862 1863 1864 1865 1866 1867 1868 1869 1870 1871 1872 1873 1874 1875 1876 1877 1878 1879 1880 1881 1882 1883 1884 1885 1886 1887 1888 1889 1890 1891 1892 1893 1894 1895 1896 1897 1898 1899 1900 1901 1902 1903 1904 1905 1906 1907 1908 1909 1910 1911 1912 1913 1914 1915 1916 1917 1918 1919 1920 1921 1922 1923 1924 1925 1926 1927 1928 1929 1930 1931 1932 1933 1934 1935 1936 1937 1938 1939 1940 1941 1942 1943 1944 1945 1946 1947 1948 1949 1950 1951 1952 1953 1954 1955 1956 1957 1958 1959 1960 1961 1962 1963 1964 1965 1966 1967 1968 1969 1970 1971 1972 1973 1974 1975 1976 1977 1978 1979 1980 1981 1982 1983 1984 1985 1986 1987 1988 1989 1990 1991 1992 1993 1994 1995 1996 1997 1998 1999 2000 2001 2002 2003 2004 2005 2006 2007 2008 2009 2010 2011 2012 2013 2014 2015 2016 2017 2018 2019 2020 2021 2022 2023 2024 2025 2026 2027 2028 2029 2030 2031 2032 2033 2034 2035 2036 2037 2038 2039 2040 2041 2042 2043 2044 2045 2046 2047 2048 2049 2050 2051 2052 2053 2054 2055 2056 2057 2058 2059 2060 2061 2062 2063 2064 2065 2066 2067 2068 2069 2070 2071 2072 2073 2074 2075 2076 2077 2078 2079 2080 2081 2082 2083 2084 2085 2086 2087 2088 2089 2090 2091 2092 2093 2094 2095 2096 2097 2098 2099 2100 2101 2102 2103 2104 2105 2106 2107 2108 2109 2110 2111 2112 2113 2114 2115 2116 2117 2118 2119 2120 2121 2122 2123 2124 2125 2126 2127 2128 2129 2130 2131 2132 2133 2134 2135 2136 2137 2138 2139 2140 2141 2142 2143 2144 2145 2146 2147 2148 2149 2150 2151 2152 2153 2154 2155 2156 2157 2158 2159 2160 2161 2162 2163 2164 2165 2166 2167 2168 2169 2170 2171 2172 2173 2174 2175 2176 2177 2178 2179 2180 2181 2182 2183 2184 2185 2186 2187 2188 2189 2190 2191 2192 2193 2194 2195 2196 2197 2198 2199 2200 2201 2202 2203 2204 2205 2206 2207 2208 2209 2210 2211 2212 2213 2214 2215 2216 2217 2218 2219 2220 2221 2222 2223 2224 2225 2226 2227 2228 2229 2230 2231 2232 2233 2234 2235 2236 2237 2238 2239 2240 2241 2242 2243 2244 2245 2246 2247 2248 2249 2250 2251 2252 2253 2254 2255 2256 2257 2258 2259 2260 2261 2262 2263 2264 2265 2266 2267 2268 2269 2270 2271 2272 2273 2274 2275 2276 2277 2278 2279 2280 2281 2282 2283 2284 2285 2286 2287 2288 2289 2290 2291 2292 2293 2294 2295 2296 2297 2298 2299 2300 2301 2302 2303 2304 2305 2306 2307 2308 2309 2310 2311 2312 2313 2314 2315 2316 2317 2318 2319 2320 2321 2322 2323 2324 2325 2326 2327 2328 2329 2330 2331 2332 2333 2334 2335 2336 2337 2338 2339 2340 2341 2342 2343 2344 2345 2346 2347 2348 2349 2350 2351 2352 2353 2354 2355 2356 2357 2358 2359 2360 2361 2362 2363 2364 2365 2366 2367 2368 2369 2370 2371 2372 2373 2374 2375 2376 2377 2378 2379 2380 2381 2382 2383 2384 2385 2386 2387 2388 2389 2390 2391 2392 2393 2394 2395 2396 2397 2398 2399 2400 2401 2402 2403 2404 2405 2406 2407 2408 2409 2410 2411 2412 2413 2414 2415 2416 2417 2418 2419 2420 2421 2422 2423 2424 2425 2426 2427 2428 2429 2430 2431 2432 2433 2434 2435 2436 2437 2438 2439 2440 2441 2442 2443 2444 2445 2446 2447 2448 2449 2450 2451 2452 2453 2454 2455 2456 2457 2458 2459 2460 2461 2462 2463 2464 2465 2466 2467 2468 2469 2470 2471 2472 2473 2474 2475 2476 2477 2478 2479 2480 2481 2482 2483 2484 2485 2486 2487 2488 2489 2490 2491 2492 2493 2494 2495 2496 2497 2498 2499 2500 2501 2502 2503 2504 2505 2506 2507 2508 2509 2510 2511 2512 2513 2514 2515 2516 2517 2518 2519 2520 2521 2522 2523 2524 2525 2526 2527 2528 2529 2530 2531 2532 2533 2534 2535 2536 2537 2538 2539 2540 2541 2542 2543 2544 2545 2546 2547 2548 2549 2550 2551 2552 2553 2554 2555 2556 2557 2558 2559 2560 2561 2562 2563 2564 2565 2566 2567 2568 2569 2570 2571 2572 2573 2574 2575 2576 2577 2578 2579 2580 2581 2582 2583 2584 2585 2586 2587 2588 2589 2590 2591 2592 2593 2594 2595 2596 2597 2598 2599 2600 2601 2602 2603 2604 2605 2606 2607 2608 2609 2610 2611 2612 2613 2614 2615 2616 2617 2618 2619 2620 2621 2622 2623 2624 2625 2626 2627 2628 2629 2630 2631 2632 2633 2634 2635 2636 2637 2638 2639 2640 2641 2642 2643 2644 2645 2646 2647 2648 2649 2650 2651 2652 2653 2654 2655 2656 2657 2658 2659 2660 2661 2662 2663 2664 2665 2666 2667 2668 2669 2670 2671 2672 2673 2674 2675 2676 2677 2678 2679 2680 2681 2682 2683 2684 2685 2686 2687 2688 2689 2690 2691 2692 2693 2694 2695 2696 2697 2698 2699 2700 2701 2702 2703 2704 2705 2706 2707 2708 2709 2710 2711 2712 2713 2714 2715 2716 2717 2718 2719 2720 2721 2722 2723 2724 2725 2726 2727 2728 2729 2730 2731 2732 2733 2734 2735 2736 2737 2738 2739 2740 2741 2742 2743 2744 2745 2746 2747 2748 2749 2750 2751 2752 2753 2754 2755 2756 2757 2758 2759 2760 2761 2762 2763 2764 2765 2766 2767 2768 2769 2770 2771 2772 2773 2774 2775 2776 2777 2778 2779 2780 2781 2782 2783 2784 2785 2786 2787 2788 2789 2790 2791 2792 2793 2794 2795 2796 2797 2798 2799 2800 2801 2802 2803 2804 2805 2806 2807 2808 2809 2810 2811 2812 2813 2814 2815 2816 2817 2818 2819 2820 2821 2822 2823 2824 2825 2826 2827 2828 2829 2830 2831 2832 2833 2834 2835 2836 2837 2838 2839 2840 2841 2842 2843 2844 2845 2846 2847 2848 2849 2850 2851 2852 2853 2854 2855 2856 2857 2858 2859 2860 2861 2862 2863 2864 2865 2866 2867 2868 2869 2870 2871 2872 2873 2874 2875 2876 2877 2878 2879 2880 2881 2882 2883 2884 2885 2886 2887 2888 2889 2890 2891 2892 2893 2894 2895 2896 2897 2898 2899 2900 2901 2902 2903 2904 2905 2906 2907 2908 2909 2910 2911 2912 2913 2914 2915 2916 2917 2918 2919 2920 2921 2922 2923 2924 2925 2926 2927 2928 2929 2930 2931 2932 2933 2934 2935 2936 2937 2938 2939 2940 2941 2942 2943 2944 2945 2946 2947 2948 2949 2950 2951 2952 2953 2954 2955 2956 2957 2958 2959 2960 2961 2962 2963 2964 2965 2966 2967 2968 2969 2970 2971 2972 2973 2974 2975 2976 2977 2978 2979 2980 2981 2982 2983 2984 2985 2986 2987 2988 2989 2990 2991 2992 2993 2994 2995 2996 2997 2998 2999 3000 3001 3002 3003 3004 3005 3006 3007 3008 3009 3010 3011 3012 3013 3014 3015 3016 3017 3018 3019 3020 3021 3022 3023 3024 3025 3026 3027 3028 3029 3030 3031 3032 3033 3034 3035 3036 3037 3038 3039 3040 3041 3042 3043 3044 3045 3046 3047 3048 3049 3050 3051 3052 3053 3054 3055 3056 3057 3058 3059 3060 3061 3062 3063 3064 3065 3066 3067 3068 3069 3070 3071 3072 3073 3074 3075 3076 3077 3078 3079 3080 3081 3082 3083 3084 3085 3086 3087 3088 3089 3090 3091 3092 3093 3094 3095 3096 3097 3098 3099 3100 3101 3102 3103 3104 3105 3106 3107 3108 3109 3110 3111 3112 3113 3114 3115 3116 3117 3118 3119 3120 3121 3122 3123 3124 3125 3126 3127 3128 3129 3130 3131 3132 3133 3134 3135 3136 3137 3138 3139 3140 3141 3142 3143 3144 3145 3146 3147 3148 3149 3150 3151 3152 3153 3154 3155 3156 3157 3158 3159 3160 3161 3162 3163 3164 3165 3166 3167 3168 3169 3170 3171 3172 3173 3174 3175 3176 3177 3178 3179 3180 3181 3182 3183 3184 3185 
</DataArray>
<DataArray type="UInt32" Name="offsets" format="ascii">
3 6 9 12 15 18 21 24 27 30 33 36 39 42 45 48 51 54 57 60 63 66 69 72 75 78 81 84 87 90 93 96 99 102 105 108 111 114 117 120 123 126 129 132 135 138 141 144 147 150 153 156 159 162 165 168 171 174 177 180 183 186 189 192 195 198 201 204 207 210 213 216 219 222 225 228 231 234 237 240 243 246 249 252 255 258 261 264 267 270 273 276 279 282 285 288 291 294 297 300 303 306 309 312 315 318 321 324 327 330 333 336 339 342 345 348 351 354 357 360 363 366 369 372 375 378 381 384 387 390 393 396 399 402 405 408 411 414 417 420 423 426 429 432 435 438 441 444 447 450 453 456 459 462 465 468 471 474 477 480 483 486 489 492 495 498 501 504 507 510 513 516 519 522 525 528 531 534 537 540 543 546 549 552 555 558 561 564 567 570 573 576 579 582 585 588 591 594 597 600 603 606 609 612 615 618 621 624 627 630 633 636 639 642 645 648 651 654 657 660 663 666 669 672 675 678 681 684 687 690 693 696 699 702 705 708 711 714 717 720 723 726 729 732 735 738 741 744 747 750 753 756 759 762 765 768 771 774 777 780 783 786 789 792 795 798 801 804 807 810 813 816 819 822 825 828 831 834 837 840 843 846 849 852 855 858 861 864 867 870 873 876 879 882 885 888 891 894 897 900 903 906 909 912 915 918 921 924 927 930 933 936 939 942 945 948 951 954 957 960 963 966 969 972 975 978 981 984 987 990 993 996 999 1002 1005 1008 1011 1014 1017 1020 1023 1026 1029 1032 1035 1038 1041 1044 1047 1050 1053 1056 1059 1062 1065 1068 1071 1074 1077 1080 1083 1086 1089 1092 1095 1098 1101 1104 1107 1110 1113 1116 1119 1122 1125 1128 1131 1134 1137 1140 1143 1146 1149 1152 1155 1158 1161 1164 1167 1170 1173 1176 1179 1182 1185 1188 1191 1194 1197 1200 1203 1206 1209 1212 1215 1218 1221 1224 1227 1230 1233 1236 1239 1242 1245 1248 1251 1254 1257 1260 1263 1266 1269 1272 1275 1278 1281 1284 1287 1290 1293 1296 1299 1302 1305 1308 1311 1314 1317 1320 1323 1326 1329 1332 1335 1338 1341 1344 1347 1350 1353 1356 1359 1362 1365 1368 1371 1374 1377 1380 1383 1386 1389 1392 1395 1398 1401 1404 1407 1410 1413 1416 1419 1422 1425 1428 1431 1434 1437 1440 1443 1446 1449 1452 1455 1458 1461 1464 1467 1470 1473 1476 1479 1482 1485 1488 1491 1494 1497 1500 1503 1506 1509 1512 1515 1518 1521 1524 1527 1530 1533 1536 1539 1542 1545 1548 1551 1554 1557 1560 1563 1566 1569 1572 1575 1578 1581 1584 1587 1590 1593 1596 1599 1602 1605 1608 1611 1614 1617 1620 1623 1626 1629 1632 1635 1638 1641 1644 1647 1650 1653 1656 1659 1662 1665 1668 1671 1674 1677 1680 1683 1686 1689 1692 1695 1698 1701 1704 1707 1710 1713 1716 1719 1722 1725 1728 1731 1734 1737 1740 1743 1746 1749 1752 1755 1758 1761 1764 1767 1770 1773 1776 1779 1782 1785 1788 1791 1794 1797 1800 1803 1806 1809 1812 1815 1818 1821 1824 1827 1830 1833 1836 1839 1842 1845 1848 1851 1854 1857 1860 1863 1866 1869 1872 1875 1878 1881 1884 1887 1890 1893 1896 1899 1902 1905 1908 1911 1914 1917 1920 1923 1926 1929 1932 1935 1938 1941 1944 1947 1950 1953 1956 1959 1962 1965 1968 1971 1974 1977 1980 1983 1986 1989 1992 1995 1998 2001 2004 2007 2010 2013 2016 2019 2022 2025 2028 2031 2034 2037 2040 2043 2046 2049 2052 2055 2058 2061 2064 2067 2070 2073 2076 2079 2082 2085 2088 2091 2094 2097 2100 2103 2106 2109 2112 2115 2118 2121 2124 2127 2130 2133 2136 2139 2142 2145 2148 2151 2154 2157 2160 2163 2166 2169 2172 2175 2178 2181 2184 2187 2190 2193 2196 2199 2202 2205 2208 2211 2214 2217 2220 2223 2226 2229 2232 2235 2238 2241 2244 2247 2250 2253 2256 2259 2262 2265 2268 2271 2274 2277 2280 2283 2286 2289 2292 2295 2298 2301 2304 2307 2310 2313 2316 2319 2322 2325 2328 2331 2334 2337 2340 2343 2346 2349 2352 2355 2358 2361 2364 2367 2370 2373 2376 2379 2382 2385 2388 2391 2394 2397 2400 2403 2406 2409 2412 2415 2418 2421 2424 2427 2430 2433 2436 2439 2442 2445 2448 2451 2454 2457 2460 2463 2466 2469 2472 2475 2478 2481 2484 2487 2490 2493 2496 2499 2502 2505 2508 2511 2514 2517 2520 2523 2526 2529 2532 2535 2538 2541 2544 2547 2550 2553 2556 2559 2562 2565 2568 2571 2574 2577 2580 2583 2586 2589 2592 2595 2598 2601 2604 2607 2610 2613 2616 2619 2622 2625 2628 2631 2634 2637 2640 2643 2646 2649 2652 2655 2658 2661 2664 2667 2670 2673 2676 2679 2682 2685 2688 2691 2694 2697 2700 2703 2706 2709 2712 2715 2718 2721 2724 2727 2730 2733 2736 2739 2742 2745 2748 2751 2754 2757 2760 2763 2766 2769 2772 2775 2778 2781 2784 2787 2790 2793 2796 2799 2802 2805 2808 2811 2814 2817 2820 2823 2826 2829 2832 2835 2838 2841 2844 2847 2850 2853 2856 2859 2862 2865 2868 2871 2874 2877 2880 2883 2886 2889 2892 2895 2898 2901 2904 2907 2910 2913 2916 2919 2922 2925 2928 2931 2934 2937 2940 2943 2946 2949 2952 2955 2958 2961 2964 2967 2970 2973 2976 2979 2982 2985 2988 2991 2994 2997 3000 3003 3006 3009 3012 3015 3018 3021 3024 3027 3030 3033 3036 3039 3042 3045 3048 3051 3054 3057 3060 3063 3066 3069 3072 3075 3078 3081 3084 3087 3090 3093 3096 3099 3102 3105 3108 3111 3114 3117 3120 3123 3126 3129 3132 3135 3138 3141 3144 3147 3150 3153 3156 3159 3162 3165 3168 3171 3174 3177 3180 3183 3186 
</DataArray>
<DataArray type="UInt32" Name="types" format="ascii">
5 5 5 5 5 5 5 5 5 5 5 5 5 5 5 5 5 5 5 5 5 5 5 5 5 5 5 5 5 5 5 5 5 5 5 5 5 5 5 5 5 5 5 5 5 5 5 5 5 5 5 5 5 5 5 5 5 5 5 5 5 5 5 5 5 5 5 5 5 5 5 5 5 5 5 5 5 5 5 5 5 5 5 5 5 5 5 5 5 5 5 5 5 5 5 5 5 5 5 5 5 5 5 5 5 5 5 5 5 5 5 5 5 5 5 5 5 5 5 5 5 5 5 5 5 5 5 5 5 5 5 5 5 5 5 5 5 5 5 5 5 5 5 5 5 5 5 5 5 5 5 5 5 5 5 5 5 5 5 5 5 5 5 5 5 5 5 5 5 5 5 5 5 5 5 5 5 5 5 5 5 5 5 5 5 5 5 5 5 5 5 5 5 5 5 5 5 5 5 5 5 5 5 5 5 5 5 5 5 5 5 5 5 5 5 5 5 5 5 5 5 5 5 5 5 5 5 5 5 5 5 5 5 5 5 5 5 5 5 5 5 5 5 5 5 5 5 5 5 5 5 5 5 5 5 5 5 5 5 5 5 5 5 5 5 5 5 5 5 5 5 5 5 5 5 5 5 5 5 5 5 5 5 5 5 5 5 5 5 5 5 5 5 5 5 5 5 5 5 5 5 5 5 5 5 5 5 5 5 5 5 5 5 5 5 5 5 5 5 5 5 5 5 5 5 5 5 5 5 5 5 5 5 5 5 5 5 5 5 5 5 5 5 5 5 5 5 5 5 5 5 5 5 5 5 5 5 5 5 5 5 5 5 5 5 5 5 5 5 5 5 5 5 5 5 5 5 5 5 5 5 5 5 5 5 5 5 5 5 5 5 5 5 5 5 5 5 5 5 5 5 5 5 5 5 5 5 5 5 5 5 5 5 5 5 5 5 5 5 5 5 5 5 5 5 5 5 5 5 5 5 5 5 5 5 5 5 5 5 5 5 5 5 5 5 5 5 5 5 5 5 5 5 5 5 5 5 5 5 5 5 5 5 5 5 5 5 5 5 5 5 5 5 5 5 5 5 5 5 5 5 5 5 5 5 5 5 5 5 5 5 5 5 5 5 5 5 5 5 5 5 5 5 5 5 5 5 5 5 5 5 5 5 5 5 5 5 5 5 5 5 5 5 5 5 5 5 5 5 5 5 5 5 5 5 5 5 5 5 5 5 5 5 5 5 5 5 5 5 5 5 5 5 5 5 5 5 5 5 5 5 5 5 5 5 5 5 5 5 5 5 5 5 5 5 5 5 5 5 5 5 5 5 5 5 5 5 5 5 5 5 5 5 5 5 5 5 5 5 5 5 5 5 5 5 5 5 5 5 5 5 5 5 5 5 5 5 5 5 5 5 5 5 5 5 5 5 5 5 5 5 5 5 5 5 5 5 5 5 5 5 5 5 5 5 5 5 5 5 5 5 5 5 5 5 5 5 5 5 5 5 5 5 5 5 5 5 5 5 5 5 5 5 5 5 5 5 5 5 5 5 5 5 5 5 5 5 5 5 5 5 5 5 5 5 5 5 5 5 5 5 5 5 5 5 5 5 5 5 5 5 5 5 5 5 5 5 5 5 5 5 5 5 5 5 5 5 5 5 5 5 5 5 5 5 5 5 5 5 5 5 5 5 5 5 5 5 5 5 5 5 5 5 5 5 5 5 5 5 5 5 5 5 5 5 5 5 5 5 5 5 5 5 5 5 5 5 5 5 5 5 5 5 5 5 5 5 5 5 5 5 5 5 5 5 5 5 5 5 5 5 5 5 5 5 5 5 5 5 5 5 5 5 5 5 5 5 5 5 5 5 5 5 5 5 5 5 5 5 5 5 5 5 5 5 5 5 5 5 5 5 5 5 5 5 5 5 5 5 5 5 5 5 5 5 5 5 5 5 5 5 5 5 5 5 5 5 5 5 5 5 5 5 5 5 5 5 5 5 5 5 5 5 5 5 5 5 5 5 5 5 5 5 5 5 5 5 5 5 5 5 5 5 5 5 5 5 5 5 5 5 5 5 5 5 5 5 5 5 5 5 5 5 5 5 5 5 5 5 5 5 5 5 5 5 5 5 5 5 5 5 5 5 5 5 5 5 5 5 5 5 5 5 5 5 5 5 5 5 5 5 5 5 5 5 5 5 5 5 5 5 5 5 5 5 5 5 5 5 5 5 5 5 5 5 5 5 5 5 5 5 5 5 5 5 5 5 5 5 5 5 5 5 5 5 5 5 5 5 5 5 5 5 5 5 5 5 5 5 5 5 5 5 5 5 5 5 5 5 5 5 5 5 5 5 5 5 5 5 5 5 5 5 5 5 5 5 5 5 5 5 5 5 5 5 5 5 5 5 5 5 5 
</DataArray>
</Cells>
<PointData Scalars="" Vectors="displacement," Tensors="">
<DataArray type="Float64" Name="displacement" NumberOfComponents="3" format="ascii">
-2.5195430983522588e-07 7.1828807869080827e-05 0 -3.8819080283230736e-06 0.00015195220228406191 0 -0.0028939514362392059 0.099332357312833686 0 -2.5195430983522588e-07 7.1828807869080827e-05 0 -0.0028939514362392059 0.099332357312833686 0 -6.9839076574254268e-06 0.1428339635556414 0 -3.8819080283230736e-06 0.00015195220228406191 0 -0.0028939514362392059 0.099332357312833686 0 -0.0051737438225950083 0.10724654055661798 0 -0.0028939514362392059 0.099332357312833686 0 -0.0056261515292934071 0.21708843551631982 0 -0.0051737438225950083 0.10724654055661798 0 -0.0028939514362392059 0.099332357312833686 0 -6.9839076574254268e-06 0.1428339635556414 0 -0.0056261515292934071 0.21708843551631982 0 -6.9839076574254268e-06 0.1428339635556414 0 -8.2849979837745001e-06 0.28570949351019165 0 -0.0056261515292934071 0.21708843551631982 0 -0.0047290605848232378 0.34946292779169097 0 -8.2849979837745001e-06 0.28570949351019165 0 -8.7454854453554108e-06 0.42855920091118987 0 -0.0047290605848232378 0.34946292779169097 0 -8.2849979837745001e-06 0.28570949351019165 0 -0.0056261515292934071 0.21708843551631982 0 -0.0047290605848232378 0.34946292779169097 0 -0.0056261515292934071 0.21708843551631982 0 -0.0088108000020455709 0.34083384508922371 0 -0.0056261515292934071 0.21708843551631982 0 -0.0086692544919435253 0.21963908872754986 0 -0.0051737438225950083 0.10724654055661798 0 -0.0056261515292934071 0.21708843551631982 0 -0.0088108000020455709 0.34083384508922371 0 -0.0086692544919435253 0.21963908872754986 0 -0.0088108000020455709 0.34083384508922371 0 -0.0086692544919435253 0.21963908872754986 0 -0.010170046272476205 0.33011853046855782 0 -0.0086692544919435253 0.21963908872754986 0 -0.010170046272476205 0.33011853046855782 0 -0.0090860292626427294 0.21154393353142451 0 -0.0086692544919435253 0.21963908872754986 0 -0.0060630641229618013 0.1087843174204474 0 -0.0090860292626427294 0.21154393353142451 0 -0.0086692544919435253 0.21963908872754986 0 -0.0060630641229618013 0.1087843174204474 0 -0.0051737438225950083 0.10724654055661798 0 -0.0060630641229618013 0.1087843174204474 0 -4.6868692430702541e-06 0.00012262078029871709 0 -0.0051737438225950083 0.10724654055661798 0 -0.0060630641229618013 0.1087843174204474 0 -4.6868692430702541e-06 0.00012262078029871709 0 -4.5797674223750039e-06 0.00012351768659357083 0 -3.8819080283230736e-06 0.00015195220228406191 0 -4.6868692430702541e-06 0.00012262078029871709 0 -0.0051737438225950083 0.10724654055661798 0 -0.0043463324782346954 0.61218423983428316 0 -0.0069391915041363715 0.57537134178559179 0 -0.0037783413342313593 0.71707519823723387 0 -4.9284804676264256e-06 0.71425996367082878 0 -0.0043463324782346954 0.61218423983428316 0 -0.0037783413342313593 0.71707519823723387 0 -0.0043463324782346954 0.61218423983428316 0 -1.0396978116367553e-05 0.57140996038025327 0 -0.0065049814857447751 0.47522589075944999 0 -4.9284804676264256e-06 0.71425996367082878 0 -0.0043463324782346954 0.61218423983428316 0 -1.0396978116367553e-05 0.57140996038025327 0 -0.0043463324782346954 0.61218423983428316 0 -0.0065049814857447751 0.47522589075944999 0 -0.0069391915041363715 0.57537134178559179 0 -1.0396978116367553e-05 0.57140996038025327 0 -0.0065049814857447751 0.47522589075944999 0 -8.7454854453554108e-06 0.42855920091118987 0 -0.0047290605848232378 0.34946292779169097 0 -0.0065049814857447751 0.47522589075944999 0 -8.7454854453554108e-06 0.42855920091118987 0 -0.0047290605848232378 0.34946292779169097 0 -0.0088108000020455709 0.34083384508922371 0 -0.0065049814857447751 0.47522589075944999 0 -0.0088108000020455709 0.34083384508922371 0 -0.0065049814857447751 0.47522589075944999 0 -0.0091858973459346283 0.4485073553656177 0 -0.010170046272476205 0.33011853046855782 0 -0.0091858973459346283 0.4485073553656177 0 -0.00875122828814834 0.42700776322737216 0 -0.0088108000020455709 0.34083384508922371 0 -0.010170046272476205 0.33011853046855782 0 -0.0091858973459346283 0.4485073553656177 0 -0.0091858973459346283 0.4485073553656177 0 -0.0061989785605340627 0.54064432236411741 0 -0.00875122828814834 0.42700776322737216 0 -0.0065049814857447751 0.47522589075944999 0 -0.0091858973459346283 0.4485073553656177 0 -0.0069391915041363715 0.57537134178559179 0 -0.0091858973459346283 0.4485073553656177 0 -0.0069391915041363715 0.57537134178559179 0 -0.0061989785605340627 0.54064432236411741 0 -0.0061989785605340627 0.54064432236411741 0 0.00083153195824331265 0.62469878664865719 0 -0.0017974526632010671 0.65707215587051548 0 -0.0069391915041363715 0.57537134178559179 0 -0.0061989785605340627 0.54064432236411741 0 -0.0017974526632010671 0.65707215587051548 0 -0.0069391915041363715 0.57537134178559179 0 -0.0017974526632010671 0.65707215587051548 0 -0.0037783413342313593 0.71707519823723387 0 -0.0043542936583778769 0.51688205562682754 0 0.0025812080521479602 0.60314857075975103 0 0.00083153195824331265 0.62469878664865719 0 -0.0061989785605340627 0.54064432236411741 0 -0.0043542936583778769 0.51688205562682754 0 0.00083153195824331265 0.62469878664865719 0 -0.0061989785605340627 0.54064432236411741 0 -0.0043542936583778769 0.51688205562682754 0 -0.00875122828814834 0.42700776322737216 0 -0.0043542936583778769 0.51688205562682754 0 -0.00875122828814834 0.42700776322737216 0 -0.0071486208205673793 0.4109350714274243 0 -0.010170046272476205 0.33011853046855782 0 -0.00875122828814834 0.42700776322737216 0 -0.0095094769091501972 0.31635524645205543 0 -0.00875122828814834 0.42700776322737216 0 -0.0095094769091501972 0.31635524645205543 0 -0.0071486208205673793 0.4109350714274243 0 -0.0079186556871761547 0.30695623661058541 0 -0.0052799273514959688 0.39970693535251844 0 -0.0071486208205673793 0.4109350714274243 0 -0.0095094769091501972 0.31635524645205543 0 -0.0079186556871761547 0.30695623661058541 0 -0.0071486208205673793 0.4109350714274243 0 -0.0079186556871761547 0.30695623661058541 0 -0.0052799273514959688 0.39970693535251844 0 -0.0061231937194936277 0.29966979901721896 0 -0.0052799273514959688 0.39970693535251844 0 -0.0071486208205673793 0.4109350714274243 0 -0.0025704516131034153 0.50077001255045994 0 -0.0043542936583778769 0.51688205562682754 0 -0.0071486208205673793 0.4109350714274243 0 -0.0025704516131034153 0.50077001255045994 0 -0.0052799273514959688 0.39970693535251844 0 -0.0025704516131034153 0.50077001255045994 0 -0.0010262860486205435 0.49422321840519712 0 -0.0025704516131034153 0.50077001255045994 0 -0.0010262860486205435 0.49422321840519712 0 0.0036155438844527499 0.59154528522446137 0 -0.0043542936583778769 0.51688205562682754 0 -0.0025704516131034153 0.50077001255045994 0 0.0025812080521479602 0.60314857075975103 0 -0.0025704516131034153 0.50077001255045994 0 0.0025812080521479602 0.60314857075975103 0 0.0036155438844527499 0.59154528522446137 0 -0.0057845332382914644 0.10574224419208204 0 -4.5797674223750039e-06 0.00012351768659357083 0 -3.9478940347258108e-06 0.00011755981197511177 0 -0.0060630641229618013 0.1087843174204474 0 -0.0057845332382914644 0.10574224419208204 0 -4.5797674223750039e-06 0.00012351768659357083 0 -0.0060630641229618013 0.1087843174204474 0 -0.0057845332382914644 0.10574224419208204 0 -0.0090860292626427294 0.21154393353142451 0 -0.010170046272476205 0.33011853046855782 0 -0.0095094769091501972 0.31635524645205543 0 -0.0090860292626427294 0.21154393353142451 0 -0.0095094769091501972 0.31635524645205543 0 -0.0090860292626427294 0.21154393353142451 0 -0.0082731028954185649 0.20977474868499352 0 -0.0057845332382914644 0.10574224419208204 0 -0.0090860292626427294 0.21154393353142451 0 -0.0082731028954185649 0.20977474868499352 0 -0.0082731028954185649 0.20977474868499352 0 -0.0067941002882721865 0.20412694780813001 0 -0.0050975869848166539 0.1058087273923574 0 -0.0079186556871761547 0.30695623661058541 0 -0.0082731028954185649 0.20977474868499352 0 -0.0067941002882721865 0.20412694780813001 0 -0.0095094769091501972 0.31635524645205543 0 -0.0079186556871761547 0.30695623661058541 0 -0.0082731028954185649 0.20977474868499352 0 -0.0079186556871761547 0.30695623661058541 0 -0.0067941002882721865 0.20412694780813001 0 -0.0061231937194936277 0.29966979901721896 0 -0.0067941002882721865 0.20412694780813001 0 -0.0050975869848166539 0.1058087273923574 0 -0.0040038205446217027 0.099563375973369311 0 -0.0057845332382914644 0.10574224419208204 0 -0.0082731028954185649 0.20977474868499352 0 -0.0050975869848166539 0.1058087273923574 0 -0.0050975869848166539 0.1058087273923574 0 -3.9478940347258108e-06 0.00011755981197511177 0 -3.1644262467099765e-06 0.00011463498420986373 0 -0.0057845332382914644 0.10574224419208204 0 -0.0050975869848166539 0.1058087273923574 0 -3.9478940347258108e-06 0.00011755981197511177 0 -0.0050975869848166539 0.1058087273923574 0 -3.1644262467099765e-06 0.00011463498420986373 0 -0.0040038205446217027 0.099563375973369311 0 -3.1644262467099765e-06 0.00011463498420986373 0 -0.0040038205446217027 0.099563375973369311 0 -2.1943671926223682e-06 0.00011194866809466475 0 -0.0040038205446217027 0.099563375973369311 0 -0.0026802281481458187 0.081610004517312928 0 -0.0049487331143058593 0.18512727682522406 0 -0.0026802281481458187 0.081610004517312928 0 -0.0027016536740013461 0.11013546176508314 0 -0.0049487331143058593 0.18512727682522406 0 -0.0026802281481458187 0.081610004517312928 0 -2.1943671926223682e-06 0.00011194866809466475 0 -1.877507767545357e-06 0.00011035042045841705 0 -0.0040038205446217027 0.099563375973369311 0 -0.0026802281481458187 0.081610004517312928 0 -2.1943671926223682e-06 0.00011194866809466475 0 -0.0026802281481458187 0.081610004517312928 0 -1.877507767545357e-06 0.00011035042045841705 0 -0.0027016536740013461 0.11013546176508314 0 -0.0027016536740013461 0.11013546176508314 0 -0.001576283557393431 0.080100429760673914 0 -0.0025113166084091095 0.16575269864257561 0 -1.877507767545357e-06 0.00011035042045841705 0 -0.0027016536740013461 0.11013546176508314 0 -0.001576283557393431 0.080100429760673914 0 -1.877507767545357e-06 0.00011035042045841705 0 -0.001576283557393431 0.080100429760673914 0 -1.1538514405914936e-06 0.00010911699421236707 0 -0.0026415261542082021 0.27187081125285439 0 -0.0038089615664481657 0.21960804965267861 0 -0.0033229321563928867 0.32834655715345068 0 -0.0026415261542082021 0.27187081125285439 0 -0.0025113166084091095 0.16575269864257561 0 -0.0038089615664481657 0.21960804965267861 0 -0.0027016536740013461 0.11013546176508314 0 -0.0025113166084091095 0.16575269864257561 0 -0.0038089615664481657 0.21960804965267861 0 -0.0027016536740013461 0.11013546176508314 0 -0.0038089615664481657 0.21960804965267861 0 -0.0049487331143058593 0.18512727682522406 0 -0.0038089615664481657 0.21960804965267861 0 -0.0047046224197829752 0.28419579331715766 0 -0.0033229321563928867 0.32834655715345068 0 -0.0038089615664481657 0.21960804965267861 0 -0.0047046224197829752 0.28419579331715766 0 -0.0049487331143058593 0.18512727682522406 0 -0.0047046224197829752 0.28419579331715766 0 -0.0049487331143058593 0.18512727682522406 0 -0.0061231937194936277 0.29966979901721896 0 -0.0067941002882721865 0.20412694780813001 0 -0.0040038205446217027 0.099563375973369311 0 -0.0049487331143058593 0.18512727682522406 0 -0.0067941002882721865 0.20412694780813001 0 -0.0049487331143058593 0.18512727682522406 0 -0.0061231937194936277 0.29966979901721896 0 -0.0052799273514959688 0.39970693535251844 0 -0.0061231937194936277 0.29966979901721896 0 -0.0036109449744155591 0.38885659780408754 0 -0.0052799273514959688 0.39970693535251844 0 -0.0036109449744155591 0.38885659780408754 0 -0.0010262860486205435 0.49422321840519712 0 -0.0047046224197829752 0.28419579331715766 0 -0.0036109449744155591 0.38885659780408754 0 -0.0033229321563928867 0.32834655715345068 0 -0.0047046224197829752 0.28419579331715766 0 -0.0061231937194936277 0.29966979901721896 0 -0.0036109449744155591 0.38885659780408754 0 -0.0010262860486205435 0.49422321840519712 0 0.0043052513855390342 0.59318859378932609 0 0.0036155438844527499 0.59154528522446137 0 -0.0036109449744155591 0.38885659780408754 0 -0.00014942049446500227 0.4911308372245618 0 -0.0012589223729001938 0.43647163497187591 0 -0.0036109449744155591 0.38885659780408754 0 -0.0010262860486205435 0.49422321840519712 0 -0.00014942049446500227 0.4911308372245618 0 -0.00014942049446500227 0.4911308372245618 0 0.0020591620490141875 0.54397308107354958 0 0.0043052513855390342 0.59318859378932609 0 -0.0010262860486205435 0.49422321840519712 0 -0.00014942049446500227 0.4911308372245618 0 0.0043052513855390342 0.59318859378932609 0 -0.00014942049446500227 0.4911308372245618 0 0.0020591620490141875 0.54397308107354958 0 -0.0012589223729001938 0.43647163497187591 0 -0.0012589223729001938 0.43647163497187591 0 0.00042484483337274821 0.48634121709893607 0 -0.0016043305394520125 0.38032452716477549 0 0.0020591620490141875 0.54397308107354958 0 -0.0012589223729001938 0.43647163497187591 0 0.00042484483337274821 0.48634121709893607 0 0.0020591620490141875 0.54397308107354958 0 0.00042484483337274821 0.48634121709893607 0 0.0031916747411697569 0.58986103260169531 0 -0.0036109449744155591 0.38885659780408754 0 -0.0012589223729001938 0.43647163497187591 0 -0.0033229321563928867 0.32834655715345068 0 -0.0012589223729001938 0.43647163497187591 0 -0.0033229321563928867 0.32834655715345068 0 -0.0016043305394520125 0.38032452716477549 0 -0.0026415261542082021 0.27187081125285439 0 -0.0033229321563928867 0.32834655715345068 0 -0.0016043305394520125 0.38032452716477549 0 -0.0026415261542082021 0.27187081125285439 0 -0.0016043305394520125 0.38032452716477549 0 -0.0014222738880595145 0.32338479439352319 0 -0.0016043305394520125 0.38032452716477549 0 -0.0014222738880595145 0.32338479439352319 0 -0.00035385871089957708 0.43123848470366849 0 -0.0014222738880595145 0.32338479439352319 0 -0.00035385871089957708 0.43123848470366849 0 -0.0004636943620153095 0.37482912245264183 0 0.00042484483337274821 0.48634121709893607 0 0.001278757488174877 0.53741321757677418 0 0.0031916747411697569 0.58986103260169531 0 0.00042484483337274821 0.48634121709893607 0 -0.0016043305394520125 0.38032452716477549 0 -0.00035385871089957708 0.43123848470366849 0 0.00042484483337274821 0.48634121709893607 0 -0.00035385871089957708 0.43123848470366849 0 0.001278757488174877 0.53741321757677418 0 -0.00035385871089957708 0.43123848470366849 0 0.001278757488174877 0.53741321757677418 0 0.00023227404000694901 0.48323712737876234 0 0.001278757488174877 0.53741321757677418 0 0.00023227404000694901 0.48323712737876234 0 0.0011708321311142773 0.58906258623797048 0 -0.00035385871089957708 0.43123848470366849 0 0.00023227404000694901 0.48323712737876234 0 -0.0004636943620153095 0.37482912245264183 0 0.00023227404000694901 0.48323712737876234 0 -1.1221354195411929e-05 0.42933054064807408 0 3.9747530403937275e-06 0.53656745122807792 0 0.00023227404000694901 0.48323712737876234 0 -1.1221354195411929e-05 0.42933054064807408 0 -0.0004636943620153095 0.37482912245264183 0 0.00023227404000694901 0.48323712737876234 0 3.9747530403937275e-06 0.53656745122807792 0 0.0011708321311142773 0.58906258623797048 0 -0.0014222738880595145 0.32338479439352319 0 -0.0004636943620153095 0.37482912245264183 0 -0.00083304969644482497 0.26709966989756401 0 -1.1221354195411929e-05 0.42933054064807408 0 -0.0004636943620153095 0.37482912245264183 0 -2.5587303842746106e-05 0.32070807562243281 0 -0.0004636943620153095 0.37482912245264183 0 -2.5587303842746106e-05 0.32070807562243281 0 -0.00083304969644482497 0.26709966989756401 0 -2.5587303842746106e-05 0.32070807562243281 0 -0.00083304969644482497 0.26709966989756401 0 -1.9608828124697908e-05 0.20973676088438542 0 -0.00083304969644482497 0.26709966989756401 0 -0.00080205121414367157 0.15771071607761011 0 -0.0017570929098961463 0.21460086417173568 0 -0.00080205121414367157 0.15771071607761011 0 -1.9608828124697908e-05 0.20973676088438542 0 5.3233905550794782e-06 0.095709047086417212 0 -0.00083304969644482497 0.26709966989756401 0 -0.00080205121414367157 0.15771071607761011 0 -1.9608828124697908e-05 0.20973676088438542 0 5.3233905550794782e-06 0.095709047086417212 0 -3.911555922864169e-07 0.00010811710766328185 0 -0.00046029045304538818 0.067000807291572345 0 5.3233905550794782e-06 0.095709047086417212 0 -3.911555922864169e-07 0.00010811710766328185 0 3.8910025644517848e-07 0.0001080981710697987 0 -3.911555922864169e-07 0.00010811710766328185 0 -0.00046029045304538818 0.067000807291572345 0 -4.6728452241076919e-07 0.00010838173882602147 0 -0.00080205121414367157 0.15771071607761011 0 -0.00046029045304538818 0.067000807291572345 0 -0.0012605736585499681 0.097483648092085651 0 -0.00080205121414367157 0.15771071607761011 0 5.3233905550794782e-06 0.095709047086417212 0 -0.00046029045304538818 0.067000807291572345 0 -0.0012605736585499681 0.097483648092085651 0 -4.6728452241076919e-07 0.00010838173882602147 0 -1.1538514405914936e-06 0.00010911699421236707 0 -0.00046029045304538818 0.067000807291572345 0 -0.0012605736585499681 0.097483648092085651 0 -4.6728452241076919e-07 0.00010838173882602147 0 -0.001576283557393431 0.080100429760673914 0 -0.0012605736585499681 0.097483648092085651 0 -1.1538514405914936e-06 0.00010911699421236707 0 -0.001576283557393431 0.080100429760673914 0 -0.0025113166084091095 0.16575269864257561 0 -0.0012605736585499681 0.097483648092085651 0 -0.0025113166084091095 0.16575269864257561 0 -0.0012605736585499681 0.097483648092085651 0 -0.0017570929098961463 0.21460086417173568 0 -0.0026415261542082021 0.27187081125285439 0 -0.0014222738880595145 0.32338479439352319 0 -0.0017570929098961463 0.21460086417173568 0 -0.0026415261542082021 0.27187081125285439 0 -0.0025113166084091095 0.16575269864257561 0 -0.0017570929098961463 0.21460086417173568 0 -0.0014222738880595145 0.32338479439352319 0 -0.00083304969644482497 0.26709966989756401 0 -0.0017570929098961463 0.21460086417173568 0 -0.00080205121414367157 0.15771071607761011 0 -0.0012605736585499681 0.097483648092085651 0 -0.0017570929098961463 0.21460086417173568 0 0.0070552036734041288 1.1286055584733494 0 0.003998243753047667 0.94535169404181085 0 0.0078776167409365834 0.93502800342196191 0 0.0070552036734041288 1.1286055584733494 0 0.011986615496852647 1.1049561853605674 0 0.0078776167409365834 0.93502800342196191 0 0.011986615496852647 1.1049561853605674 0 0.0078776167409365834 0.93502800342196191 0 0.010719971314009683 0.91079114970989528 0 0.0070552036734041288 1.1286055584733494 0 0.011986615496852647 1.1049561853605674 0 0.01027093369662265 1.3227829492722665 0 0.011986615496852647 1.1049561853605674 0 0.01027093369662265 1.3227829492722665 0 0.01430685049143326 1.2873277203916202 0 0.01027093369662265 1.3227829492722665 0 0.013784597116491997 1.5027101406863188 0 0.007868202097361247 1.5076764657226325 0 0.01027093369662265 1.3227829492722665 0 0.01430685049143326 1.2873277203916202 0 0.013784597116491997 1.5027101406863188 0 0.01027093369662265 1.3227829492722665 0 0.0051420063470427263 1.3209299389083624 0 0.007868202097361247 1.5076764657226325 0 0.0070552036734041288 1.1286055584733494 0 0.01027093369662265 1.3227829492722665 0 0.0051420063470427263 1.3209299389083624 0 0.0051420063470427263 1.3209299389083624 0 0.007868202097361247 1.5076764657226325 0 0.0025787491008548206 1.507694185353222 0 0.0051420063470427263 1.3209299389083624 0 -6.2705910587147938e-05 1.3221880334131775 0 0.0025787491008548206 1.507694185353222 0 0.0051420063470427263 1.3209299389083624 0 -6.2705910587147938e-05 1.3221880334131775 0 0.0023515544660127098 1.1333316606254418 0 -6.2705910587147938e-05 1.3221880334131775 0 0.0023515544660127098 1.1333316606254418 0 -0.0024163124784928672 1.1343944866862297 0 0.0070552036734041288 1.1286055584733494 0 0.0051420063470427263 1.3209299389083624 0 0.0023515544660127098 1.1333316606254418 0 0.0070552036734041288 1.1286055584733494 0 0.0023515544660127098 1.1333316606254418 0 0.003998243753047667 0.94535169404181085 0 0.0023515544660127098 1.1333316606254418 0 -5.8549818584214496e-05 0.94100155328019497 0 -0.0024163124784928672 1.1343944866862297 0 0.0023515544660127098 1.1333316606254418 0 0.003998243753047667 0.94535169404181085 0 -5.8549818584214496e-05 0.94100155328019497 0 -5.8549818584214496e-05 0.94100155328019497 0 0.0014623822956634544 0.75059950589808433 0 -0.0015619056556960497 0.7506052155120404 0 0.003998243753047667 0.94535169404181085 0 -5.8549818584214496e-05 0.94100155328019497 0 0.0014623822956634544 0.75059950589808433 0 0.0014623822956634544 0.75059950589808433 0 -1.0991172291915217e-06 0.65455225956258878 0 -0.0015619056556960497 0.7506052155120404 0 0.0014623822956634544 0.75059950589808433 0 0.0022211218008141398 0.67945513277499636 0 0.0046046350116616206 0.75159953932475054 0 0.003998243753047667 0.94535169404181085 0 0.0014623822956634544 0.75059950589808433 0 0.0046046350116616206 0.75159953932475054 0 3.9747530403937275e-06 0.53656745122807792 0 -1.0991172291915217e-06 0.65455225956258878 0 0.0011708321311142773 0.58906258623797048 0 -1.0991172291915217e-06 0.65455225956258878 0 0.0022211218008141398 0.67945513277499636 0 0.0011708321311142773 0.58906258623797048 0 0.0014623822956634544 0.75059950589808433 0 -1.0991172291915217e-06 0.65455225956258878 0 0.0022211218008141398 0.67945513277499636 0 0.0022211218008141398 0.67945513277499636 0 0.0011708321311142773 0.58906258623797048 0 0.0036545688866224044 0.65358565403253088 0 0.001278757488174877 0.53741321757677418 0 0.0011708321311142773 0.58906258623797048 0 0.0036545688866224044 0.65358565403253088 0 0.0022211218008141398 0.67945513277499636 0 0.0036545688866224044 0.65358565403253088 0 0.0046046350116616206 0.75159953932475054 0 0.0036545688866224044 0.65358565403253088 0 0.0076944510013895306 0.75378956563771726 0 0.0060546922819139405 0.67650786532260765 0 0.0036545688866224044 0.65358565403253088 0 0.0031916747411697569 0.58986103260169531 0 0.0060546922819139405 0.67650786532260765 0 0.001278757488174877 0.53741321757677418 0 0.0036545688866224044 0.65358565403253088 0 0.0031916747411697569 0.58986103260169531 0 0.003998243753047667 0.94535169404181085 0 0.0046046350116616206 0.75159953932475054 0 0.0078776167409365834 0.93502800342196191 0 0.0036545688866224044 0.65358565403253088 0 0.0046046350116616206 0.75159953932475054 0 0.0076944510013895306 0.75378956563771726 0 0.0076944510013895306 0.75378956563771726 0 0.0078776167409365834 0.93502800342196191 0 0.010719971314009683 0.91079114970989528 0 0.0046046350116616206 0.75159953932475054 0 0.0076944510013895306 0.75378956563771726 0 0.0078776167409365834 0.93502800342196191 0 0.010719971314009683 0.91079114970989528 0 0.010981377647998251 0.75748929869332082 0 0.014502505009913383 0.97021239366440604 0 0.0076944510013895306 0.75378956563771726 0 0.010719971314009683 0.91079114970989528 0 0.010981377647998251 0.75748929869332082 0 0.0076944510013895306 0.75378956563771726 0 0.010981377647998251 0.75748929869332082 0 0.0060546922819139405 0.67650786532260765 0 0.010981377647998251 0.75748929869332082 0 0.016512109656574767 0.91686658055143677 0 0.014502505009913383 0.97021239366440604 0 0.0020591620490141875 0.54397308107354958 0 0.0031916747411697569 0.58986103260169531 0 0.0063742779170858415 0.65097425654666696 0 0.010981377647998251 0.75748929869332082 0 0.0060546922819139405 0.67650786532260765 0 0.0063742779170858415 0.65097425654666696 0 0.0031916747411697569 0.58986103260169531 0 0.0060546922819139405 0.67650786532260765 0 0.0063742779170858415 0.65097425654666696 0 0.010981377647998251 0.75748929869332082 0 0.0063742779170858415 0.65097425654666696 0 0.0090742387060346874 0.68391566221431066 0 0.0020591620490141875 0.54397308107354958 0 0.0063742779170858415 0.65097425654666696 0 0.0043052513855390342 0.59318859378932609 0 0.0063742779170858415 0.65097425654666696 0 0.0043052513855390342 0.59318859378932609 0 0.0090742387060346874 0.68391566221431066 0 0.0090742387060346874 0.68391566221431066 0 0.009834852508901145 0.68095370271398703 0 0.014294778645555955 0.76356848441131508 0 0.0043052513855390342 0.59318859378932609 0 0.0090742387060346874 0.68391566221431066 0 0.009834852508901145 0.68095370271398703 0 0.0043052513855390342 0.59318859378932609 0 0.009834852508901145 0.68095370271398703 0 0.0036155438844527499 0.59154528522446137 0 0.016512109656574767 0.91686658055143677 0 0.014294778645555955 0.76356848441131508 0 0.020178644722242151 0.9458761341064158 0 0.010981377647998251 0.75748929869332082 0 0.016512109656574767 0.91686658055143677 0 0.014294778645555955 0.76356848441131508 0 0.010981377647998251 0.75748929869332082 0 0.0090742387060346874 0.68391566221431066 0 0.014294778645555955 0.76356848441131508 0 0.009834852508901145 0.68095370271398703 0 0.014294778645555955 0.76356848441131508 0 0.0176281815042671 0.77295070518899989 0 0.014294778645555955 0.76356848441131508 0 0.020178644722242151 0.9458761341064158 0 0.0176281815042671 0.77295070518899989 0 0.020178644722242151 0.9458761341064158 0 0.020410146580733427 1.1065776646482008 0 0.025217021141106234 1.1336870696273862 0 0.020410146580733427 1.1065776646482008 0 0.025210027342165962 1.3093150709183377 0 0.025217021141106234 1.1336870696273862 0 0.020410146580733427 1.1065776646482008 0 0.016966037349390659 1.1823444323842527 0 0.021024171384984736 1.2925489563911587 0 0.016512109656574767 0.91686658055143677 0 0.020178644722242151 0.9458761341064158 0 0.020410146580733427 1.1065776646482008 0 0.016512109656574767 0.91686658055143677 0 0.020410146580733427 1.1065776646482008 0 0.014502505009913383 0.97021239366440604 0 0.020410146580733427 1.1065776646482008 0 0.014502505009913383 0.97021239366440604 0 0.016966037349390659 1.1823444323842527 0 0.011986615496852647 1.1049561853605674 0 0.016966037349390659 1.1823444323842527 0 0.01430685049143326 1.2873277203916202 0 0.011986615496852647 1.1049561853605674 0 0.014502505009913383 0.97021239366440604 0 0.016966037349390659 1.1823444323842527 0 0.011986615496852647 1.1049561853605674 0 0.010719971314009683 0.91079114970989528 0 0.014502505009913383 0.97021239366440604 0 0.01430685049143326 1.2873277203916202 0 0.018232571249881983 1.3941642464698505 0 0.013784597116491997 1.5027101406863188 0 0.016966037349390659 1.1823444323842527 0 0.01430685049143326 1.2873277203916202 0 0.018232571249881983 1.3941642464698505 0 0.016966037349390659 1.1823444323842527 0 0.018232571249881983 1.3941642464698505 0 0.021024171384984736 1.2925489563911587 0 0.018232571249881983 1.3941642464698505 0 0.023007389445256744 1.4963987647600021 0 0.018239608283413571 1.605846561097116 0 0.023007389445256744 1.4963987647600021 0 0.021024171384984736 1.2925489563911587 0 0.025210027342165962 1.3093150709183377 0 0.018232571249881983 1.3941642464698505 0 0.023007389445256744 1.4963987647600021 0 0.021024171384984736 1.2925489563911587 0 0.020410146580733427 1.1065776646482008 0 0.021024171384984736 1.2925489563911587 0 0.025210027342165962 1.3093150709183377 0 0.023007389445256744 1.4963987647600021 0 0.025210027342165962 1.3093150709183377 0 0.027984446236690455 1.4926054490808816 0 0.025210027342165962 1.3093150709183377 0 0.027984446236690455 1.4926054490808816 0 0.029129066982231194 1.3154467264953551 0 0.027984446236690455 1.4926054490808816 0 0.031350832746652395 1.4922338402690012 0 0.029129066982231194 1.3154467264953551 0 0.031350832746652395 1.4922338402690012 0 0.029129066982231194 1.3154467264953551 0 0.031554907204735187 1.3189462961746365 0 0.029129066982231194 1.3154467264953551 0 0.028481417962170782 1.1430209252574672 0 0.031554907204735187 1.3189462961746365 0 0.025210027342165962 1.3093150709183377 0 0.029129066982231194 1.3154467264953551 0 0.025217021141106234 1.1336870696273862 0 0.020178644722242151 0.9458761341064158 0 0.025217021141106234 1.1336870696273862 0 0.023657979708430445 0.95900412695598836 0 0.025217021141106234 1.1336870696273862 0 0.028481417962170782 1.1430209252574672 0 0.023657979708430445 0.95900412695598836 0 0.028481417962170782 1.1430209252574672 0 0.023657979708430445 0.95900412695598836 0 0.026234312835252026 0.97359186714614188 0 0.029129066982231194 1.3154467264953551 0 0.025217021141106234 1.1336870696273862 0 0.028481417962170782 1.1430209252574672 0 0.028481417962170782 1.1430209252574672 0 0.029855636877628555 1.1504951680874442 0 0.031554907204735187 1.3189462961746365 0 0.028481417962170782 1.1430209252574672 0 0.029855636877628555 1.1504951680874442 0 0.026234312835252026 0.97359186714614188 0 0.029855636877628555 1.1504951680874442 0 0.026234312835252026 0.97359186714614188 0 0.026919761590083791 0.99266615350754983 0 0.029855636877628555 1.1504951680874442 0 0.031554907204735187 1.3189462961746365 0 0.031038300008499366 1.3236499473799805 0 0.032422369091306816 1.4908375091342072 0 0.031554907204735187 1.3189462961746365 0 0.031038300008499366 1.3236499473799805 0 0.031350832746652395 1.4922338402690012 0 0.032422369091306816 1.4908375091342072 0 0.031554907204735187 1.3189462961746365 0 0.0025812080521479602 0.60314857075975103 0 0.0036155438844527499 0.59154528522446137 0 0.010569775748554068 0.68794879633353412 0 0.0025812080521479602 0.60314857075975103 0 0.010569775748554068 0.68794879633353412 0 0.010754543677541067 0.70610801255529654 0 0.009834852508901145 0.68095370271398703 0 0.0036155438844527499 0.59154528522446137 0 0.010569775748554068 0.68794879633353412 0 0.009834852508901145 0.68095370271398703 0 0.010569775748554068 0.68794879633353412 0 0.0176281815042671 0.77295070518899989 0 0.010569775748554068 0.68794879633353412 0 0.020727374298669169 0.7871918837526799 0 0.010754543677541067 0.70610801255529654 0 0.010569775748554068 0.68794879633353412 0 0.020727374298669169 0.7871918837526799 0 0.0176281815042671 0.77295070518899989 0 0.020178644722242151 0.9458761341064158 0 0.0176281815042671 0.77295070518899989 0 0.023657979708430445 0.95900412695598836 0 0.020727374298669169 0.7871918837526799 0 0.0176281815042671 0.77295070518899989 0 0.023657979708430445 0.95900412695598836 0 0.020727374298669169 0.7871918837526799 0 0.023657979708430445 0.95900412695598836 0 0.026234312835252026 0.97359186714614188 0 0.020727374298669169 0.7871918837526799 0 0.026234312835252026 0.97359186714614188 0 0.023174749662076371 0.80889666289467321 0 0.026234312835252026 0.97359186714614188 0 0.023174749662076371 0.80889666289467321 0 0.026919761590083791 0.99266615350754983 0 0.020727374298669169 0.7871918837526799 0 0.023174749662076371 0.80889666289467321 0 0.010754543677541067 0.70610801255529654 0 0.023174749662076371 0.80889666289467321 0 0.010754543677541067 0.70610801255529654 0 0.0093830450841052224 0.73386370191359684 0 0.010754543677541067 0.70610801255529654 0 0.00083153195824331265 0.62469878664865719 0 0.0093830450841052224 0.73386370191359684 0 0.0025812080521479602 0.60314857075975103 0 0.010754543677541067 0.70610801255529654 0 0.00083153195824331265 0.62469878664865719 0 -0.0017974526632010671 0.65707215587051548 0 0.0058326188321115753 0.77731133208403369 0 -0.0037783413342313593 0.71707519823723387 0 -0.0017974526632010671 0.65707215587051548 0 0.0093830450841052224 0.73386370191359684 0 0.0058326188321115753 0.77731133208403369 0 0.00083153195824331265 0.62469878664865719 0 -0.0017974526632010671 0.65707215587051548 0 0.0093830450841052224 0.73386370191359684 0 0.0093830450841052224 0.73386370191359684 0 0.0058326188321115753 0.77731133208403369 0 0.023984897199770403 0.84234650411166956 0 0.0058326188321115753 0.77731133208403369 0 0.023984897199770403 0.84234650411166956 0 0.02060598942889082 0.89502617054358535 0 0.023174749662076371 0.80889666289467321 0 0.0093830450841052224 0.73386370191359684 0 0.023984897199770403 0.84234650411166956 0 0.023174749662076371 0.80889666289467321 0 0.023984897199770403 0.84234650411166956 0 0.026919761590083791 0.99266615350754983 0 0.023984897199770403 0.84234650411166956 0 0.026919761590083791 0.99266615350754983 0 0.024120547516198847 1.0226120332935074 0 0.023984897199770403 0.84234650411166956 0 0.024120547516198847 1.0226120332935074 0 0.02060598942889082 0.89502617054358535 0 0.024120547516198847 1.0226120332935074 0 0.016575043589011573 1.0497704844006013 0 0.02060598942889082 0.89502617054358535 0 0.016575043589011573 1.0497704844006013 0 4.7012158532856124e-05 0.99988321202177999 0 2.4435921744979472e-05 1.1428379878410071 0 0.016575043589011573 1.0497704844006013 0 4.7012158532856124e-05 0.99988321202177999 0 0.02060598942889082 0.89502617054358535 0 4.7012158532856124e-05 0.99988321202177999 0 0.02060598942889082 0.89502617054358535 0 0.0017877895035314532 0.83886496874913097 0 0.0058326188321115753 0.77731133208403369 0 0.0017877895035314532 0.83886496874913097 0 -0.0037783413342313593 0.71707519823723387 0 0.0058326188321115753 0.77731133208403369 0 0.02060598942889082 0.89502617054358535 0 0.0017877895035314532 0.83886496874913097 0 4.7012158532856124e-05 0.99988321202177999 0 0.0017877895035314532 0.83886496874913097 0 -1.6697484810406379e-05 0.8571255907888462 0 0.0017877895035314532 0.83886496874913097 0 -1.6697484810406379e-05 0.8571255907888462 0 -0.0037783413342313593 0.71707519823723387 0 -4.9284804676264256e-06 0.71425996367082878 0 -1.6697484810406379e-05 0.8571255907888462 0 -0.0037783413342313593 0.71707519823723387 0 0.02528531992900436 1.3337709727424769 0 0.029197775514026955 1.4932147844129973 0 0.018443576433181667 1.498011201792907 0 0.02528531992900436 1.3337709727424769 0 0.029197775514026955 1.4932147844129973 0 0.031038300008499366 1.3236499473799805 0 0.032422369091306816 1.4908375091342072 0 0.029197775514026955 1.4932147844129973 0 0.031038300008499366 1.3236499473799805 0 0.02528531992900436 1.3337709727424769 0 0.031038300008499366 1.3236499473799805 0 0.027898652629613167 1.1671166780379152 0 0.029855636877628555 1.1504951680874442 0 0.031038300008499366 1.3236499473799805 0 0.027898652629613167 1.1671166780379152 0 0.029855636877628555 1.1504951680874442 0 0.026919761590083791 0.99266615350754983 0 0.027898652629613167 1.1671166780379152 0 0.026919761590083791 0.99266615350754983 0 0.024120547516198847 1.0226120332935074 0 0.027898652629613167 1.1671166780379152 0 0.024120547516198847 1.0226120332935074 0 0.027898652629613167 1.1671166780379152 0 0.019091278200651037 1.1898164220411827 0 0.02528531992900436 1.3337709727424769 0 0.027898652629613167 1.1671166780379152 0 0.019091278200651037 1.1898164220411827 0 0.024120547516198847 1.0226120332935074 0 0.016575043589011573 1.0497704844006013 0 0.019091278200651037 1.1898164220411827 0 0.016575043589011573 1.0497704844006013 0 0.019091278200651037 1.1898164220411827 0 2.4435921744979472e-05 1.1428379878410071 0 0.019091278200651037 1.1898164220411827 0 2.555500730704216e-05 1.2856980665780677 0 0.013310056988797782 1.3428538255266667 0 0.019091278200651037 1.1898164220411827 0 2.4435921744979472e-05 1.1428379878410071 0 2.555500730704216e-05 1.2856980665780677 0 2.555500730704216e-05 1.2856980665780677 0 0.013310056988797782 1.3428538255266667 0 2.5322146145638776e-05 1.4285617341283139 0 0.02528531992900436 1.3337709727424769 0 0.013310056988797782 1.3428538255266667 0 0.018443576433181667 1.498011201792907 0 0.02528531992900436 1.3337709727424769 0 0.019091278200651037 1.1898164220411827 0 0.013310056988797782 1.3428538255266667 0 0.018443576433181667 1.498011201792907 0 2.5322146145638776e-05 1.4285617341283139 0 2.4899316884752992e-05 1.5714379069818771 0 0.013310056988797782 1.3428538255266667 0 0.018443576433181667 1.498011201792907 0 2.5322146145638776e-05 1.4285617341283139 0 0.018443576433181667 1.498011201792907 0 2.4899316884752992e-05 1.5714379069818771 0 0.013837649178504496 1.6509381833470176 0 2.4899316884752992e-05 1.5714379069818771 0 0.013837649178504496 1.6509381833470176 0 2.59578050986499e-05 1.7143023127525352 0 0.013837649178504496 1.6509381833470176 0 0.02552991417904615 1.6557252794151096 0 0.019080477885151811 1.8121346420057165 0 0.018443576433181667 1.498011201792907 0 0.013837649178504496 1.6509381833470176 0 0.02552991417904615 1.6557252794151096 0 0.029197775514026955 1.4932147844129973 0 0.018443576433181667 1.498011201792907 0 0.02552991417904615 1.6557252794151096 0 0.02552991417904615 1.6557252794151096 0 0.031243655667361703 1.6581859511785371 0 0.027890768619739013 1.8253662434784039 0 0.029197775514026955 1.4932147844129973 0 0.02552991417904615 1.6557252794151096 0 0.031243655667361703 1.6581859511785371 0 0.032422369091306816 1.4908375091342072 0 0.029197775514026955 1.4932147844129973 0 0.031243655667361703 1.6581859511785371 0 0.027890768619739013 1.8253662434784039 0 0.026997708941524045 2.0013303934849294 0 0.029966750401811133 1.84293651105471 0 0.027890768619739013 1.8253662434784039 0 0.024047307620208715 1.9763671618853751 0 0.026997708941524045 2.0013303934849294 0 0.031243655667361703 1.6581859511785371 0 0.027890768619739013 1.8253662434784039 0 0.029966750401811133 1.84293651105471 0 0.02552991417904615 1.6557252794151096 0 0.027890768619739013 1.8253662434784039 0 0.019080477885151811 1.8121346420057165 0 0.027890768619739013 1.8253662434784039 0 0.019080477885151811 1.8121346420057165 0 0.024047307620208715 1.9763671618853751 0 0.019080477885151811 1.8121346420057165 0 0.01654761612680776 1.9505887683800978 0 0.024047307620208715 1.9763671618853751 0 0.013837649178504496 1.6509381833470176 0 0.019080477885151811 1.8121346420057165 0 2.59578050986499e-05 1.7143023127525352 0 0.019080477885151811 1.8121346420057165 0 2.59578050986499e-05 1.7143023127525352 0 2.4345357355852817e-05 1.8571621476080236 0 0.019080477885151811 1.8121346420057165 0 2.4345357355852817e-05 1.8571621476080236 0 0.01654761612680776 1.9505887683800978 0 4.6918065626240784e-05 2.0001165663202367 0 0.02061303860929789 2.1050531379546902 0 0.01654761612680776 1.9505887683800978 0 2.4345357355852817e-05 1.8571621476080236 0 4.6918065626240784e-05 2.0001165663202367 0 0.01654761612680776 1.9505887683800978 0 4.6918065626240784e-05 2.0001165663202367 0 0.02061303860929789 2.1050531379546902 0 0.0017602151932807131 2.1603223025697438 0 0.02061303860929789 2.1050531379546902 0 0.01654761612680776 1.9505887683800978 0 0.024047307620208715 1.9763671618853751 0 -1.654039555745092e-05 2.1428744822699399 0 -0.0036221581261761037 2.2793328340042964 0 -5.0955764159068568e-06 2.2857401384943339 0 -1.654039555745092e-05 2.1428744822699399 0 0.0017602151932807131 2.1603223025697438 0 -0.0036221581261761037 2.2793328340042964 0 4.6918065626240784e-05 2.0001165663202367 0 -1.654039555745092e-05 2.1428744822699399 0 0.0017602151932807131 2.1603223025697438 0 0.0017602151932807131 2.1603223025697438 0 -0.0036221581261761037 2.2793328340042964 0 0.0059160197432665358 2.2196500278803635 0 0.02061303860929789 2.1050531379546902 0 0.0017602151932807131 2.1603223025697438 0 0.0059160197432665358 2.2196500278803635 0 -0.0036221581261761037 2.2793328340042964 0 0.0059160197432665358 2.2196500278803635 0 -0.0018145998730730482 2.3412958198600937 0 0.0059160197432665358 2.2196500278803635 0 0.0091849086868911693 2.2660927680814154 0 0.023956027971060414 2.1576771440827471 0 0.0059160197432665358 2.2196500278803635 0 0.0091849086868911693 2.2660927680814154 0 -0.0018145998730730482 2.3412958198600937 0 0.0091849086868911693 2.2660927680814154 0 -0.0018145998730730482 2.3412958198600937 0 0.00075804704733265264 2.3756185524579059 0 0.02061303860929789 2.1050531379546902 0 0.024047307620208715 1.9763671618853751 0 0.023956027971060414 2.1576771440827471 0 0.02061303860929789 2.1050531379546902 0 0.0059160197432665358 2.2196500278803635 0 0.023956027971060414 2.1576771440827471 0 0.0091849086868911693 2.2660927680814154 0 0.023956027971060414 2.1576771440827471 0 0.0231657317784341 2.1910599604547452 0 0.023956027971060414 2.1576771440827471 0 0.026997708941524045 2.0013303934849294 0 0.0231657317784341 2.1910599604547452 0 0.024047307620208715 1.9763671618853751 0 0.023956027971060414 2.1576771440827471 0 0.026997708941524045 2.0013303934849294 0 0.026997708941524045 2.0013303934849294 0 0.0231657317784341 2.1910599604547452 0 0.026329652681624988 2.0221761337024722 0 0.0231657317784341 2.1910599604547452 0 0.010564008313100127 2.2954420999703116 0 0.020717277406667109 2.2128071892862997 0 0.0231657317784341 2.1910599604547452 0 0.020717277406667109 2.2128071892862997 0 0.026329652681624988 2.0221761337024722 0 0.0091849086868911693 2.2660927680814154 0 0.00075804704733265264 2.3756185524579059 0 0.010564008313100127 2.2954420999703116 0 0.0091849086868911693 2.2660927680814154 0 0.0231657317784341 2.1910599604547452 0 0.010564008313100127 2.2954420999703116 0 0.00075804704733265264 2.3756185524579059 0 0.010564008313100127 2.2954420999703116 0 0.002104848916612384 2.4028374330963147 0 0.010564008313100127 2.2954420999703116 0 0.010137762235794403 2.3168727814913632 0 0.002104848916612384 2.4028374330963147 0 0.010137762235794403 2.3168727814913632 0 0.002104848916612384 2.4028374330963147 0 0.0029996009095451222 2.4176343667403968 0 0.010564008313100127 2.2954420999703116 0 0.010137762235794403 2.3168727814913632 0 0.020717277406667109 2.2128071892862997 0 0.010137762235794403 2.3168727814913632 0 0.017634489462461073 2.2270477938046609 0 0.0094219988755305656 2.3250421456191113 0 0.010137762235794403 2.3168727814913632 0 0.0029996009095451222 2.4176343667403968 0 0.0094219988755305656 2.3250421456191113 0 0.020717277406667109 2.2128071892862997 0 0.017634489462461073 2.2270477938046609 0 0.023878626226401196 2.0305772855121877 0 0.020717277406667109 2.2128071892862997 0 0.023878626226401196 2.0305772855121877 0 0.026329652681624988 2.0221761337024722 0 0.010137762235794403 2.3168727814913632 0 0.020717277406667109 2.2128071892862997 0 0.017634489462461073 2.2270477938046609 0 0.017634489462461073 2.2270477938046609 0 0.023878626226401196 2.0305772855121877 0 0.020330631683813848 2.0466906858911775 0 0.023878626226401196 2.0305772855121877 0 0.025414584509008711 1.8531048206620511 0 0.020330631683813848 2.0466906858911775 0 0.023878626226401196 2.0305772855121877 0 0.028673245649244321 1.8454346147834895 0 0.025414584509008711 1.8531048206620511 0 0.023878626226401196 2.0305772855121877 0 0.028673245649244321 1.8454346147834895 0 0.026329652681624988 2.0221761337024722 0 0.028673245649244321 1.8454346147834895 0 0.025414584509008711 1.8531048206620511 0 0.029254479817683948 1.669586168916507 0 0.025414584509008711 1.8531048206620511 0 0.029254479817683948 1.669586168916507 0 0.025291005566449268 1.6727532552179687 0 0.027984446236690455 1.4926054490808816 0 0.029254479817683948 1.669586168916507 0 0.025291005566449268 1.6727532552179687 0 0.027984446236690455 1.4926054490808816 0 0.031350832746652395 1.4922338402690012 0 0.029254479817683948 1.669586168916507 0 0.031350832746652395 1.4922338402690012 0 0.029254479817683948 1.669586168916507 0 0.031676925960053996 1.6659250444656883 0 0.028673245649244321 1.8454346147834895 0 0.029254479817683948 1.669586168916507 0 0.031676925960053996 1.6659250444656883 0 0.031350832746652395 1.4922338402690012 0 0.032422369091306816 1.4908375091342072 0 0.031676925960053996 1.6659250444656883 0 0.032422369091306816 1.4908375091342072 0 0.031243655667361703 1.6581859511785371 0 0.031676925960053996 1.6659250444656883 0 0.031243655667361703 1.6581859511785371 0 0.031676925960053996 1.6659250444656883 0 0.029966750401811133 1.84293651105471 0 0.026997708941524045 2.0013303934849294 0 0.029966750401811133 1.84293651105471 0 0.026329652681624988 2.0221761337024722 0 0.028673245649244321 1.8454346147834895 0 0.029966750401811133 1.84293651105471 0 0.026329652681624988 2.0221761337024722 0 0.028673245649244321 1.8454346147834895 0 0.031676925960053996 1.6659250444656883 0 0.029966750401811133 1.84293651105471 0 -4.7049272330516957e-06 2.9998774067978053 0 -0.0059193023069537987 2.8947047450405026 0 -4.5615662923676383e-06 2.9998764501263406 0 -4.7049272330516957e-06 2.9998774067978053 0 -0.0059193023069537987 2.8947047450405026 0 -0.0051652330028779782 2.8932865890523458 0 -0.0059193023069537987 2.8947047450405026 0 -0.0051652330028779782 2.8932865890523458 0 -0.0085985604919209969 2.785387269497305 0 -4.7049272330516957e-06 2.9998774067978053 0 -0.0051652330028779782 2.8932865890523458 0 -3.8966670399470767e-06 2.9998480523637951 0 -0.0051652330028779782 2.8932865890523458 0 -3.8966670399470767e-06 2.9998480523637951 0 -0.0029024981455366386 2.9001404011278464 0 -2.2859753135728409e-07 2.9999281461338274 0 -7.0277589347910053e-06 2.8571660391033538 0 -0.0029024981455366386 2.9001404011278464 0 -3.8966670399470767e-06 2.9998480523637951 0 -2.2859753135728409e-07 2.9999281461338274 0 -0.0029024981455366386 2.9001404011278464 0 -7.0277589347910053e-06 2.8571660391033538 0 -0.0029024981455366386 2.9001404011278464 0 -0.0056302027600746126 2.7813764231625098 0 -0.0051652330028779782 2.8932865890523458 0 -0.0029024981455366386 2.9001404011278464 0 -0.0056302027600746126 2.7813764231625098 0 -7.0277589347910053e-06 2.8571660391033538 0 -0.0056302027600746126 2.7813764231625098 0 -8.1752221231777041e-06 2.7142906491956729 0 -0.0056302027600746126 2.7813764231625098 0 -8.1752221231777041e-06 2.7142906491956729 0 -0.0045350870131304379 2.6556884728506676 0 -8.1752221231777041e-06 2.7142906491956729 0 -0.0045350870131304379 2.6556884728506676 0 -8.8429852535996896e-06 2.5714406556627867 0 -0.0056302027600746126 2.7813764231625098 0 -0.0045350870131304379 2.6556884728506676 0 -0.0086647150199430853 2.6666954150127453 0 -0.0051652330028779782 2.8932865890523458 0 -0.0056302027600746126 2.7813764231625098 0 -0.0085985604919209969 2.785387269497305 0 -0.0056302027600746126 2.7813764231625098 0 -0.0086647150199430853 2.6666954150127453 0 -0.0085985604919209969 2.785387269497305 0 -0.0059193023069537987 2.8947047450405026 0 -0.0085985604919209969 2.785387269497305 0 -0.0090192011756209008 2.7924871071666475 0 -0.0085985604919209969 2.785387269497305 0 -0.01014324547199065 2.6812251983792788 0 -0.0090192011756209008 2.7924871071666475 0 -0.0086647150199430853 2.6666954150127453 0 -0.0085985604919209969 2.785387269497305 0 -0.01014324547199065 2.6812251983792788 0 -0.01014324547199065 2.6812251983792788 0 -0.0092340900552586435 2.5593900720095517 0 -0.0089534934943028208 2.5824939873711958 0 -0.0092340900552586435 2.5593900720095517 0 -0.0065387536926005416 2.4671668895535008 0 -0.0089534934943028208 2.5824939873711958 0 -0.0092340900552586435 2.5593900720095517 0 -0.0065215076680219192 2.5282113887749542 0 -0.0069889389644508491 2.4291558982607624 0 -0.0086647150199430853 2.6666954150127453 0 -0.0092340900552586435 2.5593900720095517 0 -0.0065215076680219192 2.5282113887749542 0 -0.0086647150199430853 2.6666954150127453 0 -0.01014324547199065 2.6812251983792788 0 -0.0092340900552586435 2.5593900720095517 0 -0.0045350870131304379 2.6556884728506676 0 -0.0086647150199430853 2.6666954150127453 0 -0.0065215076680219192 2.5282113887749542 0 -0.0045350870131304379 2.6556884728506676 0 -8.8429852535996896e-06 2.5714406556627867 0 -0.0065215076680219192 2.5282113887749542 0 -8.8429852535996896e-06 2.5714406556627867 0 -0.0065215076680219192 2.5282113887749542 0 -1.0323468781921304e-05 2.4285899663139126 0 -0.0065215076680219192 2.5282113887749542 0 -0.0043841530385530514 2.3904916493536663 0 -0.0069889389644508491 2.4291558982607624 0 -0.0065215076680219192 2.5282113887749542 0 -0.0043841530385530514 2.3904916493536663 0 -1.0323468781921304e-05 2.4285899663139126 0 -0.0043841530385530514 2.3904916493536663 0 -1.0323468781921304e-05 2.4285899663139126 0 -5.0955764159068568e-06 2.2857401384943339 0 -0.0036221581261761037 2.2793328340042964 0 -0.0043841530385530514 2.3904916493536663 0 -5.0955764159068568e-06 2.2857401384943339 0 -0.0036221581261761037 2.2793328340042964 0 -0.0043841530385530514 2.3904916493536663 0 -0.0069889389644508491 2.4291558982607624 0 -0.0036221581261761037 2.2793328340042964 0 -0.0018145998730730482 2.3412958198600937 0 -0.0069889389644508491 2.4291558982607624 0 -0.0092340900552586435 2.5593900720095517 0 -0.0069889389644508491 2.4291558982607624 0 -0.0065387536926005416 2.4671668895535008 0 -0.0018145998730730482 2.3412958198600937 0 -0.0069889389644508491 2.4291558982607624 0 -0.0065387536926005416 2.4671668895535008 0 -0.0018145998730730482 2.3412958198600937 0 0.00075804704733265264 2.3756185524579059 0 -0.0065387536926005416 2.4671668895535008 0 0.00075804704733265264 2.3756185524579059 0 -0.0065387536926005416 2.4671668895535008 0 -0.0047086415007730111 2.4901129641331972 0 -0.0065387536926005416 2.4671668895535008 0 -0.0047086415007730111 2.4901129641331972 0 -0.0089534934943028208 2.5824939873711958 0 0.00075804704733265264 2.3756185524579059 0 -0.0047086415007730111 2.4901129641331972 0 0.002104848916612384 2.4028374330963147 0 -0.0047086415007730111 2.4901129641331972 0 0.002104848916612384 2.4028374330963147 0 -0.0029461160989038265 2.5070206769641801 0 0.002104848916612384 2.4028374330963147 0 0.0029996009095451222 2.4176343667403968 0 -0.0029461160989038265 2.5070206769641801 0 0.0029996009095451222 2.4176343667403968 0 -0.0029461160989038265 2.5070206769641801 0 -0.0015629426223697567 2.5179982088802935 0 -0.0029461160989038265 2.5070206769641801 0 -0.0055121033766885224 2.6084797161612467 0 -0.0015629426223697567 2.5179982088802935 0 -0.0047086415007730111 2.4901129641331972 0 -0.0029461160989038265 2.5070206769641801 0 -0.0073562619239620434 2.5974989025483346 0 -0.0029461160989038265 2.5070206769641801 0 -0.0073562619239620434 2.5974989025483346 0 -0.0055121033766885224 2.6084797161612467 0 -0.0055121033766885224 2.6084797161612467 0 -0.0079530407060663805 2.7012714140762575 0 -0.0062062248060219382 2.7098263588461453 0 -0.0073562619239620434 2.5974989025483346 0 -0.0095316069820179546 2.6922129171988982 0 -0.0079530407060663805 2.7012714140762575 0 -0.0073562619239620434 2.5974989025483346 0 -0.0055121033766885224 2.6084797161612467 0 -0.0079530407060663805 2.7012714140762575 0 -0.0073562619239620434 2.5974989025483346 0 -0.0089534934943028208 2.5824939873711958 0 -0.0095316069820179546 2.6922129171988982 0 -0.0047086415007730111 2.4901129641331972 0 -0.0073562619239620434 2.5974989025483346 0 -0.0089534934943028208 2.5824939873711958 0 -0.01014324547199065 2.6812251983792788 0 -0.0089534934943028208 2.5824939873711958 0 -0.0095316069820179546 2.6922129171988982 0 -0.01014324547199065 2.6812251983792788 0 -0.0090192011756209008 2.7924871071666475 0 -0.0095316069820179546 2.6922129171988982 0 -0.0090192011756209008 2.7924871071666475 0 -0.0081621460424644854 2.7968097180614131 0 -0.0056973903252411241 2.8966649792936399 0 -0.0090192011756209008 2.7924871071666475 0 -0.0095316069820179546 2.6922129171988982 0 -0.0081621460424644854 2.7968097180614131 0 -0.0095316069820179546 2.6922129171988982 0 -0.0079530407060663805 2.7012714140762575 0 -0.0081621460424644854 2.7968097180614131 0 -0.0079530407060663805 2.7012714140762575 0 -0.006694363398735143 2.8030743769735835 0 -0.0081621460424644854 2.7968097180614131 0 -0.0079530407060663805 2.7012714140762575 0 -0.006694363398735143 2.8030743769735835 0 -0.0062062248060219382 2.7098263588461453 0 -0.006694363398735143 2.8030743769735835 0 -0.0081621460424644854 2.7968097180614131 0 -0.0048934514924104163 2.9000070759037646 0 -0.0081621460424644854 2.7968097180614131 0 -0.0048934514924104163 2.9000070759037646 0 -0.0056973903252411241 2.8966649792936399 0 -0.006694363398735143 2.8030743769735835 0 -0.0048934514924104163 2.9000070759037646 0 -0.0038775960386355683 2.9044417278403922 0 -0.0048934514924104163 2.9000070759037646 0 -3.1860111719703263e-06 2.9998853364169955 0 -0.0038775960386355683 2.9044417278403922 0 -0.0048934514924104163 2.9000070759037646 0 -3.1860111719703263e-06 2.9998853364169955 0 -3.9164309518828155e-06 2.9998824767431693 0 -0.0048934514924104163 2.9000070759037646 0 -3.9164309518828155e-06 2.9998824767431693 0 -0.0056973903252411241 2.8966649792936399 0 -3.9164309518828155e-06 2.9998824767431693 0 -0.0056973903252411241 2.8966649792936399 0 -4.5615662923676383e-06 2.9998764501263406 0 -0.0059193023069537987 2.8947047450405026 0 -0.0090192011756209008 2.7924871071666475 0 -0.0056973903252411241 2.8966649792936399 0 -0.0059193023069537987 2.8947047450405026 0 -0.0056973903252411241 2.8966649792936399 0 -4.5615662923676383e-06 2.9998764501263406 0 -0.0015699287265980161 2.9199055116639792 0 -1.8609961003174143e-06 2.9998896610535808 0 -1.1735765547755531e-06 2.9998908725061684 0 -0.0015699287265980161 2.9199055116639792 0 -0.0026979425404002832 2.8898635124409826 0 -1.8609961003174143e-06 2.9998896610535808 0 -0.0015699287265980161 2.9199055116639792 0 -0.0026979425404002832 2.8898635124409826 0 -0.0024930373530955589 2.8322719216310932 0 -0.0026979425404002832 2.8898635124409826 0 -1.8609961003174143e-06 2.9998896610535808 0 -0.0026715675264797015 2.9183989701028872 0 -1.8609961003174143e-06 2.9998896610535808 0 -2.209408944965132e-06 2.9998880401842332 0 -0.0026715675264797015 2.9183989701028872 0 -2.209408944965132e-06 2.9998880401842332 0 -0.0038775960386355683 2.9044417278403922 0 -0.0026715675264797015 2.9183989701028872 0 -3.1860111719703263e-06 2.9998853364169955 0 -2.209408944965132e-06 2.9998880401842332 0 -0.0038775960386355683 2.9044417278403922 0 -0.0026979425404002832 2.8898635124409826 0 -0.0026715675264797015 2.9183989701028872 0 -0.0048984778285296607 2.8187649806704367 0 -0.0038775960386355683 2.9044417278403922 0 -0.0026715675264797015 2.9183989701028872 0 -0.0048984778285296607 2.8187649806704367 0 -0.006694363398735143 2.8030743769735835 0 -0.0038775960386355683 2.9044417278403922 0 -0.0048984778285296607 2.8187649806704367 0 -0.006694363398735143 2.8030743769735835 0 -0.0048984778285296607 2.8187649806704367 0 -0.0062062248060219382 2.7098263588461453 0 -0.0048984778285296607 2.8187649806704367 0 -0.0062062248060219382 2.7098263588461453 0 -0.004739500239644266 2.7219039626165809 0 -0.0048984778285296607 2.8187649806704367 0 -0.004739500239644266 2.7219039626165809 0 -0.0038070393830466022 2.7803964325728745 0 -0.004739500239644266 2.7219039626165809 0 -0.0038070393830466022 2.7803964325728745 0 -0.0033200648612042357 2.671659745577732 0 -0.0026979425404002832 2.8898635124409826 0 -0.0048984778285296607 2.8187649806704367 0 -0.0038070393830466022 2.7803964325728745 0 -0.0026979425404002832 2.8898635124409826 0 -0.0038070393830466022 2.7803964325728745 0 -0.0024930373530955589 2.8322719216310932 0 -0.0038070393830466022 2.7803964325728745 0 -0.0026129460219498427 2.7275456896707637 0 -0.0033200648612042357 2.671659745577732 0 -0.0038070393830466022 2.7803964325728745 0 -0.0024930373530955589 2.8322719216310932 0 -0.0026129460219498427 2.7275456896707637 0 -0.0026129460219498427 2.7275456896707637 0 -0.0016147343478868023 2.6204775570909402 0 -0.0033200648612042357 2.671659745577732 0 -0.0016147343478868023 2.6204775570909402 0 -0.0033200648612042357 2.671659745577732 0 -0.001258076688446968 2.5635332705643958 0 -0.0033200648612042357 2.671659745577732 0 -0.0036899091518663705 2.6148768441111487 0 -0.001258076688446968 2.5635332705643958 0 -0.0062062248060219382 2.7098263588461453 0 -0.004739500239644266 2.7219039626165809 0 -0.0036899091518663705 2.6148768441111487 0 -0.004739500239644266 2.7219039626165809 0 -0.0033200648612042357 2.671659745577732 0 -0.0036899091518663705 2.6148768441111487 0 -0.0055121033766885224 2.6084797161612467 0 -0.0062062248060219382 2.7098263588461453 0 -0.0036899091518663705 2.6148768441111487 0 -0.0055121033766885224 2.6084797161612467 0 -0.0036899091518663705 2.6148768441111487 0 -0.0015629426223697567 2.5179982088802935 0 -0.0036899091518663705 2.6148768441111487 0 -0.00032451633282418359 2.5135405931809545 0 -0.0015629426223697567 2.5179982088802935 0 -0.0036899091518663705 2.6148768441111487 0 -0.00032451633282418359 2.5135405931809545 0 -0.001258076688446968 2.5635332705643958 0 0.0029996009095451222 2.4176343667403968 0 -0.0015629426223697567 2.5179982088802935 0 0.0039256846850006478 2.4141573093559683 0 -0.00032451633282418359 2.5135405931809545 0 -0.0015629426223697567 2.5179982088802935 0 0.0039256846850006478 2.4141573093559683 0 -0.00032451633282418359 2.5135405931809545 0 0.0020473561063445037 2.4560265152948695 0 0.0039256846850006478 2.4141573093559683 0 -0.00032451633282418359 2.5135405931809545 0 0.0020473561063445037 2.4560265152948695 0 -0.001258076688446968 2.5635332705643958 0 -0.0016147343478868023 2.6204775570909402 0 -0.001258076688446968 2.5635332705643958 0 0.00049396410166077534 2.5104327662791355 0 0.0020473561063445037 2.4560265152948695 0 -0.001258076688446968 2.5635332705643958 0 0.00049396410166077534 2.5104327662791355 0 0.0020473561063445037 2.4560265152948695 0 0.00049396410166077534 2.5104327662791355 0 0.0032904181921250566 2.4060811903766468 0 0.00049396410166077534 2.5104327662791355 0 0.0013980468511669182 2.4567229290265109 0 0.0032904181921250566 2.4060811903766468 0 -0.0016147343478868023 2.6204775570909402 0 0.00049396410166077534 2.5104327662791355 0 -0.00035150070131962225 2.5688034824667905 0 0.00049396410166077534 2.5104327662791355 0 -0.00035150070131962225 2.5688034824667905 0 0.0013980468511669182 2.4567229290265109 0 -0.00035150070131962225 2.5688034824667905 0 0.0013980468511669182 2.4567229290265109 0 0.00030561678872775594 2.5088109395904339 0 0.0013980468511669182 2.4567229290265109 0 0.00030561678872775594 2.5088109395904339 0 0.001270483448758194 2.4015634650208004 0 1.261412733842409e-05 2.4575220001633618 0 0.00030561678872775594 2.5088109395904339 0 0.001270483448758194 2.4015634650208004 0 -9.146298049492271e-06 2.5683789951260163 0 0.00030561678872775594 2.5088109395904339 0 -0.0004445789402715382 2.6217895921638226 0 1.261412733842409e-05 2.4575220001633618 0 -9.146298049492271e-06 2.5683789951260163 0 0.00030561678872775594 2.5088109395904339 0 -0.00035150070131962225 2.5688034824667905 0 0.00030561678872775594 2.5088109395904339 0 -0.0004445789402715382 2.6217895921638226 0 -9.146298049492271e-06 2.5683789951260163 0 -0.0004445789402715382 2.6217895921638226 0 -1.9347984971526209e-05 2.6769927954226764 0 -0.0004445789402715382 2.6217895921638226 0 -1.9347984971526209e-05 2.6769927954226764 0 -0.00079778771460852047 2.7302946011234344 0 -0.0004445789402715382 2.6217895921638226 0 -0.0013904479442615949 2.6759091919078895 0 -0.00079778771460852047 2.7302946011234344 0 -0.00035150070131962225 2.5688034824667905 0 -0.0004445789402715382 2.6217895921638226 0 -0.0013904479442615949 2.6759091919078895 0 -0.0016147343478868023 2.6204775570909402 0 -0.00035150070131962225 2.5688034824667905 0 -0.0013904479442615949 2.6759091919078895 0 -0.0026129460219498427 2.7275456896707637 0 -0.0016147343478868023 2.6204775570909402 0 -0.0013904479442615949 2.6759091919078895 0 -0.0024930373530955589 2.8322719216310932 0 -0.0026129460219498427 2.7275456896707637 0 -0.001708973407424744 2.7826708912189719 0 -0.0026129460219498427 2.7275456896707637 0 -0.0013904479442615949 2.6759091919078895 0 -0.001708973407424744 2.7826708912189719 0 -0.0024930373530955589 2.8322719216310932 0 -0.001708973407424744 2.7826708912189719 0 -0.0012745224965864531 2.8997193033961839 0 -0.001708973407424744 2.7826708912189719 0 -0.00077612162530834889 2.8366253296214614 0 -0.0012745224965864531 2.8997193033961839 0 -0.0013904479442615949 2.6759091919078895 0 -0.001708973407424744 2.7826708912189719 0 -0.00079778771460852047 2.7302946011234344 0 -0.001708973407424744 2.7826708912189719 0 -0.00079778771460852047 2.7302946011234344 0 -0.00077612162530834889 2.8366253296214614 0 -0.00079778771460852047 2.7302946011234344 0 -1.8732497699778589e-05 2.7844975923693513 0 -0.00077612162530834889 2.8366253296214614 0 -1.9347984971526209e-05 2.6769927954226764 0 -0.00079778771460852047 2.7302946011234344 0 -1.8732497699778589e-05 2.7844975923693513 0 -1.8732497699778589e-05 2.7844975923693513 0 -0.00077612162530834889 2.8366253296214614 0 6.6554615033574547e-07 2.9031498157607896 0 -0.00077612162530834889 2.8366253296214614 0 -0.00048441842386294726 2.927610290058114 0 -0.0012745224965864531 2.8997193033961839 0 -0.00077612162530834889 2.8366253296214614 0 -0.00048441842386294726 2.927610290058114 0 6.6554615033574547e-07 2.9031498157607896 0 -0.00048441842386294726 2.927610290058114 0 6.6554615033574547e-07 2.9031498157607896 0 -3.827030779818123e-07 2.9998918869866453 0 6.6554615033574547e-07 2.9031498157607896 0 -3.827030779818123e-07 2.9998918869866453 0 3.9679275174886556e-07 2.9998918898253968 0 -0.00048441842386294726 2.927610290058114 0 -3.827030779818123e-07 2.9998918869866453 0 -4.6276127123952154e-07 2.99989162599381 0 -0.00048441842386294726 2.927610290058114 0 -4.6276127123952154e-07 2.99989162599381 0 -0.0012745224965864531 2.8997193033961839 0 -4.6276127123952154e-07 2.99989162599381 0 -0.0012745224965864531 2.8997193033961839 0 -1.1735765547755531e-06 2.9998908725061684 0 -0.0015699287265980161 2.9199055116639792 0 -0.0024930373530955589 2.8322719216310932 0 -0.0012745224965864531 2.8997193033961839 0 -0.0015699287265980161 2.9199055116639792 0 -0.0012745224965864531 2.8997193033961839 0 -1.1735765547755531e-06 2.9998908725061684 0 0.016974974705723161 1.8176647906640531 0 0.014509801980797028 2.0297884610230343 0 0.02051675746155425 1.8860189771976876 0 0.014509801980797028 2.0297884610230343 0 0.010730584394533057 2.0892167334101379 0 0.012037869357539383 1.8980817554472804 0 0.016974974705723161 1.8176647906640531 0 0.01451043075469163 1.7069878069825062 0 0.012037869357539383 1.8980817554472804 0 0.016974974705723161 1.8176647906640531 0 0.014509801980797028 2.0297884610230343 0 0.012037869357539383 1.8980817554472804 0 0.01451043075469163 1.7069878069825062 0 0.018239608283413571 1.605846561097116 0 0.013784597116491997 1.5027101406863188 0 0.018232571249881983 1.3941642464698505 0 0.018239608283413571 1.605846561097116 0 0.013784597116491997 1.5027101406863188 0 0.016974974705723161 1.8176647906640531 0 0.01451043075469163 1.7069878069825062 0 0.018239608283413571 1.605846561097116 0 0.016974974705723161 1.8176647906640531 0 0.018239608283413571 1.605846561097116 0 0.021091043290455008 1.6957615441344107 0 0.021091043290455008 1.6957615441344107 0 0.025291005566449268 1.6727532552179687 0 0.02051675746155425 1.8860189771976876 0 0.023007389445256744 1.4963987647600021 0 0.018239608283413571 1.605846561097116 0 0.021091043290455008 1.6957615441344107 0 0.023007389445256744 1.4963987647600021 0 0.021091043290455008 1.6957615441344107 0 0.025291005566449268 1.6727532552179687 0 0.023007389445256744 1.4963987647600021 0 0.027984446236690455 1.4926054490808816 0 0.025291005566449268 1.6727532552179687 0 0.025414584509008711 1.8531048206620511 0 0.025291005566449268 1.6727532552179687 0 0.02051675746155425 1.8860189771976876 0 0.016974974705723161 1.8176647906640531 0 0.021091043290455008 1.6957615441344107 0 0.02051675746155425 1.8860189771976876 0 0.014509801980797028 2.0297884610230343 0 0.02051675746155425 1.8860189771976876 0 0.016521256696240973 2.08313142987907 0 0.02051675746155425 1.8860189771976876 0 0.020330631683813848 2.0466906858911775 0 0.016521256696240973 2.08313142987907 0 0.025414584509008711 1.8531048206620511 0 0.02051675746155425 1.8860189771976876 0 0.020330631683813848 2.0466906858911775 0 0.017634489462461073 2.2270477938046609 0 0.020330631683813848 2.0466906858911775 0 0.014316603870045973 2.2364171036047646 0 0.017634489462461073 2.2270477938046609 0 0.014316603870045973 2.2364171036047646 0 0.0094219988755305656 2.3250421456191113 0 0.014316603870045973 2.2364171036047646 0 0.0090603124608106666 2.316069797218185 0 0.01099156937073837 2.2425134856511471 0 0.020330631683813848 2.0466906858911775 0 0.014316603870045973 2.2364171036047646 0 0.016521256696240973 2.08313142987907 0 0.014316603870045973 2.2364171036047646 0 0.016521256696240973 2.08313142987907 0 0.01099156937073837 2.2425134856511471 0 0.0029996009095451222 2.4176343667403968 0 0.0094219988755305656 2.3250421456191113 0 0.0039256846850006478 2.4141573093559683 0 0.0094219988755305656 2.3250421456191113 0 0.0090603124608106666 2.316069797218185 0 0.0039256846850006478 2.4141573093559683 0 0.014316603870045973 2.2364171036047646 0 0.0094219988755305656 2.3250421456191113 0 0.0090603124608106666 2.316069797218185 0 0.0090603124608106666 2.316069797218185 0 0.0039256846850006478 2.4141573093559683 0 0.0063763076989348608 2.349030029239771 0 0.0020473561063445037 2.4560265152948695 0 0.0039256846850006478 2.4141573093559683 0 0.0063763076989348608 2.349030029239771 0 0.0090603124608106666 2.316069797218185 0 0.0063763076989348608 2.349030029239771 0 0.01099156937073837 2.2425134856511471 0 0.0063763076989348608 2.349030029239771 0 0.0060570768042052681 2.3234972441552797 0 0.0032904181921250566 2.4060811903766468 0 0.0063763076989348608 2.349030029239771 0 0.0060570768042052681 2.3234972441552797 0 0.01099156937073837 2.2425134856511471 0 0.0020473561063445037 2.4560265152948695 0 0.0063763076989348608 2.349030029239771 0 0.0032904181921250566 2.4060811903766468 0 0.014509801980797028 2.0297884610230343 0 0.016521256696240973 2.08313142987907 0 0.01099156937073837 2.2425134856511471 0 0.0060570768042052681 2.3234972441552797 0 0.01099156937073837 2.2425134856511471 0 0.0077052402361709738 2.2462147523684362 0 0.01099156937073837 2.2425134856511471 0 0.010730584394533057 2.0892167334101379 0 0.0077052402361709738 2.2462147523684362 0 0.014509801980797028 2.0297884610230343 0 0.01099156937073837 2.2425134856511471 0 0.010730584394533057 2.0892167334101379 0 0.010730584394533057 2.0892167334101379 0 0.0077052402361709738 2.2462147523684362 0 0.0077604183862394803 2.0692621020931057 0 0.0077052402361709738 2.2462147523684362 0 0.0046051553823617227 2.2484075055386374 0 0.0077604183862394803 2.0692621020931057 0 0.0077052402361709738 2.2462147523684362 0 0.0046051553823617227 2.2484075055386374 0 0.0037372337863479264 2.3429716081710521 0 0.0046051553823617227 2.2484075055386374 0 0.0077604183862394803 2.0692621020931057 0 0.0039085874416601744 2.0647344869366906 0 0.0013980468511669182 2.4567229290265109 0 0.0032904181921250566 2.4060811903766468 0 0.0037372337863479264 2.3429716081710521 0 0.0060570768042052681 2.3234972441552797 0 0.0032904181921250566 2.4060811903766468 0 0.0037372337863479264 2.3429716081710521 0 0.0060570768042052681 2.3234972441552797 0 0.0077052402361709738 2.2462147523684362 0 0.0037372337863479264 2.3429716081710521 0 0.0046051553823617227 2.2484075055386374 0 0.0037372337863479264 2.3429716081710521 0 0.0023146901372144216 2.315202192076987 0 0.0013980468511669182 2.4567229290265109 0 0.0037372337863479264 2.3429716081710521 0 0.001270483448758194 2.4015634650208004 0 0.0037372337863479264 2.3429716081710521 0 0.001270483448758194 2.4015634650208004 0 0.0023146901372144216 2.315202192076987 0 0.0023146901372144216 2.315202192076987 0 -4.0069455616779873e-06 2.3443201918199783 0 0.0014604135454923057 2.2494033763560242 0 0.001270483448758194 2.4015634650208004 0 0.0023146901372144216 2.315202192076987 0 -4.0069455616779873e-06 2.3443201918199783 0 1.261412733842409e-05 2.4575220001633618 0 0.001270483448758194 2.4015634650208004 0 -4.0069455616779873e-06 2.3443201918199783 0 0.0046051553823617227 2.2484075055386374 0 0.0039085874416601744 2.0647344869366906 0 0.0014604135454923057 2.2494033763560242 0 0.0046051553823617227 2.2484075055386374 0 0.0023146901372144216 2.315202192076987 0 0.0014604135454923057 2.2494033763560242 0 -4.0069455616779873e-06 2.3443201918199783 0 0.0014604135454923057 2.2494033763560242 0 -0.0015668881826655359 2.2493898694460062 0 0.0014604135454923057 2.2494033763560242 0 -5.6464483448749688e-05 2.0641264800241093 0 -0.0015668881826655359 2.2493898694460062 0 0.0039085874416601744 2.0647344869366906 0 0.0014604135454923057 2.2494033763560242 0 -5.6464483448749688e-05 2.0641264800241093 0 0.0039085874416601744 2.0647344869366906 0 -5.6464483448749688e-05 2.0641264800241093 0 0.0022797947654346132 1.8787717161832282 0 0.0022797947654346132 1.8787717161832282 0 0.0070195220160577084 1.8795174169263844 0 0.0050868666503200233 1.6944088741578254 0 0.0039085874416601744 2.0647344869366906 0 0.0022797947654346132 1.8787717161832282 0 0.0070195220160577084 1.8795174169263844 0 0.0077604183862394803 2.0692621020931057 0 0.0039085874416601744 2.0647344869366906 0 0.0070195220160577084 1.8795174169263844 0 0.0070195220160577084 1.8795174169263844 0 0.012037869357539383 1.8980817554472804 0 0.010293930955745385 1.6990391014465691 0 0.0077604183862394803 2.0692621020931057 0 0.0070195220160577084 1.8795174169263844 0 0.012037869357539383 1.8980817554472804 0 0.010730584394533057 2.0892167334101379 0 0.0077604183862394803 2.0692621020931057 0 0.012037869357539383 1.8980817554472804 0 0.01451043075469163 1.7069878069825062 0 0.013784597116491997 1.5027101406863188 0 0.010293930955745385 1.6990391014465691 0 0.013784597116491997 1.5027101406863188 0 0.010293930955745385 1.6990391014465691 0 0.007868202097361247 1.5076764657226325 0 0.01451043075469163 1.7069878069825062 0 0.012037869357539383 1.8980817554472804 0 0.010293930955745385 1.6990391014465691 0 0.0070195220160577084 1.8795174169263844 0 0.010293930955745385 1.6990391014465691 0 0.0050868666503200233 1.6944088741578254 0 0.010293930955745385 1.6990391014465691 0 0.007868202097361247 1.5076764657226325 0 0.0050868666503200233 1.6944088741578254 0 0.007868202097361247 1.5076764657226325 0 0.0050868666503200233 1.6944088741578254 0 0.0025787491008548206 1.507694185353222 0 0.0022797947654346132 1.8787717161832282 0 0.0050868666503200233 1.6944088741578254 0 -6.3234959950177736e-05 1.6932213164141412 0 0.0050868666503200233 1.6944088741578254 0 0.0025787491008548206 1.507694185353222 0 -6.3234959950177736e-05 1.6932213164141412 0 0.0025787491008548206 1.507694185353222 0 -0.0027024604079980219 1.5076941395307897 0 -6.3234959950177736e-05 1.6932213164141412 0 -0.0027024604079980219 1.5076941395307897 0 -6.3234959950177736e-05 1.6932213164141412 0 -0.0051931143414465338 1.6930422773367426 0 -6.3234959950177736e-05 1.6932213164141412 0 -0.0051931143414465338 1.6930422773367426 0 -0.0024051630166616457 1.8786263728455199 0 -0.0027024604079980219 1.5076941395307897 0 -0.0051931143414465338 1.6930422773367426 0 -0.0080715514063679442 1.5075037509741045 0 -0.0051931143414465338 1.6930422773367426 0 -0.0080715514063679442 1.5075037509741045 0 -0.010274711067928334 1.6955004976591947 0 -0.0051931143414465338 1.6930422773367426 0 -0.010274711067928334 1.6955004976591947 0 -0.0070681492561248116 1.8788071574820491 0 -0.010274711067928334 1.6955004976591947 0 -0.012043095891567919 1.8990147498453833 0 -0.014487098751477327 1.7096461197991368 0 -0.010274711067928334 1.6955004976591947 0 -0.013849967584085087 1.5036467523968871 0 -0.014487098751477327 1.7096461197991368 0 -0.0080715514063679442 1.5075037509741045 0 -0.010274711067928334 1.6955004976591947 0 -0.013849967584085087 1.5036467523968871 0 -0.012043095891567919 1.8990147498453833 0 -0.0070681492561248116 1.8788071574820491 0 -0.0079009290816087537 2.0672439351611684 0 -0.012043095891567919 1.8990147498453833 0 -0.0079009290816087537 2.0672439351611684 0 -0.010837704305987341 2.0891786372953378 0 -0.010274711067928334 1.6955004976591947 0 -0.012043095891567919 1.8990147498453833 0 -0.0070681492561248116 1.8788071574820491 0 -0.0070681492561248116 1.8788071574820491 0 -0.0040222858840883967 2.0646458239660128 0 -0.0079009290816087537 2.0672439351611684 0 -0.0070681492561248116 1.8788071574820491 0 -0.0024051630166616457 1.8786263728455199 0 -0.0040222858840883967 2.0646458239660128 0 -0.0051931143414465338 1.6930422773367426 0 -0.0070681492561248116 1.8788071574820491 0 -0.0024051630166616457 1.8786263728455199 0 0.0022797947654346132 1.8787717161832282 0 -6.3234959950177736e-05 1.6932213164141412 0 -0.0024051630166616457 1.8786263728455199 0 -5.6464483448749688e-05 2.0641264800241093 0 -0.0024051630166616457 1.8786263728455199 0 -0.0040222858840883967 2.0646458239660128 0 -5.6464483448749688e-05 2.0641264800241093 0 0.0022797947654346132 1.8787717161832282 0 -0.0024051630166616457 1.8786263728455199 0 -5.6464483448749688e-05 2.0641264800241093 0 -0.0015668881826655359 2.2493898694460062 0 -0.0040222858840883967 2.0646458239660128 0 -0.0015668881826655359 2.2493898694460062 0 -0.00233408387766773 2.3213322608785272 0 -0.0047017806630028202 2.248382379281169 0 -0.0015668881826655359 2.2493898694460062 0 -0.0040222858840883967 2.0646458239660128 0 -0.0047017806630028202 2.248382379281169 0 1.261412733842409e-05 2.4575220001633618 0 -4.0069455616779873e-06 2.3443201918199783 0 -0.0011279112757659484 2.4096397526270188 0 -4.0069455616779873e-06 2.3443201918199783 0 -0.0015668881826655359 2.2493898694460062 0 -0.00233408387766773 2.3213322608785272 0 -4.0069455616779873e-06 2.3443201918199783 0 -0.00233408387766773 2.3213322608785272 0 -0.0011279112757659484 2.4096397526270188 0 -0.00233408387766773 2.3213322608785272 0 -0.0011279112757659484 2.4096397526270188 0 -0.0037064886911803239 2.3457683514690428 0 -0.0011279112757659484 2.4096397526270188 0 -0.0037064886911803239 2.3457683514690428 0 -0.0013385474242750934 2.4606821945589892 0 -0.00233408387766773 2.3213322608785272 0 -0.0037064886911803239 2.3457683514690428 0 -0.0047017806630028202 2.248382379281169 0 -0.0037064886911803239 2.3457683514690428 0 -0.0033138360396203223 2.4081347270366713 0 -0.0061495566131039457 2.3234532912524872 0 -0.0037064886911803239 2.3457683514690428 0 -0.0078005090421620609 2.2461761576566888 0 -0.0061495566131039457 2.3234532912524872 0 -0.0037064886911803239 2.3457683514690428 0 -0.0033138360396203223 2.4081347270366713 0 -0.0013385474242750934 2.4606821945589892 0 -0.0040222858840883967 2.0646458239660128 0 -0.0079009290816087537 2.0672439351611684 0 -0.0047017806630028202 2.248382379281169 0 -0.0037064886911803239 2.3457683514690428 0 -0.0047017806630028202 2.248382379281169 0 -0.0078005090421620609 2.2461761576566888 0 -0.0079009290816087537 2.0672439351611684 0 -0.0047017806630028202 2.248382379281169 0 -0.0078005090421620609 2.2461761576566888 0 -0.0079009290816087537 2.0672439351611684 0 -0.0078005090421620609 2.2461761576566888 0 -0.010837704305987341 2.0891786372953378 0 -0.010837704305987341 2.0891786372953378 0 -0.011099808764672717 2.2424631080384358 0 -0.014623821734821326 2.0297577189412812 0 -0.0078005090421620609 2.2461761576566888 0 -0.010837704305987341 2.0891786372953378 0 -0.011099808764672717 2.2424631080384358 0 -0.0078005090421620609 2.2461761576566888 0 -0.011099808764672717 2.2424631080384358 0 -0.0061495566131039457 2.3234532912524872 0 -0.011099808764672717 2.2424631080384358 0 -0.016629164966667432 2.0830867816619607 0 -0.014623821734821326 2.0297577189412812 0 -0.0033138360396203223 2.4081347270366713 0 -0.0064704254806287843 2.348963129286636 0 -0.0021381135263867507 2.4559815336258621 0 -0.011099808764672717 2.2424631080384358 0 -0.0061495566131039457 2.3234532912524872 0 -0.0064704254806287843 2.348963129286636 0 -0.0033138360396203223 2.4081347270366713 0 -0.0061495566131039457 2.3234532912524872 0 -0.0064704254806287843 2.348963129286636 0 -0.011099808764672717 2.2424631080384358 0 -0.0064704254806287843 2.348963129286636 0 -0.0092058013246410237 2.316049684765825 0 -0.0064704254806287843 2.348963129286636 0 -0.004897478101940524 2.3971523907578223 0 -0.0021381135263867507 2.4559815336258621 0 -0.0064704254806287843 2.348963129286636 0 -0.004897478101940524 2.3971523907578223 0 -0.0092058013246410237 2.316049684765825 0 -0.004897478101940524 2.3971523907578223 0 -0.0092058013246410237 2.316049684765825 0 -0.0096512922762426838 2.3254899515714462 0 -0.0092058013246410237 2.316049684765825 0 -0.0096512922762426838 2.3254899515714462 0 -0.014442737267649842 2.2363793462135182 0 -0.004897478101940524 2.3971523907578223 0 -0.0096512922762426838 2.3254899515714462 0 -0.0021126026820359211 2.4383260969388481 0 -0.011099808764672717 2.2424631080384358 0 -0.016629164966667432 2.0830867816619607 0 -0.014442737267649842 2.2363793462135182 0 -0.016629164966667432 2.0830867816619607 0 -0.014442737267649842 2.2363793462135182 0 -0.020266489025654057 2.0560236180426905 0 -0.011099808764672717 2.2424631080384358 0 -0.0092058013246410237 2.316049684765825 0 -0.014442737267649842 2.2363793462135182 0 -0.0096512922762426838 2.3254899515714462 0 -0.014442737267649842 2.2363793462135182 0 -0.01771841804432539 2.2270213749598193 0 -0.014442737267649842 2.2363793462135182 0 -0.020266489025654057 2.0560236180426905 0 -0.01771841804432539 2.2270213749598193 0 -0.020266489025654057 2.0560236180426905 0 -0.020442062459881113 1.8925350319392207 0 -0.025267059836368667 1.8667819228498359 0 -0.016629164966667432 2.0830867816619607 0 -0.020266489025654057 2.0560236180426905 0 -0.020442062459881113 1.8925350319392207 0 -0.016629164966667432 2.0830867816619607 0 -0.020442062459881113 1.8925350319392207 0 -0.014623821734821326 2.0297577189412812 0 -0.020442062459881113 1.8925350319392207 0 -0.021045269618905252 1.7051626273907778 0 -0.017085801303199068 1.8176369859559103 0 -0.020442062459881113 1.8925350319392207 0 -0.025166803774773816 1.6943789385249288 0 -0.025267059836368667 1.8667819228498359 0 -0.025166803774773816 1.6943789385249288 0 -0.02307562877864228 1.5044976626386266 0 -0.0280947421924275 1.5073870571916612 0 -0.02307562877864228 1.5044976626386266 0 -0.021045269618905252 1.7051626273907778 0 -0.018354733227487149 1.6058317304361327 0 -0.025166803774773816 1.6943789385249288 0 -0.02307562877864228 1.5044976626386266 0 -0.021045269618905252 1.7051626273907778 0 -0.020442062459881113 1.8925350319392207 0 -0.025166803774773816 1.6943789385249288 0 -0.021045269618905252 1.7051626273907778 0 -0.021045269618905252 1.7051626273907778 0 -0.018354733227487149 1.6058317304361327 0 -0.017085801303199068 1.8176369859559103 0 -0.02307562877864228 1.5044976626386266 0 -0.018354733227487149 1.6058317304361327 0 -0.018353949563472693 1.3941632052941166 0 -0.013849967584085087 1.5036467523968871 0 -0.018354733227487149 1.6058317304361327 0 -0.014487098751477327 1.7096461197991368 0 -0.013849967584085087 1.5036467523968871 0 -0.018354733227487149 1.6058317304361327 0 -0.018353949563472693 1.3941632052941166 0 -0.018354733227487149 1.6058317304361327 0 -0.014487098751477327 1.7096461197991368 0 -0.017085801303199068 1.8176369859559103 0 -0.012043095891567919 1.8990147498453833 0 -0.014623821734821326 2.0297577189412812 0 -0.017085801303199068 1.8176369859559103 0 -0.012043095891567919 1.8990147498453833 0 -0.014487098751477327 1.7096461197991368 0 -0.017085801303199068 1.8176369859559103 0 -0.012043095891567919 1.8990147498453833 0 -0.010837704305987341 2.0891786372953378 0 -0.014623821734821326 2.0297577189412812 0 -0.020442062459881113 1.8925350319392207 0 -0.014623821734821326 2.0297577189412812 0 -0.017085801303199068 1.8176369859559103 0 1.2094517854601279e-06 2.9998908464379497 0 0.0012803477569685792 2.8996400570265641 0 0.0016025647342669191 2.9198934854502263 0 0.0012803477569685792 2.8996400570265641 0 0.0025086093473390995 2.8322994996793618 0 0.0016025647342669191 2.9198934854502263 0 1.2094517854601279e-06 2.9998908464379497 0 0.0012803477569685792 2.8996400570265641 0 4.6755584313882224e-07 2.9998916185362567 0 0.0012803477569685792 2.8996400570265641 0 4.6755584313882224e-07 2.9998916185362567 0 0.00047068689255848459 2.9281126643079709 0 4.6755584313882224e-07 2.9998916185362567 0 3.9679275174886556e-07 2.9998918898253968 0 0.00047068689255848459 2.9281126643079709 0 6.6554615033574547e-07 2.9031498157607896 0 3.9679275174886556e-07 2.9998918898253968 0 0.00047068689255848459 2.9281126643079709 0 6.6554615033574547e-07 2.9031498157607896 0 0.00047068689255848459 2.9281126643079709 0 0.00072817939788978505 2.8380383999138874 0 0.0012803477569685792 2.8996400570265641 0 0.00047068689255848459 2.9281126643079709 0 0.00072817939788978505 2.8380383999138874 0 -1.8732497699778589e-05 2.7844975923693513 0 6.6554615033574547e-07 2.9031498157607896 0 0.00072817939788978505 2.8380383999138874 0 -1.8732497699778589e-05 2.7844975923693513 0 0.00072817939788978505 2.8380383999138874 0 0.00075855098531772778 2.7305133184797445 0 -1.9347984971526209e-05 2.6769927954226764 0 -1.8732497699778589e-05 2.7844975923693513 0 0.00075855098531772778 2.7305133184797445 0 0.00072817939788978505 2.8380383999138874 0 0.00075855098531772778 2.7305133184797445 0 0.0016832393292621987 2.7828400818440131 0 0.00075855098531772778 2.7305133184797445 0 0.0016832393292621987 2.7828400818440131 0 0.0013630279016882505 2.6757891894383072 0 0.0012803477569685792 2.8996400570265641 0 0.00072817939788978505 2.8380383999138874 0 0.0016832393292621987 2.7828400818440131 0 0.0012803477569685792 2.8996400570265641 0 0.0016832393292621987 2.7828400818440131 0 0.0025086093473390995 2.8322994996793618 0 0.0016832393292621987 2.7828400818440131 0 0.0025086093473390995 2.8322994996793618 0 0.0026093991522624501 2.7278756354420803 0 0.0016832393292621987 2.7828400818440131 0 0.0026093991522624501 2.7278756354420803 0 0.0013630279016882505 2.6757891894383072 0 0.0026093991522624501 2.7278756354420803 0 0.001613778905451464 2.62051021331136 0 0.0013630279016882505 2.6757891894383072 0 0.001613778905451464 2.62051021331136 0 0.0013630279016882505 2.6757891894383072 0 0.0003069194207321484 2.5675147613512319 0 0.0013630279016882505 2.6757891894383072 0 0.0004134075560520871 2.6231240718651323 0 0.0003069194207321484 2.5675147613512319 0 0.00075855098531772778 2.7305133184797445 0 0.0013630279016882505 2.6757891894383072 0 0.0004134075560520871 2.6231240718651323 0 -1.9347984971526209e-05 2.6769927954226764 0 0.00075855098531772778 2.7305133184797445 0 0.0004134075560520871 2.6231240718651323 0 -9.146298049492271e-06 2.5683789951260163 0 -1.9347984971526209e-05 2.6769927954226764 0 0.0004134075560520871 2.6231240718651323 0 0.0004134075560520871 2.6231240718651323 0 -0.00025351133871772904 2.5150854358376353 0 0.0003069194207321484 2.5675147613512319 0 -9.146298049492271e-06 2.5683789951260163 0 0.0004134075560520871 2.6231240718651323 0 -0.00025351133871772904 2.5150854358376353 0 1.261412733842409e-05 2.4575220001633618 0 -9.146298049492271e-06 2.5683789951260163 0 -0.00025351133871772904 2.5150854358376353 0 1.261412733842409e-05 2.4575220001633618 0 -0.0011279112757659484 2.4096397526270188 0 -0.00025351133871772904 2.5150854358376353 0 -0.0011279112757659484 2.4096397526270188 0 -0.00025351133871772904 2.5150854358376353 0 -0.0013385474242750934 2.4606821945589892 0 -0.00025351133871772904 2.5150854358376353 0 -0.0013385474242750934 2.4606821945589892 0 0.0003069194207321484 2.5675147613512319 0 0.001613778905451464 2.62051021331136 0 0.0003069194207321484 2.5675147613512319 0 -0.00047953264562019545 2.5127376858746784 0 -0.0013385474242750934 2.4606821945589892 0 0.0003069194207321484 2.5675147613512319 0 -0.00047953264562019545 2.5127376858746784 0 -0.0033138360396203223 2.4081347270366713 0 -0.0013385474242750934 2.4606821945589892 0 -0.00047953264562019545 2.5127376858746784 0 -0.0033138360396203223 2.4081347270366713 0 -0.00047953264562019545 2.5127376858746784 0 -0.0021381135263867507 2.4559815336258621 0 -0.00047953264562019545 2.5127376858746784 0 0.001281266246929254 2.5634803101576651 0 -0.0021381135263867507 2.4559815336258621 0 0.001613778905451464 2.62051021331136 0 -0.00047953264562019545 2.5127376858746784 0 0.001281266246929254 2.5634803101576651 0 0.001281266246929254 2.5634803101576651 0 -0.0021381135263867507 2.4559815336258621 0 7.9016105243001817e-05 2.501853113315053 0 -0.004897478101940524 2.3971523907578223 0 -0.0021381135263867507 2.4559815336258621 0 7.9016105243001817e-05 2.501853113315053 0 -0.004897478101940524 2.3971523907578223 0 -0.0021126026820359211 2.4383260969388481 0 7.9016105243001817e-05 2.501853113315053 0 -0.0021126026820359211 2.4383260969388481 0 0.0033291775605158577 2.5518364212909481 0 7.9016105243001817e-05 2.501853113315053 0 0.0033291775605158577 2.5518364212909481 0 7.9016105243001817e-05 2.501853113315053 0 0.0036629769174660975 2.6130380510950975 0 0.001281266246929254 2.5634803101576651 0 7.9016105243001817e-05 2.501853113315053 0 0.0036629769174660975 2.6130380510950975 0 0.0033291775605158577 2.5518364212909481 0 0.0036629769174660975 2.6130380510950975 0 0.0062103604755454275 2.6619569896569701 0 0.0036629769174660975 2.6130380510950975 0 0.0062103604755454275 2.6619569896569701 0 0.0052075204150394483 2.7217932145402326 0 0.0036629769174660975 2.6130380510950975 0 0.0033801208599888986 2.671586360754747 0 0.0052075204150394483 2.7217932145402326 0 0.001281266246929254 2.5634803101576651 0 0.0036629769174660975 2.6130380510950975 0 0.0033801208599888986 2.671586360754747 0 0.001613778905451464 2.62051021331136 0 0.001281266246929254 2.5634803101576651 0 0.0033801208599888986 2.671586360754747 0 0.0026093991522624501 2.7278756354420803 0 0.001613778905451464 2.62051021331136 0 0.0033801208599888986 2.671586360754747 0 0.0025086093473390995 2.8322994996793618 0 0.0026093991522624501 2.7278756354420803 0 0.0039011511896347908 2.7803639648465728 0 0.0026093991522624501 2.7278756354420803 0 0.0033801208599888986 2.671586360754747 0 0.0039011511896347908 2.7803639648465728 0 0.0025086093473390995 2.8322994996793618 0 0.0039011511896347908 2.7803639648465728 0 0.0027535283280542685 2.8898192457020233 0 0.0039011511896347908 2.7803639648465728 0 0.0047378168488018194 2.8286442408959993 0 0.0027535283280542685 2.8898192457020233 0 0.0033801208599888986 2.671586360754747 0 0.0039011511896347908 2.7803639648465728 0 0.0052075204150394483 2.7217932145402326 0 0.0039011511896347908 2.7803639648465728 0 0.0052075204150394483 2.7217932145402326 0 0.0047378168488018194 2.8286442408959993 0 0.0052075204150394483 2.7217932145402326 0 0.0066866773129923554 2.772766732826446 0 0.0047378168488018194 2.8286442408959993 0 0.0062103604755454275 2.6619569896569701 0 0.0052075204150394483 2.7217932145402326 0 0.0066866773129923554 2.772766732826446 0 0.0066866773129923554 2.772766732826446 0 0.0047378168488018194 2.8286442408959993 0 0.0043409782809961019 2.8953622765946734 0 0.0047378168488018194 2.8286442408959993 0 0.0027157860779132032 2.9183825713324469 0 0.0043409782809961019 2.8953622765946734 0 0.0047378168488018194 2.8286442408959993 0 0.0027157860779132032 2.9183825713324469 0 0.0027535283280542685 2.8898192457020233 0 0.0043409782809961019 2.8953622765946734 0 2.2056006994885413e-06 2.9998880964028087 0 3.351862179110197e-06 2.9998852822380564 0 0.0027157860779132032 2.9183825713324469 0 0.0043409782809961019 2.8953622765946734 0 2.2056006994885413e-06 2.9998880964028087 0 0.0027157860779132032 2.9183825713324469 0 2.2056006994885413e-06 2.9998880964028087 0 1.8943873371314192e-06 2.9998895978647595 0 0.0027157860779132032 2.9183825713324469 0 1.8943873371314192e-06 2.9998895978647595 0 0.0027535283280542685 2.8898192457020233 0 0.0025086093473390995 2.8322994996793618 0 0.0027535283280542685 2.8898192457020233 0 0.0016025647342669191 2.9198934854502263 0 1.8943873371314192e-06 2.9998895978647595 0 0.0027535283280542685 2.8898192457020233 0 0.0016025647342669191 2.9198934854502263 0 1.2094517854601279e-06 2.9998908464379497 0 1.8943873371314192e-06 2.9998895978647595 0 0.0016025647342669191 2.9198934854502263 0 4.5574624176377255e-06 2.9998764474667974 0 0.0059575106106731493 2.8934824378404662 0 0.0046558097801816037 2.9182851562890959 0 0.0059575106106731493 2.8934824378404662 0 0.0086277030844654472 2.8140442159611059 0 0.0046558097801816037 2.9182851562890959 0 4.5574624176377255e-06 2.9998764474667974 0 0.0059575106106731493 2.8934824378404662 0 3.7058245576275559e-06 2.9998826500601483 0 3.7058245576275559e-06 2.9998826500601483 0 3.351862179110197e-06 2.9998852822380564 0 0.0039127559645501251 2.922608976097318 0 0.0059575106106731493 2.8934824378404662 0 3.7058245576275559e-06 2.9998826500601483 0 0.0039127559645501251 2.922608976097318 0 0.0043409782809961019 2.8953622765946734 0 3.351862179110197e-06 2.9998852822380564 0 0.0039127559645501251 2.922608976097318 0 0.0043409782809961019 2.8953622765946734 0 0.0039127559645501251 2.922608976097318 0 0.00724226669189391 2.8246919611041479 0 0.0059575106106731493 2.8934824378404662 0 0.0039127559645501251 2.922608976097318 0 0.00724226669189391 2.8246919611041479 0 0.0066866773129923554 2.772766732826446 0 0.0043409782809961019 2.8953622765946734 0 0.00724226669189391 2.8246919611041479 0 0.0066866773129923554 2.772766732826446 0 0.00724226669189391 2.8246919611041479 0 0.0083067175745928264 2.7109425567479586 0 0.0062103604755454275 2.6619569896569701 0 0.0066866773129923554 2.772766732826446 0 0.0083067175745928264 2.7109425567479586 0 0.00724226669189391 2.8246919611041479 0 0.0083067175745928264 2.7109425567479586 0 0.0092361901121456973 2.7642962212976623 0 0.0083067175745928264 2.7109425567479586 0 0.0092361901121456973 2.7642962212976623 0 0.0092442964142748218 2.6438918590960836 0 0.0059575106106731493 2.8934824378404662 0 0.00724226669189391 2.8246919611041479 0 0.0092361901121456973 2.7642962212976623 0 0.0059575106106731493 2.8934824378404662 0 0.0092361901121456973 2.7642962212976623 0 0.0086277030844654472 2.8140442159611059 0 0.0092361901121456973 2.7642962212976623 0 0.0086277030844654472 2.8140442159611059 0 0.010173847264168171 2.69248476056775 0 0.0092361901121456973 2.7642962212976623 0 0.010173847264168171 2.69248476056775 0 0.0092442964142748218 2.6438918590960836 0 0.010173847264168171 2.69248476056775 0 0.0092220369771653463 2.5705141020781079 0 0.0092442964142748218 2.6438918590960836 0 0.0092220369771653463 2.5705141020781079 0 0.0092442964142748218 2.6438918590960836 0 0.0063109356881043263 2.5272091295128294 0 0.0092442964142748218 2.6438918590960836 0 0.0066063867865956321 2.5964518997363157 0 0.0063109356881043263 2.5272091295128294 0 0.0083067175745928264 2.7109425567479586 0 0.0092442964142748218 2.6438918590960836 0 0.0066063867865956321 2.5964518997363157 0 0.0062103604755454275 2.6619569896569701 0 0.0083067175745928264 2.7109425567479586 0 0.0066063867865956321 2.5964518997363157 0 0.0033291775605158577 2.5518364212909481 0 0.0062103604755454275 2.6619569896569701 0 0.0066063867865956321 2.5964518997363157 0 0.0066063867865956321 2.5964518997363157 0 0.0017825384565810798 2.4795015369819109 0 0.0063109356881043263 2.5272091295128294 0 0.0033291775605158577 2.5518364212909481 0 0.0066063867865956321 2.5964518997363157 0 0.0017825384565810798 2.4795015369819109 0 -0.0021126026820359211 2.4383260969388481 0 0.0033291775605158577 2.5518364212909481 0 0.0017825384565810798 2.4795015369819109 0 -0.0021126026820359211 2.4383260969388481 0 0.0017825384565810798 2.4795015369819109 0 -0.005670302477944286 2.3705316823567615 0 0.0017825384565810798 2.4795015369819109 0 -9.8349583763235847e-05 2.4110840662135566 0 -0.005670302477944286 2.3705316823567615 0 0.0017825384565810798 2.4795015369819109 0 -9.8349583763235847e-05 2.4110840662135566 0 0.0063109356881043263 2.5272091295128294 0 0.0092220369771653463 2.5705141020781079 0 0.0063109356881043263 2.5272091295128294 0 0.0054366927530920114 2.4515915369730137 0 -9.8349583763235847e-05 2.4110840662135566 0 0.0063109356881043263 2.5272091295128294 0 0.0054366927530920114 2.4515915369730137 0 -9.8349583763235847e-05 2.4110840662135566 0 0.0054366927530920114 2.4515915369730137 0 -0.0022953492112167636 2.340448756257111 0 0.0054366927530920114 2.4515915369730137 0 0.0041442860445413572 2.3649067465417546 0 -0.0022953492112167636 2.340448756257111 0 0.0092220369771653463 2.5705141020781079 0 0.0054366927530920114 2.4515915369730137 0 0.0080348958959897548 2.4874826756763868 0 0.0054366927530920114 2.4515915369730137 0 0.0080348958959897548 2.4874826756763868 0 0.0041442860445413572 2.3649067465417546 0 0.0080348958959897548 2.4874826756763868 0 0.0041442860445413572 2.3649067465417546 0 0.0054030276968638638 2.3941649215966088 0 0.0041442860445413572 2.3649067465417546 0 0.0054030276968638638 2.3941649215966088 0 0.0031023608052855325 2.2658741700838196 0 5.7690537355855835e-06 2.2857431624979117 0 0.0054030276968638638 2.3941649215966088 0 0.0031023608052855325 2.2658741700838196 0 9.8719842805306469e-06 2.428586830311775 0 0.0054030276968638638 2.3941649215966088 0 0.0061914976967074962 2.5266001964352252 0 5.7690537355855835e-06 2.2857431624979117 0 9.8719842805306469e-06 2.428586830311775 0 0.0054030276968638638 2.3941649215966088 0 0.0080348958959897548 2.4874826756763868 0 0.0054030276968638638 2.3941649215966088 0 0.0061914976967074962 2.5266001964352252 0 9.8719842805306469e-06 2.428586830311775 0 0.0061914976967074962 2.5266001964352252 0 8.9284337264732565e-06 2.571443016350238 0 0.0061914976967074962 2.5266001964352252 0 8.9284337264732565e-06 2.571443016350238 0 0.0062628847518032393 2.6610983114638436 0 0.0061914976967074962 2.5266001964352252 0 0.0093583976983807986 2.6139391374301404 0 0.0062628847518032393 2.6610983114638436 0 0.0080348958959897548 2.4874826756763868 0 0.0061914976967074962 2.5266001964352252 0 0.0093583976983807986 2.6139391374301404 0 0.0092220369771653463 2.5705141020781079 0 0.0080348958959897548 2.4874826756763868 0 0.0093583976983807986 2.6139391374301404 0 0.010173847264168171 2.69248476056775 0 0.0092220369771653463 2.5705141020781079 0 0.0093583976983807986 2.6139391374301404 0 0.010173847264168171 2.69248476056775 0 0.0093583976983807986 2.6139391374301404 0 0.0088290903234601245 2.7414531720598347 0 0.0086277030844654472 2.8140442159611059 0 0.010173847264168171 2.69248476056775 0 0.0088290903234601245 2.7414531720598347 0 0.0086277030844654472 2.8140442159611059 0 0.0088290903234601245 2.7414531720598347 0 0.0057816075776088377 2.8805504738930972 0 0.0088290903234601245 2.7414531720598347 0 0.0053094129799498542 2.7916390588431654 0 0.0057816075776088377 2.8805504738930972 0 0.0093583976983807986 2.6139391374301404 0 0.0088290903234601245 2.7414531720598347 0 0.0062628847518032393 2.6610983114638436 0 0.0088290903234601245 2.7414531720598347 0 0.0062628847518032393 2.6610983114638436 0 0.0053094129799498542 2.7916390588431654 0 8.9284337264732565e-06 2.571443016350238 0 0.0062628847518032393 2.6610983114638436 0 8.3828572946979138e-06 2.7142886826680455 0 0.0062628847518032393 2.6610983114638436 0 8.3828572946979138e-06 2.7142886826680455 0 0.0053094129799498542 2.7916390588431654 0 8.3828572946979138e-06 2.7142886826680455 0 0.0053094129799498542 2.7916390588431654 0 6.8133346864587042e-06 2.8571666841526051 0 0.0053094129799498542 2.7916390588431654 0 0.0028920619200274601 2.9001619791350928 0 0.0057816075776088377 2.8805504738930972 0 0.0053094129799498542 2.7916390588431654 0 0.0028920619200274601 2.9001619791350928 0 6.8133346864587042e-06 2.8571666841526051 0 0.0028920619200274601 2.9001619791350928 0 2.4853380582819261e-07 2.9999280670573265 0 4.0458852693985209e-06 2.9998477446038052 0 0.0028920619200274601 2.9001619791350928 0 6.8133346864587042e-06 2.8571666841526051 0 2.4853380582819261e-07 2.9999280670573265 0 0.0028920619200274601 2.9001619791350928 0 4.0458852693985209e-06 2.9998477446038052 0 0.0057816075776088377 2.8805504738930972 0 4.0458852693985209e-06 2.9998477446038052 0 0.0057816075776088377 2.8805504738930972 0 4.4508929342076578e-06 2.999877830540552 0 0.0086277030844654472 2.8140442159611059 0 0.0057816075776088377 2.8805504738930972 0 0.0046558097801816037 2.9182851562890959 0 4.5574624176377255e-06 2.9998764474667974 0 0.0046558097801816037 2.9182851562890959 0 4.4508929342076578e-06 2.999877830540552 0 0.0057816075776088377 2.8805504738930972 0 0.0046558097801816037 2.9182851562890959 0 4.4508929342076578e-06 2.999877830540552 0 -0.030017751499203972 1.8434858434975907 0 -0.031647751248369299 1.6783626083408034 0 -0.02858185841274348 1.8567824952864298 0 -0.030017751499203972 1.8434858434975907 0 -0.02858185841274348 1.8567824952864298 0 -0.026381792360653585 2.0253225931949563 0 -0.030017751499203972 1.8434858434975907 0 -0.026381792360653585 2.0253225931949563 0 -0.027053307178343946 2.0027278359108576 0 -0.030017751499203972 1.8434858434975907 0 -0.031647751248369299 1.6783626083408034 0 -0.031210715485572766 1.6698096564475042 0 -0.032535372594611728 1.5070614444706307 0 -0.031647751248369299 1.6783626083408034 0 -0.031210715485572766 1.6698096564475042 0 -0.032535372594611728 1.5070614444706307 0 -0.031647751248369299 1.6783626083408034 0 -0.031446677725104469 1.5072278676837059 0 -0.031647751248369299 1.6783626083408034 0 -0.029206224636331407 1.685390685335787 0 -0.02858185841274348 1.8567824952864298 0 -0.031647751248369299 1.6783626083408034 0 -0.029206224636331407 1.685390685335787 0 -0.031446677725104469 1.5072278676837059 0 -0.029206224636331407 1.685390685335787 0 -0.031446677725104469 1.5072278676837059 0 -0.0280947421924275 1.5073870571916612 0 -0.025166803774773816 1.6943789385249288 0 -0.029206224636331407 1.685390685335787 0 -0.0280947421924275 1.5073870571916612 0 -0.025166803774773816 1.6943789385249288 0 -0.029206224636331407 1.685390685335787 0 -0.025267059836368667 1.8667819228498359 0 -0.029206224636331407 1.685390685335787 0 -0.025267059836368667 1.8667819228498359 0 -0.02858185841274348 1.8567824952864298 0 -0.025267059836368667 1.8667819228498359 0 -0.02858185841274348 1.8567824952864298 0 -0.023794850095967403 2.0409477262812912 0 -0.02858185841274348 1.8567824952864298 0 -0.023794850095967403 2.0409477262812912 0 -0.026381792360653585 2.0253225931949563 0 -0.020266489025654057 2.0560236180426905 0 -0.025267059836368667 1.8667819228498359 0 -0.023794850095967403 2.0409477262812912 0 -0.020266489025654057 2.0560236180426905 0 -0.01771841804432539 2.2270213749598193 0 -0.023794850095967403 2.0409477262812912 0 -0.01771841804432539 2.2270213749598193 0 -0.02092282674945219 2.2126841006941196 0 -0.013161262797565847 2.2856935556323021 0 -0.02092282674945219 2.2126841006941196 0 -0.023794850095967403 2.0409477262812912 0 -0.026381792360653585 2.0253225931949563 0 -0.01771841804432539 2.2270213749598193 0 -0.02092282674945219 2.2126841006941196 0 -0.023794850095967403 2.0409477262812912 0 -0.0096512922762426838 2.3254899515714462 0 -0.0021126026820359211 2.4383260969388481 0 -0.005670302477944286 2.3705316823567615 0 -0.0096512922762426838 2.3254899515714462 0 -0.01771841804432539 2.2270213749598193 0 -0.013161262797565847 2.2856935556323021 0 -0.0096512922762426838 2.3254899515714462 0 -0.013161262797565847 2.2856935556323021 0 -0.005670302477944286 2.3705316823567615 0 -0.02092282674945219 2.2126841006941196 0 -0.013161262797565847 2.2856935556323021 0 -0.010680539344235428 2.2961920059127996 0 -0.013161262797565847 2.2856935556323021 0 -0.005670302477944286 2.3705316823567615 0 -0.010680539344235428 2.2961920059127996 0 -9.8349583763235847e-05 2.4110840662135566 0 -0.005670302477944286 2.3705316823567615 0 -0.010680539344235428 2.2961920059127996 0 -0.010680539344235428 2.2961920059127996 0 -0.023362066409757094 2.1909224678184107 0 -0.012635910362786192 2.2459931569261671 0 -0.010680539344235428 2.2961920059127996 0 -0.0022953492112167636 2.340448756257111 0 -0.012635910362786192 2.2459931569261671 0 -9.8349583763235847e-05 2.4110840662135566 0 -0.010680539344235428 2.2961920059127996 0 -0.0022953492112167636 2.340448756257111 0 -0.02092282674945219 2.2126841006941196 0 -0.026381792360653585 2.0253225931949563 0 -0.023362066409757094 2.1909224678184107 0 -0.02092282674945219 2.2126841006941196 0 -0.010680539344235428 2.2961920059127996 0 -0.023362066409757094 2.1909224678184107 0 -0.026381792360653585 2.0253225931949563 0 -0.023362066409757094 2.1909224678184107 0 -0.027053307178343946 2.0027278359108576 0 -0.023362066409757094 2.1909224678184107 0 -0.027053307178343946 2.0027278359108576 0 -0.024077684990691753 2.1578247926837979 0 -0.027053307178343946 2.0027278359108576 0 -0.024077684990691753 2.1578247926837979 0 -0.024207699607681883 1.9766811745142567 0 -0.023362066409757094 2.1909224678184107 0 -0.024077684990691753 2.1578247926837979 0 -0.012635910362786192 2.2459931569261671 0 -0.024077684990691753 2.1578247926837979 0 -0.0051289151037337321 2.2371001461589195 0 -0.02053034617998175 2.1049067719423573 0 -0.024077684990691753 2.1578247926837979 0 -0.024207699607681883 1.9766811745142567 0 -0.02053034617998175 2.1049067719423573 0 0.0041442860445413572 2.3649067465417546 0 -0.0022953492112167636 2.340448756257111 0 -0.0051289151037337321 2.2371001461589195 0 -0.024077684990691753 2.1578247926837979 0 -0.012635910362786192 2.2459931569261671 0 -0.0051289151037337321 2.2371001461589195 0 -0.0022953492112167636 2.340448756257111 0 -0.012635910362786192 2.2459931569261671 0 -0.0051289151037337321 2.2371001461589195 0 0.0041442860445413572 2.3649067465417546 0 -0.0051289151037337321 2.2371001461589195 0 0.0031023608052855325 2.2658741700838196 0 -0.0051289151037337321 2.2371001461589195 0 -0.0016268768653554576 2.1614024020717801 0 -0.02053034617998175 2.1049067719423573 0 -0.0051289151037337321 2.2371001461589195 0 0.0031023608052855325 2.2658741700838196 0 -0.0016268768653554576 2.1614024020717801 0 -0.0016268768653554576 2.1614024020717801 0 1.6274538960549279e-05 2.1428730066316577 0 -4.6915619636746515e-05 2.0001173155973717 0 0.0031023608052855325 2.2658741700838196 0 -0.0016268768653554576 2.1614024020717801 0 1.6274538960549279e-05 2.1428730066316577 0 5.7690537355855835e-06 2.2857431624979117 0 0.0031023608052855325 2.2658741700838196 0 1.6274538960549279e-05 2.1428730066316577 0 -0.024207699607681883 1.9766811745142567 0 -0.016620823049738599 1.9501544768242649 0 -0.02053034617998175 2.1049067719423573 0 -0.0016268768653554576 2.1614024020717801 0 -0.02053034617998175 2.1049067719423573 0 -4.6915619636746515e-05 2.0001173155973717 0 -0.016620823049738599 1.9501544768242649 0 -0.02053034617998175 2.1049067719423573 0 -4.6915619636746515e-05 2.0001173155973717 0 -0.016620823049738599 1.9501544768242649 0 -4.6915619636746515e-05 2.0001173155973717 0 -2.4198900873430705e-05 1.857161870562547 0 -0.016620823049738599 1.9501544768242649 0 -2.4198900873430705e-05 1.857161870562547 0 -0.019217622980728457 1.8140483150765723 0 -2.4198900873430705e-05 1.857161870562547 0 -2.6157561018949691e-05 1.7143022724505583 0 -0.019217622980728457 1.8140483150765723 0 -2.6157561018949691e-05 1.7143022724505583 0 -0.019217622980728457 1.8140483150765723 0 -0.014010489389590968 1.6538850945845081 0 -0.024207699607681883 1.9766811745142567 0 -0.016620823049738599 1.9501544768242649 0 -0.019217622980728457 1.8140483150765723 0 -0.024207699607681883 1.9766811745142567 0 -0.019217622980728457 1.8140483150765723 0 -0.028025706437186871 1.8284690871281202 0 -0.019217622980728457 1.8140483150765723 0 -0.028025706437186871 1.8284690871281202 0 -0.025672168458524585 1.6640223708255553 0 -0.030017751499203972 1.8434858434975907 0 -0.028025706437186871 1.8284690871281202 0 -0.031210715485572766 1.6698096564475042 0 -0.030017751499203972 1.8434858434975907 0 -0.027053307178343946 2.0027278359108576 0 -0.028025706437186871 1.8284690871281202 0 -0.027053307178343946 2.0027278359108576 0 -0.024207699607681883 1.9766811745142567 0 -0.028025706437186871 1.8284690871281202 0 -0.032535372594611728 1.5070614444706307 0 -0.029485846581664948 1.5075646583894586 0 -0.031210715485572766 1.6698096564475042 0 -0.029485846581664948 1.5075646583894586 0 -0.031210715485572766 1.6698096564475042 0 -0.025672168458524585 1.6640223708255553 0 -0.028025706437186871 1.8284690871281202 0 -0.031210715485572766 1.6698096564475042 0 -0.025672168458524585 1.6640223708255553 0 -0.029485846581664948 1.5075646583894586 0 -0.025672168458524585 1.6640223708255553 0 -0.018743385312683592 1.5030360373096223 0 -0.025672168458524585 1.6640223708255553 0 -0.018743385312683592 1.5030360373096223 0 -0.014010489389590968 1.6538850945845081 0 -0.019217622980728457 1.8140483150765723 0 -0.025672168458524585 1.6640223708255553 0 -0.014010489389590968 1.6538850945845081 0 -2.6157561018949691e-05 1.7143022724505583 0 -0.014010489389590968 1.6538850945845081 0 -2.4669238151548785e-05 1.5714380360706022 0 -0.018743385312683592 1.5030360373096223 0 -2.4669238151548785e-05 1.5714380360706022 0 -2.5630797932307068e-05 1.4285618872635308 0 -0.018743385312683592 1.5030360373096223 0 -0.014010489389590968 1.6538850945845081 0 -2.4669238151548785e-05 1.5714380360706022 0 -0.018743385312683592 1.5030360373096223 0 -2.5630797932307068e-05 1.4285618872635308 0 -0.014423618390394528 1.3431214481805795 0 -2.5630797932307068e-05 1.4285618872635308 0 -0.014423618390394528 1.3431214481805795 0 -2.5183757599957611e-05 1.2856982447034493 0 -0.014423618390394528 1.3431214481805795 0 -0.01934325159171699 1.1948761291194148 0 -0.025792752007106349 1.3586446745212717 0 -0.018743385312683592 1.5030360373096223 0 -0.014423618390394528 1.3431214481805795 0 -0.025792752007106349 1.3586446745212717 0 -2.4900283908706344e-05 1.1428375436843943 0 -0.01934325159171699 1.1948761291194148 0 -0.016533954175230615 1.0499893866790391 0 -2.4900283908706344e-05 1.1428375436843943 0 -2.5183757599957611e-05 1.2856982447034493 0 -0.01934325159171699 1.1948761291194148 0 -0.014423618390394528 1.3431214481805795 0 -2.5183757599957611e-05 1.2856982447034493 0 -0.01934325159171699 1.1948761291194148 0 -0.01934325159171699 1.1948761291194148 0 -0.024258842076435028 1.029472340577267 0 -0.016533954175230615 1.0499893866790391 0 -0.01934325159171699 1.1948761291194148 0 -0.02819367933566614 1.1817558577336158 0 -0.024258842076435028 1.029472340577267 0 -0.01934325159171699 1.1948761291194148 0 -0.02819367933566614 1.1817558577336158 0 -0.025792752007106349 1.3586446745212717 0 -0.02819367933566614 1.1817558577336158 0 -0.031273000019103291 1.3423048643375437 0 -0.030113610988227957 1.1621762902031205 0 -0.02819367933566614 1.1817558577336158 0 -0.02709308909501448 0.99884504769032445 0 -0.024258842076435028 1.029472340577267 0 -0.02819367933566614 1.1817558577336158 0 -0.030113610988227957 1.1621762902031205 0 -0.02709308909501448 0.99884504769032445 0 -0.029485846581664948 1.5075646583894586 0 -0.018743385312683592 1.5030360373096223 0 -0.025792752007106349 1.3586446745212717 0 -0.02819367933566614 1.1817558577336158 0 -0.025792752007106349 1.3586446745212717 0 -0.031273000019103291 1.3423048643375437 0 -0.032535372594611728 1.5070614444706307 0 -0.029485846581664948 1.5075646583894586 0 -0.031273000019103291 1.3423048643375437 0 -0.029485846581664948 1.5075646583894586 0 -0.025792752007106349 1.3586446745212717 0 -0.031273000019103291 1.3423048643375437 0 -0.032535372594611728 1.5070614444706307 0 -0.031273000019103291 1.3423048643375437 0 -0.03174344212096044 1.3338783556915073 0 -0.032535372594611728 1.5070614444706307 0 -0.031446677725104469 1.5072278676837059 0 -0.03174344212096044 1.3338783556915073 0 -0.031273000019103291 1.3423048643375437 0 -0.03174344212096044 1.3338783556915073 0 -0.030113610988227957 1.1621762902031205 0 -0.030113610988227957 1.1621762902031205 0 -0.026409879018965993 0.97602837836306189 0 -0.02709308909501448 0.99884504769032445 0 -0.030113610988227957 1.1621762902031205 0 -0.028778323658205512 1.1562159872575928 0 -0.026409879018965993 0.97602837836306189 0 -0.03174344212096044 1.3338783556915073 0 -0.030113610988227957 1.1621762902031205 0 -0.028778323658205512 1.1562159872575928 0 -0.028778323658205512 1.1562159872575928 0 -0.025525565501042336 1.1472929864559134 0 -0.029343631870404185 1.3302951882556375 0 -0.028778323658205512 1.1562159872575928 0 -0.024015989026894904 0.96979204949961939 0 -0.025525565501042336 1.1472929864559134 0 -0.028778323658205512 1.1562159872575928 0 -0.024015989026894904 0.96979204949961939 0 -0.026409879018965993 0.97602837836306189 0 -0.024015989026894904 0.96979204949961939 0 -0.025525565501042336 1.1472929864559134 0 -0.02045310774434226 0.95344176776347289 0 -0.025525565501042336 1.1472929864559134 0 -0.029343631870404185 1.3302951882556375 0 -0.025399585758789631 1.3272586657700871 0 -0.0280947421924275 1.5073870571916612 0 -0.029343631870404185 1.3302951882556375 0 -0.025399585758789631 1.3272586657700871 0 -0.031446677725104469 1.5072278676837059 0 -0.0280947421924275 1.5073870571916612 0 -0.029343631870404185 1.3302951882556375 0 -0.031446677725104469 1.5072278676837059 0 -0.03174344212096044 1.3338783556915073 0 -0.029343631870404185 1.3302951882556375 0 -0.03174344212096044 1.3338783556915073 0 -0.028778323658205512 1.1562159872575928 0 -0.029343631870404185 1.3302951882556375 0 -0.012689635698315962 0.70924757523820769 0 -0.0049490017176656298 0.62012069433949368 0 -0.010558299151625993 0.7026294500794511 0 -0.012689635698315962 0.70924757523820769 0 -0.020915077190883494 0.78729697030474188 0 -0.010558299151625993 0.7026294500794511 0 -0.0049490017176656298 0.62012069433949368 0 -0.0017857362484563477 0.5560255457764679 0 -0.0094143875737147213 0.67118001560770546 0 -0.012689635698315962 0.70924757523820769 0 -0.0049490017176656298 0.62012069433949368 0 -0.0094143875737147213 0.67118001560770546 0 -0.012689635698315962 0.70924757523820769 0 -0.017726251968872096 0.77299992986705335 0 -0.0094143875737147213 0.67118001560770546 0 -0.024015989026894904 0.96979204949961939 0 -0.017726251968872096 0.77299992986705335 0 -0.02045310774434226 0.95344176776347289 0 -0.024015989026894904 0.96979204949961939 0 -0.017726251968872096 0.77299992986705335 0 -0.020915077190883494 0.78729697030474188 0 -0.024015989026894904 0.96979204949961939 0 -0.020915077190883494 0.78729697030474188 0 -0.026409879018965993 0.97602837836306189 0 -0.012689635698315962 0.70924757523820769 0 -0.017726251968872096 0.77299992986705335 0 -0.020915077190883494 0.78729697030474188 0 -0.020915077190883494 0.78729697030474188 0 -0.023341009401726159 0.80894595570016925 0 -0.010558299151625993 0.7026294500794511 0 -0.020915077190883494 0.78729697030474188 0 -0.026409879018965993 0.97602837836306189 0 -0.023341009401726159 0.80894595570016925 0 -0.026409879018965993 0.97602837836306189 0 -0.023341009401726159 0.80894595570016925 0 -0.02709308909501448 0.99884504769032445 0 -0.010558299151625993 0.7026294500794511 0 -0.0022535763811134791 0.65952720920572894 0 -0.012898325140902738 0.75292094389408026 0 -0.023341009401726159 0.80894595570016925 0 -0.010558299151625993 0.7026294500794511 0 -0.012898325140902738 0.75292094389408026 0 -0.0049490017176656298 0.62012069433949368 0 -0.010558299151625993 0.7026294500794511 0 0.00035298806228908957 0.58291722196922457 0 -0.010558299151625993 0.7026294500794511 0 -0.0022535763811134791 0.65952720920572894 0 0.00035298806228908957 0.58291722196922457 0 -0.0022535763811134791 0.65952720920572894 0 -0.0051187038063763143 0.7613440216782269 0 0.0042259399302645847 0.63207239205069876 0 -0.0022535763811134791 0.65952720920572894 0 -0.012898325140902738 0.75292094389408026 0 -0.0051187038063763143 0.7613440216782269 0 -0.012898325140902738 0.75292094389408026 0 -0.0051187038063763143 0.7613440216782269 0 -0.024062297687549434 0.84225684292164915 0 -0.0051187038063763143 0.7613440216782269 0 0.0031830144879580091 0.73041552080442884 0 0.0042259399302645847 0.63207239205069876 0 -0.023341009401726159 0.80894595570016925 0 -0.02709308909501448 0.99884504769032445 0 -0.024062297687549434 0.84225684292164915 0 -0.02709308909501448 0.99884504769032445 0 -0.024062297687549434 0.84225684292164915 0 -0.024258842076435028 1.029472340577267 0 -0.023341009401726159 0.80894595570016925 0 -0.012898325140902738 0.75292094389408026 0 -0.024062297687549434 0.84225684292164915 0 -0.0051187038063763143 0.7613440216782269 0 -0.024062297687549434 0.84225684292164915 0 -0.02047628321531577 0.89520760497182761 0 -0.024062297687549434 0.84225684292164915 0 -0.024258842076435028 1.029472340577267 0 -0.02047628321531577 0.89520760497182761 0 -0.024258842076435028 1.029472340577267 0 -0.016533954175230615 1.0499893866790391 0 -0.02047628321531577 0.89520760497182761 0 -0.02047628321531577 0.89520760497182761 0 -4.674991680408747e-05 0.99988298759320493 0 -0.0016619465420225818 0.83867208793311154 0 -0.016533954175230615 1.0499893866790391 0 -0.02047628321531577 0.89520760497182761 0 -4.674991680408747e-05 0.99988298759320493 0 -2.4900283908706344e-05 1.1428375436843943 0 -0.016533954175230615 1.0499893866790391 0 -4.674991680408747e-05 0.99988298759320493 0 -0.0051187038063763143 0.7613440216782269 0 0.0031830144879580091 0.73041552080442884 0 -0.0016619465420225818 0.83867208793311154 0 -0.0051187038063763143 0.7613440216782269 0 -0.02047628321531577 0.89520760497182761 0 -0.0016619465420225818 0.83867208793311154 0 -4.674991680408747e-05 0.99988298759320493 0 -0.0016619465420225818 0.83867208793311154 0 1.6313282822294221e-05 0.85712651789923777 0 0.0031830144879580091 0.73041552080442884 0 -0.0016619465420225818 0.83867208793311154 0 1.6313282822294221e-05 0.85712651789923777 0 0.0031830144879580091 0.73041552080442884 0 1.6313282822294221e-05 0.85712651789923777 0 5.6880796247430584e-06 0.71425722651822632 0 0.0031830144879580091 0.73041552080442884 0 5.6880796247430584e-06 0.71425722651822632 0 0.0054427425347505498 0.60454000245249984 0 0.0031830144879580091 0.73041552080442884 0 0.0054427425347505498 0.60454000245249984 0 0.0042259399302645847 0.63207239205069876 0 0.0054427425347505498 0.60454000245249984 0 0.0061508132467493664 0.47292131854765412 0 0.0080814125469063167 0.51132819804802754 0 0.0054427425347505498 0.60454000245249984 0 9.8681039749720777e-06 0.57141306707466399 0 0.0061508132467493664 0.47292131854765412 0 5.6880796247430584e-06 0.71425722651822632 0 0.0054427425347505498 0.60454000245249984 0 9.8681039749720777e-06 0.57141306707466399 0 9.8681039749720777e-06 0.57141306707466399 0 8.9546728208468653e-06 0.42855711210058761 0 0.0061508132467493664 0.47292131854765412 0 8.9546728208468653e-06 0.42855711210058761 0 0.0061508132467493664 0.47292131854765412 0 0.0060743307477251849 0.33627233580020893 0 0.0061508132467493664 0.47292131854765412 0 0.0092654312920583091 0.38693365770852878 0 0.0060743307477251849 0.33627233580020893 0 0.0061508132467493664 0.47292131854765412 0 0.0092654312920583091 0.38693365770852878 0 0.0080814125469063167 0.51132819804802754 0 0.0092654312920583091 0.38693365770852878 0 0.010177629325958872 0.30799676657388464 0 0.0092430090686220299 0.42891757172220674 0 0.0092654312920583091 0.38693365770852878 0 0.0080814125469063167 0.51132819804802754 0 0.0092430090686220299 0.42891757172220674 0 0.0080814125469063167 0.51132819804802754 0 0.0055284308392407376 0.546649499720674 0 0.0092430090686220299 0.42891757172220674 0 0.0042259399302645847 0.63207239205069876 0 0.0080814125469063167 0.51132819804802754 0 0.0055284308392407376 0.546649499720674 0 -0.0022535763811134791 0.65952720920572894 0 0.0042259399302645847 0.63207239205069876 0 0.0055284308392407376 0.546649499720674 0 0.0054427425347505498 0.60454000245249984 0 0.0042259399302645847 0.63207239205069876 0 0.0080814125469063167 0.51132819804802754 0 3.994636160909996e-06 0.00015222828692787078 0 0.0028785131224346159 0.099382771022927655 0 0.0056452873450934891 0.11745230465715238 0 3.994636160909996e-06 0.00015222828692787078 0 2.3649221701354908e-07 7.1997935031548209e-05 0 0.0028785131224346159 0.099382771022927655 0 2.3649221701354908e-07 7.1997935031548209e-05 0 6.8307857815172888e-06 0.14283311693345679 0 0.0028785131224346159 0.099382771022927655 0 6.8307857815172888e-06 0.14283311693345679 0 0.0028785131224346159 0.099382771022927655 0 0.0050507183920175209 0.20577158000974147 0 0.0028785131224346159 0.099382771022927655 0 0.0050507183920175209 0.20577158000974147 0 0.0056452873450934891 0.11745230465715238 0 6.8307857815172888e-06 0.14283311693345679 0 0.0050507183920175209 0.20577158000974147 0 8.388115031484592e-06 0.28571132919113212 0 0.0050507183920175209 0.20577158000974147 0 8.388115031484592e-06 0.28571132919113212 0 0.0060743307477251849 0.33627233580020893 0 8.9546728208468653e-06 0.42855711210058761 0 8.388115031484592e-06 0.28571132919113212 0 0.0060743307477251849 0.33627233580020893 0 0.0050507183920175209 0.20577158000974147 0 0.0060743307477251849 0.33627233580020893 0 0.0086418118315162041 0.25514382382387457 0 0.0092654312920583091 0.38693365770852878 0 0.0060743307477251849 0.33627233580020893 0 0.0086418118315162041 0.25514382382387457 0 0.0092654312920583091 0.38693365770852878 0 0.0086418118315162041 0.25514382382387457 0 0.010177629325958872 0.30799676657388464 0 0.0086418118315162041 0.25514382382387457 0 0.0085650951938740782 0.18422095244610984 0 0.010177629325958872 0.30799676657388464 0 0.0086418118315162041 0.25514382382387457 0 0.0085650951938740782 0.18422095244610984 0 0.0056452873450934891 0.11745230465715238 0 0.0050507183920175209 0.20577158000974147 0 0.0086418118315162041 0.25514382382387457 0 0.0056452873450934891 0.11745230465715238 0 0.0085650951938740782 0.18422095244610984 0 0.0056452873450934891 0.11745230465715238 0 0.004632661078375796 0.08149193934023885 0 0.0056452873450934891 0.11745230465715238 0 4.5576893234458594e-06 0.000122305456362679 0 0.004632661078375796 0.08149193934023885 0 4.5576893234458594e-06 0.000122305456362679 0 0.004632661078375796 0.08149193934023885 0 4.4800057167577526e-06 0.00012348185930362795 0 3.994636160909996e-06 0.00015222828692787078 0 0.0056452873450934891 0.11745230465715238 0 4.5576893234458594e-06 0.000122305456362679 0 4.4800057167577526e-06 0.00012348185930362795 0 0.0059404776504447783 0.10612994259447374 0 3.728546514926925e-06 0.00011735402624915598 0 0.004632661078375796 0.08149193934023885 0 4.4800057167577526e-06 0.00012348185930362795 0 0.0059404776504447783 0.10612994259447374 0 0.0085650951938740782 0.18422095244610984 0 0.004632661078375796 0.08149193934023885 0 0.0059404776504447783 0.10612994259447374 0 0.0059404776504447783 0.10612994259447374 0 0.0091820670432850547 0.23206299362302404 0 0.0070582311491252433 0.16915368506392459 0 0.0085650951938740782 0.18422095244610984 0 0.0059404776504447783 0.10612994259447374 0 0.0091820670432850547 0.23206299362302404 0 0.0085650951938740782 0.18422095244610984 0 0.0091820670432850547 0.23206299362302404 0 0.010177629325958872 0.30799676657388464 0 0.0091820670432850547 0.23206299362302404 0 0.010177629325958872 0.30799676657388464 0 0.0092596592490910862 0.35348367997378444 0 0.0091820670432850547 0.23206299362302404 0 0.0082486539593068838 0.28598862297654815 0 0.0092596592490910862 0.35348367997378444 0 0.0082486539593068838 0.28598862297654815 0 0.0061679092419420567 0.33704766420377713 0 0.0065890763803944019 0.22407672646387106 0 0.0082486539593068838 0.28598862297654815 0 0.0070582311491252433 0.16915368506392459 0 0.0065890763803944019 0.22407672646387106 0 0.0070582311491252433 0.16915368506392459 0 0.0042426737454386576 0.10170782993508566 0 0.0065890763803944019 0.22407672646387106 0 0.0091820670432850547 0.23206299362302404 0 0.0082486539593068838 0.28598862297654815 0 0.0070582311491252433 0.16915368506392459 0 0.0059404776504447783 0.10612994259447374 0 0.0070582311491252433 0.16915368506392459 0 0.0036656205075036247 0.07181838157431461 0 0.0070582311491252433 0.16915368506392459 0 0.0036656205075036247 0.07181838157431461 0 0.0042426737454386576 0.10170782993508566 0 3.3331387964825975e-06 0.00011468968738899718 0 0.0036656205075036247 0.07181838157431461 0 0.0042426737454386576 0.10170782993508566 0 3.3331387964825975e-06 0.00011468968738899718 0 0.0036656205075036247 0.07181838157431461 0 3.728546514926925e-06 0.00011735402624915598 0 0.0059404776504447783 0.10612994259447374 0 0.0036656205075036247 0.07181838157431461 0 3.728546514926925e-06 0.00011735402624915598 0 0.0064181123248406753 0.47051976242673083 0 0.00035298806228908957 0.58291722196922457 0 0.0022524855978763142 0.51270978155225233 0 -0.0022535763811134791 0.65952720920572894 0 0.00035298806228908957 0.58291722196922457 0 0.0055284308392407376 0.546649499720674 0 0.0064181123248406753 0.47051976242673083 0 0.0055284308392407376 0.546649499720674 0 0.0092430090686220299 0.42891757172220674 0 0.0064181123248406753 0.47051976242673083 0 0.00035298806228908957 0.58291722196922457 0 0.0055284308392407376 0.546649499720674 0 0.0064181123248406753 0.47051976242673083 0 0.0092430090686220299 0.42891757172220674 0 0.0092596592490910862 0.35348367997378444 0 0.010177629325958872 0.30799676657388464 0 0.0092430090686220299 0.42891757172220674 0 0.0092596592490910862 0.35348367997378444 0 0.0064181123248406753 0.47051976242673083 0 0.0092596592490910862 0.35348367997378444 0 0.0066799571264103755 0.39995498771953103 0 0.0082486539593068838 0.28598862297654815 0 0.0092596592490910862 0.35348367997378444 0 0.0066799571264103755 0.39995498771953103 0 0.0082486539593068838 0.28598862297654815 0 0.0066799571264103755 0.39995498771953103 0 0.0061679092419420567 0.33704766420377713 0 0.0066799571264103755 0.39995498771953103 0 0.0033283995973687223 0.44821268867158631 0 0.0061679092419420567 0.33704766420377713 0 0.0022524855978763142 0.51270978155225233 0 -0.0017857362484563477 0.5560255457764679 0 0.0033283995973687223 0.44821268867158631 0 0.0066799571264103755 0.39995498771953103 0 0.0022524855978763142 0.51270978155225233 0 0.0033283995973687223 0.44821268867158631 0 0.0064181123248406753 0.47051976242673083 0 0.0066799571264103755 0.39995498771953103 0 0.0022524855978763142 0.51270978155225233 0 -0.0049490017176656298 0.62012069433949368 0 0.00035298806228908957 0.58291722196922457 0 0.0022524855978763142 0.51270978155225233 0 -0.0049490017176656298 0.62012069433949368 0 0.0022524855978763142 0.51270978155225233 0 -0.0017857362484563477 0.5560255457764679 0 -0.0017857362484563477 0.5560255457764679 0 0.00021006941955283563 0.49481369542507814 0 -0.0046834388484379482 0.59855256449004568 0 0.00021006941955283563 0.49481369542507814 0 -0.0021449311591726543 0.54402521255122416 0 -0.0046834388484379482 0.59855256449004568 0 0.00021006941955283563 0.49481369542507814 0 0.0036415529369401051 0.38774213852274025 0 0.001289001154326628 0.43653212836035199 0 -0.0017857362484563477 0.5560255457764679 0 0.00021006941955283563 0.49481369542507814 0 0.0033283995973687223 0.44821268867158631 0 0.00021006941955283563 0.49481369542507814 0 0.0033283995973687223 0.44821268867158631 0 0.0036415529369401051 0.38774213852274025 0 0.0033283995973687223 0.44821268867158631 0 0.0061679092419420567 0.33704766420377713 0 0.0036415529369401051 0.38774213852274025 0 0.0061679092419420567 0.33704766420377713 0 0.0036415529369401051 0.38774213852274025 0 0.0051819736006653641 0.27748389346780078 0 0.0036415529369401051 0.38774213852274025 0 0.0033803726983088239 0.32841972711105322 0 0.0051819736006653641 0.27748389346780078 0 0.0036415529369401051 0.38774213852274025 0 0.0033803726983088239 0.32841972711105322 0 0.001289001154326628 0.43653212836035199 0 0.0033803726983088239 0.32841972711105322 0 0.0026754424924696663 0.26950942216579221 0 0.0016347069822388561 0.37896972851777366 0 0.0033803726983088239 0.32841972711105322 0 0.001289001154326628 0.43653212836035199 0 0.0016347069822388561 0.37896972851777366 0 -0.0021449311591726543 0.54402521255122416 0 0.001289001154326628 0.43653212836035199 0 -0.00045605575931147467 0.48630107829823355 0 0.001289001154326628 0.43653212836035199 0 -0.00045605575931147467 0.48630107829823355 0 0.0016347069822388561 0.37896972851777366 0 -0.0021449311591726543 0.54402521255122416 0 -0.00045605575931147467 0.48630107829823355 0 -0.0032328476631123234 0.58978184691138202 0 0.00021006941955283563 0.49481369542507814 0 -0.0021449311591726543 0.54402521255122416 0 0.001289001154326628 0.43653212836035199 0 2.2246733447365264e-06 0.0001119183907633042 0 0.0027187348727368754 0.081608410362414313 0 1.8905607293998465e-06 0.00011040095287773153 0 2.2246733447365264e-06 0.0001119183907633042 0 0.0042426737454386576 0.10170782993508566 0 0.0027187348727368754 0.081608410362414313 0 3.3331387964825975e-06 0.00011468968738899718 0 2.2246733447365264e-06 0.0001119183907633042 0 0.0042426737454386576 0.10170782993508566 0 0.0027187348727368754 0.081608410362414313 0 0.0046736472455566717 0.1692264305179092 0 0.0027619085068207373 0.11018313056904736 0 0.0042426737454386576 0.10170782993508566 0 0.0027187348727368754 0.081608410362414313 0 0.0046736472455566717 0.1692264305179092 0 0.0042426737454386576 0.10170782993508566 0 0.0046736472455566717 0.1692264305179092 0 0.0065890763803944019 0.22407672646387106 0 0.0061679092419420567 0.33704766420377713 0 0.0065890763803944019 0.22407672646387106 0 0.0051819736006653641 0.27748389346780078 0 0.0046736472455566717 0.1692264305179092 0 0.0065890763803944019 0.22407672646387106 0 0.0051819736006653641 0.27748389346780078 0 0.0046736472455566717 0.1692264305179092 0 0.0051819736006653641 0.27748389346780078 0 0.0039037182968232375 0.21964236057216643 0 0.0033803726983088239 0.32841972711105322 0 0.0051819736006653641 0.27748389346780078 0 0.0039037182968232375 0.21964236057216643 0 0.0039037182968232375 0.21964236057216643 0 0.0026754424924696663 0.26950942216579221 0 0.0025542952789447794 0.16502031022432909 0 0.0033803726983088239 0.32841972711105322 0 0.0039037182968232375 0.21964236057216643 0 0.0026754424924696663 0.26950942216579221 0 0.0039037182968232375 0.21964236057216643 0 0.0025542952789447794 0.16502031022432909 0 0.0027619085068207373 0.11018313056904736 0 0.0046736472455566717 0.1692264305179092 0 0.0039037182968232375 0.21964236057216643 0 0.0027619085068207373 0.11018313056904736 0 0.0025542952789447794 0.16502031022432909 0 0.0027619085068207373 0.11018313056904736 0 0.0016062977710295055 0.079695539302114218 0 0.0027619085068207373 0.11018313056904736 0 0.0016062977710295055 0.079695539302114218 0 1.8905607293998465e-06 0.00011040095287773153 0 0.0016062977710295055 0.079695539302114218 0 1.8905607293998465e-06 0.00011040095287773153 0 1.1839585163732924e-06 0.0001091325990790539 0 0.0027187348727368754 0.081608410362414313 0 0.0027619085068207373 0.11018313056904736 0 1.8905607293998465e-06 0.00011040095287773153 0 5.0105630603263455e-07 0.00010841443515859401 0 1.1839585163732924e-06 0.0001091325990790539 0 0.001299697885050161 0.097926303880395041 0 5.0105630603263455e-07 0.00010841443515859401 0 0.001299697885050161 0.097926303880395041 0 0.00047658939247355976 0.070829569646994023 0 0.0016062977710295055 0.079695539302114218 0 1.1839585163732924e-06 0.0001091325990790539 0 0.001299697885050161 0.097926303880395041 0 0.0025542952789447794 0.16502031022432909 0 0.0016062977710295055 0.079695539302114218 0 0.001299697885050161 0.097926303880395041 0 0.001299697885050161 0.097926303880395041 0 0.0017562476660632331 0.2133165609497191 0 0.00078589238780122674 0.16030038193477239 0 0.0025542952789447794 0.16502031022432909 0 0.001299697885050161 0.097926303880395041 0 0.0017562476660632331 0.2133165609497191 0 0.0026754424924696663 0.26950942216579221 0 0.0025542952789447794 0.16502031022432909 0 0.0017562476660632331 0.2133165609497191 0 0.0026754424924696663 0.26950942216579221 0 0.0017562476660632331 0.2133165609497191 0 0.0014194446338576553 0.32398585368325811 0 0.0017562476660632331 0.2133165609497191 0 0.00076971510084789712 0.26898146973553971 0 0.0014194446338576553 0.32398585368325811 0 0.0017562476660632331 0.2133165609497191 0 0.00076971510084789712 0.26898146973553971 0 0.00078589238780122674 0.16030038193477239 0 -2.5587303842746106e-05 0.32070807562243281 0 -1.9608828124697908e-05 0.20973676088438542 0 0.00076971510084789712 0.26898146973553971 0 -1.9608828124697908e-05 0.20973676088438542 0 0.00076971510084789712 0.26898146973553971 0 0.00078589238780122674 0.16030038193477239 0 -1.9608828124697908e-05 0.20973676088438542 0 5.3233905550794782e-06 0.095709047086417212 0 0.00078589238780122674 0.16030038193477239 0 0.001299697885050161 0.097926303880395041 0 0.00078589238780122674 0.16030038193477239 0 0.00047658939247355976 0.070829569646994023 0 5.3233905550794782e-06 0.095709047086417212 0 0.00078589238780122674 0.16030038193477239 0 0.00047658939247355976 0.070829569646994023 0 5.3233905550794782e-06 0.095709047086417212 0 3.8910025644517848e-07 0.0001080981710697987 0 0.00047658939247355976 0.070829569646994023 0 5.0105630603263455e-07 0.00010841443515859401 0 3.8910025644517848e-07 0.0001080981710697987 0 0.00047658939247355976 0.070829569646994023 0 0.00033093922815836772 0.43098938429648609 0 -0.0012869673796426361 0.53739938350062799 0 -0.00024290042736168027 0.48334222037494656 0 -0.0012869673796426361 0.53739938350062799 0 -0.00045605575931147467 0.48630107829823355 0 -0.0032328476631123234 0.58978184691138202 0 0.00033093922815836772 0.43098938429648609 0 -0.0012869673796426361 0.53739938350062799 0 -0.00045605575931147467 0.48630107829823355 0 0.00033093922815836772 0.43098938429648609 0 -0.00045605575931147467 0.48630107829823355 0 0.0016347069822388561 0.37896972851777366 0 0.00033093922815836772 0.43098938429648609 0 0.0016347069822388561 0.37896972851777366 0 0.0014194446338576553 0.32398585368325811 0 0.0026754424924696663 0.26950942216579221 0 0.0016347069822388561 0.37896972851777366 0 0.0014194446338576553 0.32398585368325811 0 0.00033093922815836772 0.43098938429648609 0 0.0014194446338576553 0.32398585368325811 0 0.00042210497010094502 0.37612100388911301 0 0.00076971510084789712 0.26898146973553971 0 0.0014194446338576553 0.32398585368325811 0 0.00042210497010094502 0.37612100388911301 0 -2.5587303842746106e-05 0.32070807562243281 0 0.00076971510084789712 0.26898146973553971 0 0.00042210497010094502 0.37612100388911301 0 -1.1221354195411929e-05 0.42933054064807408 0 -2.5587303842746106e-05 0.32070807562243281 0 0.00042210497010094502 0.37612100388911301 0 -1.1221354195411929e-05 0.42933054064807408 0 0.00042210497010094502 0.37612100388911301 0 -0.00024290042736168027 0.48334222037494656 0 -1.1221354195411929e-05 0.42933054064807408 0 3.9747530403937275e-06 0.53656745122807792 0 -0.00024290042736168027 0.48334222037494656 0 0.00033093922815836772 0.43098938429648609 0 0.00042210497010094502 0.37612100388911301 0 -0.00024290042736168027 0.48334222037494656 0 -0.0012869673796426361 0.53739938350062799 0 -0.00024290042736168027 0.48334222037494656 0 -0.0011280094233350846 0.59035488612581999 0 3.9747530403937275e-06 0.53656745122807792 0 -0.00024290042736168027 0.48334222037494656 0 -0.0011280094233350846 0.59035488612581999 0 3.9747530403937275e-06 0.53656745122807792 0 -1.0991172291915217e-06 0.65455225956258878 0 -0.0011280094233350846 0.59035488612581999 0 -1.0991172291915217e-06 0.65455225956258878 0 -0.0021917920656584398 0.67989909992144371 0 -0.0011280094233350846 0.59035488612581999 0 -1.0991172291915217e-06 0.65455225956258878 0 -0.0021917920656584398 0.67989909992144371 0 -0.0015619056556960497 0.7506052155120404 0 -0.0021917920656584398 0.67989909992144371 0 -0.0011280094233350846 0.59035488612581999 0 -0.003667988763732226 0.65344135894187871 0 -0.0012869673796426361 0.53739938350062799 0 -0.0011280094233350846 0.59035488612581999 0 -0.003667988763732226 0.65344135894187871 0 -0.0021917920656584398 0.67989909992144371 0 -0.003667988763732226 0.65344135894187871 0 -0.0047097209412625702 0.75161967944514452 0 -0.003667988763732226 0.65344135894187871 0 -0.0078115757677438887 0.75382601062434562 0 -0.0061618871655936373 0.67654969698124479 0 -0.003667988763732226 0.65344135894187871 0 -0.0032328476631123234 0.58978184691138202 0 -0.0061618871655936373 0.67654969698124479 0 -0.0012869673796426361 0.53739938350062799 0 -0.003667988763732226 0.65344135894187871 0 -0.0032328476631123234 0.58978184691138202 0 -0.0078115757677438887 0.75382601062434562 0 -0.0079683831968169784 0.94032732329333346 0 -0.010839201869755823 0.91082637185331816 0 -0.0078115757677438887 0.75382601062434562 0 -0.0047097209412625702 0.75161967944514452 0 -0.0079683831968169784 0.94032732329333346 0 -0.003667988763732226 0.65344135894187871 0 -0.0078115757677438887 0.75382601062434562 0 -0.0047097209412625702 0.75161967944514452 0 -0.0047097209412625702 0.75161967944514452 0 -0.0040880227441115547 0.94639368058756701 0 -0.0079683831968169784 0.94032732329333346 0 -0.0047097209412625702 0.75161967944514452 0 -0.0015619056556960497 0.7506052155120404 0 -0.0040880227441115547 0.94639368058756701 0 -0.0021917920656584398 0.67989909992144371 0 -0.0047097209412625702 0.75161967944514452 0 -0.0015619056556960497 0.7506052155120404 0 -5.8549818584214496e-05 0.94100155328019497 0 -0.0015619056556960497 0.7506052155120404 0 -0.0040880227441115547 0.94639368058756701 0 -5.8549818584214496e-05 0.94100155328019497 0 -0.0024163124784928672 1.1343944866862297 0 -0.0040880227441115547 0.94639368058756701 0 -0.0024163124784928672 1.1343944866862297 0 -0.0052175908974699805 1.3223327032013721 0 -0.0071295647604447234 1.1347597238132019 0 -0.0024163124784928672 1.1343944866862297 0 -0.0040880227441115547 0.94639368058756701 0 -0.0071295647604447234 1.1347597238132019 0 -6.2705910587147938e-05 1.3221880334131775 0 0.0025787491008548206 1.507694185353222 0 -0.0027024604079980219 1.5076941395307897 0 -6.2705910587147938e-05 1.3221880334131775 0 -0.0027024604079980219 1.5076941395307897 0 -0.0052175908974699805 1.3223327032013721 0 -6.2705910587147938e-05 1.3221880334131775 0 -0.0024163124784928672 1.1343944866862297 0 -0.0052175908974699805 1.3223327032013721 0 -0.0027024604079980219 1.5076941395307897 0 -0.0080715514063679442 1.5075037509741045 0 -0.0052175908974699805 1.3223327032013721 0 -0.0080715514063679442 1.5075037509741045 0 -0.0052175908974699805 1.3223327032013721 0 -0.010396702533284403 1.322786254058512 0 -0.0052175908974699805 1.3223327032013721 0 -0.010396702533284403 1.322786254058512 0 -0.0071295647604447234 1.1347597238132019 0 -0.010396702533284403 1.322786254058512 0 -0.012104719156286423 1.1084392039377531 0 -0.01456476504285998 1.302195854658174 0 -0.013849967584085087 1.5036467523968871 0 -0.010396702533284403 1.322786254058512 0 -0.01456476504285998 1.302195854658174 0 -0.0080715514063679442 1.5075037509741045 0 -0.013849967584085087 1.5036467523968871 0 -0.010396702533284403 1.322786254058512 0 -0.0040880227441115547 0.94639368058756701 0 -0.0079683831968169784 0.94032732329333346 0 -0.0071295647604447234 1.1347597238132019 0 -0.010396702533284403 1.322786254058512 0 -0.0071295647604447234 1.1347597238132019 0 -0.012104719156286423 1.1084392039377531 0 -0.0079683831968169784 0.94032732329333346 0 -0.0071295647604447234 1.1347597238132019 0 -0.012104719156286423 1.1084392039377531 0 -0.0079683831968169784 0.94032732329333346 0 -0.012104719156286423 1.1084392039377531 0 -0.010839201869755823 0.91082637185331816 0 -0.012104719156286423 1.1084392039377531 0 -0.014628720377757205 0.97024366671682927 0 -0.010839201869755823 0.91082637185331816 0 -0.012104719156286423 1.1084392039377531 0 -0.017086795833337293 1.1823597898881961 0 -0.01456476504285998 1.302195854658174 0 -0.012104719156286423 1.1084392039377531 0 -0.017086795833337293 1.1823597898881961 0 -0.014628720377757205 0.97024366671682927 0 -0.017086795833337293 1.1823597898881961 0 -0.014628720377757205 0.97024366671682927 0 -0.020631448754412859 1.114077007154656 0 -0.013849967584085087 1.5036467523968871 0 -0.01456476504285998 1.302195854658174 0 -0.018353949563472693 1.3941632052941166 0 -0.017086795833337293 1.1823597898881961 0 -0.01456476504285998 1.302195854658174 0 -0.018353949563472693 1.3941632052941166 0 -0.017086795833337293 1.1823597898881961 0 -0.018353949563472693 1.3941632052941166 0 -0.021193834909626928 1.3044472407419709 0 -0.02307562877864228 1.5044976626386266 0 -0.021193834909626928 1.3044472407419709 0 -0.025399585758789631 1.3272586657700871 0 -0.02307562877864228 1.5044976626386266 0 -0.018353949563472693 1.3941632052941166 0 -0.021193834909626928 1.3044472407419709 0 -0.021193834909626928 1.3044472407419709 0 -0.025399585758789631 1.3272586657700871 0 -0.020631448754412859 1.114077007154656 0 -0.02307562877864228 1.5044976626386266 0 -0.0280947421924275 1.5073870571916612 0 -0.025399585758789631 1.3272586657700871 0 -0.014628720377757205 0.97024366671682927 0 -0.020631448754412859 1.114077007154656 0 -0.016645229199040067 0.91690961878280297 0 -0.020631448754412859 1.114077007154656 0 -0.02045310774434226 0.95344176776347289 0 -0.016645229199040067 0.91690961878280297 0 -0.017086795833337293 1.1823597898881961 0 -0.021193834909626928 1.3044472407419709 0 -0.020631448754412859 1.114077007154656 0 -0.025525565501042336 1.1472929864559134 0 -0.025399585758789631 1.3272586657700871 0 -0.020631448754412859 1.114077007154656 0 -0.025525565501042336 1.1472929864559134 0 -0.020631448754412859 1.114077007154656 0 -0.02045310774434226 0.95344176776347289 0 -0.017726251968872096 0.77299992986705335 0 -0.02045310774434226 0.95344176776347289 0 -0.014464806045914332 0.76363106520585322 0 -0.016645229199040067 0.91690961878280297 0 -0.014464806045914332 0.76363106520585322 0 -0.011113526725036474 0.75753655593405966 0 -0.02045310774434226 0.95344176776347289 0 -0.016645229199040067 0.91690961878280297 0 -0.014464806045914332 0.76363106520585322 0 -0.014464806045914332 0.76363106520585322 0 -0.0092127393846165029 0.6839575102161739 0 -0.011113526725036474 0.75753655593405966 0 -0.017726251968872096 0.77299992986705335 0 -0.014464806045914332 0.76363106520585322 0 -0.0094143875737147213 0.67118001560770546 0 -0.014464806045914332 0.76363106520585322 0 -0.0094143875737147213 0.67118001560770546 0 -0.0092127393846165029 0.6839575102161739 0 -0.0017857362484563477 0.5560255457764679 0 -0.0094143875737147213 0.67118001560770546 0 -0.0046834388484379482 0.59855256449004568 0 -0.0094143875737147213 0.67118001560770546 0 -0.0046834388484379482 0.59855256449004568 0 -0.0092127393846165029 0.6839575102161739 0 -0.0046834388484379482 0.59855256449004568 0 -0.0092127393846165029 0.6839575102161739 0 -0.0064746551601764712 0.65103556557574571 0 -0.0092127393846165029 0.6839575102161739 0 -0.0064746551601764712 0.65103556557574571 0 -0.011113526725036474 0.75753655593405966 0 -0.0021449311591726543 0.54402521255122416 0 -0.0046834388484379482 0.59855256449004568 0 -0.0064746551601764712 0.65103556557574571 0 -0.0021449311591726543 0.54402521255122416 0 -0.0032328476631123234 0.58978184691138202 0 -0.0064746551601764712 0.65103556557574571 0 -0.0032328476631123234 0.58978184691138202 0 -0.0064746551601764712 0.65103556557574571 0 -0.0061618871655936373 0.67654969698124479 0 -0.0064746551601764712 0.65103556557574571 0 -0.0061618871655936373 0.67654969698124479 0 -0.011113526725036474 0.75753655593405966 0 -0.0078115757677438887 0.75382601062434562 0 -0.0061618871655936373 0.67654969698124479 0 -0.011113526725036474 0.75753655593405966 0 -0.014628720377757205 0.97024366671682927 0 -0.010839201869755823 0.91082637185331816 0 -0.011113526725036474 0.75753655593405966 0 -0.0078115757677438887 0.75382601062434562 0 -0.010839201869755823 0.91082637185331816 0 -0.011113526725036474 0.75753655593405966 0 -0.014628720377757205 0.97024366671682927 0 -0.016645229199040067 0.91690961878280297 0 -0.011113526725036474 0.75753655593405966 0 
</DataArray>
</PointData>
<CellData Scalars="region_id,displacement_divergence," Vectors="" Tensors="stress,">
<DataArray type="Float64" Name="region_id" format="ascii">
5 5 5 5 5 5 5 5 5 5 5 5 5 5 5 5 5 5 5 5 5 5 5 5 5 5 5 5 5 5 5 5 5 5 5 5 5 5 5 5 5 5 5 5 5 5 5 5 5 5 5 5 5 5 5 5 5 5 5 5 5 5 5 5 5 5 5 5 5 5 5 5 5 5 5 5 5 5 5 5 5 5 5 5 5 5 5 5 5 5 5 5 5 5 5 5 5 5 5 5 5 5 5 5 5 5 5 5 5 5 5 5 5 5 5 5 5 5 5 5 5 5 5 5 5 5 5 5 5 5 5 5 6 6 6 6 6 6 6 6 6 6 6 6 6 6 6 6 6 6 6 5 5 6 5 5 5 5 5 5 5 5 5 6 5 6 6 6 6 5 6 5 5 5 5 5 5 5 5 5 6 6 5 5 6 6 6 6 6 6 6 6 6 6 6 6 6 6 6 6 6 6 6 6 6 6 6 6 6 6 6 6 6 6 6 6 6 5 5 5 5 5 5 6 6 6 6 6 5 5 5 5 5 5 5 5 5 5 6 6 6 6 6 6 5 5 5 5 5 5 6 6 6 6 6 6 6 6 6 6 6 6 6 6 6 6 6 6 6 6 6 6 6 6 6 6 6 6 6 6 6 6 6 6 6 6 6 5 6 5 5 5 5 5 5 5 5 5 6 5 5 6 6 6 5 6 5 5 5 5 5 5 5 5 6 6 5 6 6 6 6 6 6 6 6 6 6 6 6 6 6 6 6 5 5 5 5 5 5 5 5 5 5 5 5 5 5 5 5 5 5 5 5 5 5 5 5 5 5 5 5 5 5 5 5 5 5 5 5 5 5 5 5 5 5 5 5 5 5 5 5 5 5 5 5 5 5 5 5 5 5 5 5 5 5 5 5 5 5 5 5 5 5 5 5 5 5 5 5 5 5 5 5 5 5 5 5 5 5 5 5 5 5 5 5 5 5 5 5 5 5 5 5 5 5 5 5 5 5 5 5 5 5 5 5 5 5 5 5 5 5 5 5 5 5 5 5 5 5 5 5 5 5 5 5 6 6 6 6 6 6 6 6 6 6 6 6 6 6 6 6 6 6 5 5 6 6 5 5 5 5 5 5 5 5 5 6 5 6 6 6 6 5 6 5 5 5 5 5 5 5 5 5 6 5 5 6 6 6 6 6 6 6 6 6 6 6 6 6 6 6 6 6 6 6 6 6 6 6 6 6 6 6 6 6 6 6 6 6 6 6 6 5 6 5 5 5 5 5 5 5 5 5 6 5 6 6 6 6 5 6 5 5 5 5 5 5 5 5 5 6 6 5 5 6 6 6 6 6 6 6 6 6 6 6 6 6 6 6 6 6 6 6 5 5 5 5 5 5 5 5 5 5 5 5 5 5 5 5 5 5 5 5 5 5 5 5 5 5 5 5 5 5 5 5 5 5 5 5 5 5 5 5 5 5 5 5 5 5 5 5 5 5 5 5 5 5 5 5 5 5 5 5 5 5 5 5 5 5 5 5 5 5 5 5 5 5 5 5 5 5 5 5 5 5 5 5 5 5 5 5 5 5 5 5 5 5 5 5 5 5 5 5 5 5 5 5 5 5 5 5 5 5 5 5 5 5 5 5 5 5 5 5 5 5 5 5 5 5 5 5 5 5 6 6 6 6 6 6 6 6 6 6 6 6 6 6 6 6 5 6 6 5 5 5 5 5 5 5 5 5 6 5 6 6 6 5 5 6 5 5 5 5 5 5 5 5 5 6 5 6 6 6 6 6 6 6 6 6 6 6 6 6 6 6 6 6 6 6 6 6 6 6 6 6 6 6 6 6 6 6 6 6 6 6 6 6 6 6 6 6 6 6 6 6 6 6 6 6 6 6 6 5 5 5 5 5 6 6 6 5 5 6 6 5 5 5 5 5 5 5 5 6 6 5 5 6 6 5 6 6 5 5 5 5 5 5 5 5 5 5 5 5 5 5 5 5 5 5 5 5 5 5 5 5 5 5 5 5 5 5 5 5 5 5 5 5 5 5 5 5 5 5 5 5 5 5 5 5 5 5 5 5 5 5 5 5 5 5 5 5 5 5 5 5 5 5 5 5 5 5 5 5 5 5 5 5 5 5 5 5 5 5 5 5 5 5 5 5 5 5 5 5 5 5 5 5 5 5 5 5 5 5 5 5 5 5 5 5 5 5 5 5 5 5 5 5 5 5 5 5 5 5 5 5 5 5 5 5 5 5 5 5 5 5 5 5 5 5 5 5 5 5 5 5 6 6 5 6 6 5 6 6 6 6 6 6 6 6 6 6 6 6 6 6 6 6 6 6 6 6 6 6 6 6 6 6 6 6 6 6 6 6 6 6 6 6 5 5 5 5 5 5 5 5 5 5 5 5 6 6 6 
</DataArray>
<DataArray type="Float64" Name="stress" NumberOfComponents="9" format="ascii">
-0.0025409676029469093 -1.3616128155358762 0 -1.3616128155358762 95.367850429608609 0 0 0 0 -2.7771406074219889 -2.2571349426387641 0 -2.2571349426387641 99.933494323633397 0 0 0 0 -1.6369783542311476 -3.6367851852956008 0 -3.6367851852956008 93.896788283145895 0 0 0 0 -1.8189146762215844 -2.9245282377930479 0 -2.9245282377930479 95.076428238429642 0 0 0 0 -3.3449914161556462 -3.8451459806210728 0 -3.8451459806210728 95.500497540993962 0 0 0 0 -4.364331080192831 -4.5911067782627413 0 -4.5911067782627413 100.01287096847666 0 0 0 0 -5.0359005894974276 -7.4005740355967191 0 -7.4005740355967191 99.994795180990224 0 0 0 0 -4.5975715168815627 -5.8346052850747654 0 -5.8346052850747654 95.574004249091075 0 0 0 0 -3.3956202347488742 -7.0251144803299042 0 -7.0251144803299042 94.872658809463971 0 0 0 0 -1.7940390479518922 -4.9864297633881938 0 -4.9864297633881938 91.834862204520007 0 0 0 0 -1.8673828158903065 -4.6253276834763142 0 -4.6253276834763142 91.488750407814763 0 0 0 0 -0.9127985955022675 -6.449738733682608 0 -6.449738733682608 89.233455647315267 0 0 0 0 -0.26741223150462012 -3.983105276006242 0 -3.983105276006242 86.261570999386308 0 0 0 0 -0.24455521814743175 -4.6586534669321082 0 -4.6586534669321082 87.407670083153647 0 0 0 0 -0.51605521702260715 -3.0094048793783941 0 -3.0094048793783941 89.476826892332468 0 0 0 0 -0.40167915402785548 -4.1023024351907438 0 -4.1023024351907438 89.380354384846513 0 0 0 0 7.4971274487431981e-05 -2.4368364643053315 0 -2.4368364643053315 87.423279351428803 0 0 0 0 -0.00056347285032489825 -2.2177236210758267 0 -2.2177236210758267 91.475916196106525 0 0 0 0 -2.1119120889262226 -12.642218893449312 0 -12.642218893449312 89.55857655278129 0 0 0 0 -3.5287880540530048 -17.05488071363223 0 -17.05488071363223 92.207751033324939 0 0 0 0 -4.9533990504837986 -12.093068012972736 0 -12.093068012972736 93.622330214648173 0 0 0 0 -4.7170256683289891 -14.596790382379424 0 -14.596790382379424 99.995002303139415 0 0 0 0 -2.1123621834928099 -12.557600449479025 0 -12.557600449479025 93.208082135534468 0 0 0 0 -5.1329588232217356 -10.503471799682188 0 -10.503471799682188 99.995531628358492 0 0 0 0 -5.0891462683433719 -9.1323030441483013 0 -9.1323030441483013 95.127347688548653 0 0 0 0 -3.377067439970876 -7.1304254612410567 0 -7.1304254612410567 94.082769290445469 0 0 0 0 -1.697559823575852 -9.0166381908027518 0 -9.0166381908027518 90.815866795045793 0 0 0 0 0.30422228693351183 -7.0476290380681519 0 -7.0476290380681519 85.674775540047648 0 0 0 0 -0.9585891240495128 -5.975133250381365 0 -5.975133250381365 87.302528919709005 0 0 0 0 0.30418294094546816 -6.4139415920613487 0 -6.4139415920613487 82.483458172093464 0 0 0 0 -1.7003555045616916 -8.9233679955477569 0 -8.9233679955477569 88.315640060967326 0 0 0 0 0.56073107184865556 -9.9313202832734078 0 -9.9313202832734078 86.400339294774767 0 0 0 0 1.8516595407084333 -8.6544451355947842 0 -8.6544451355947842 81.271285017226774 0 0 0 0 0.60415898598462814 -9.0786306318354129 0 -9.0786306318354129 81.19998977201567 0 0 0 0 1.5573156842238145 -13.859428338262205 0 -13.859428338262205 86.627621994802439 0 0 0 0 1.2293776883535006 -5.0772734907865811 0 -5.0772734907865811 78.419322244050363 0 0 0 0 1.3167293546853922 -5.5658206077025323 0 -5.5658206077025323 77.82789893682002 0 0 0 0 1.3033405644911766 -6.6259888511119405 0 -6.6259888511119405 81.904990249936588 0 0 0 0 1.1218139484454976 -4.1726924844415976 0 -4.1726924844415976 79.131913362187248 0 0 0 0 0.46072873434183226 -4.4629076115358828 0 -4.4629076115358828 82.685001732777096 0 0 0 0 1.1218178137756949 -5.0035337276510177 0 -5.0035337276510177 81.854403659520671 0 0 0 0 1.2801001081376695 -3.3133514448137191 0 -3.3133514448137191 79.257412252968152 0 0 0 0 1.1015451034206891 -3.0435996639781711 0 -3.0435996639781711 79.627410457416005 0 0 0 0 1.2542145619171468 -1.9375698679751565 0 -1.9375698679751565 77.63001141710842 0 0 0 0 1.2747074537696255 -2.5068815239826217 0 -2.5068815239826217 77.217922458433179 0 0 0 0 1.2492324601642129 -4.1464875070534504 0 -4.1464875070534504 79.119729604917495 0 0 0 0 0.96079331370081689 -2.4760693583927775 0 -2.4760693583927775 77.368230236332408 0 0 0 0 0.89691229758612501 -1.6568756159713516 0 -1.6568756159713516 75.410153573915522 0 0 0 0 1.249433700683086 -3.1938628327214684 0 -3.1938628327214684 76.237972002066329 0 0 0 0 0.59354148642212246 -2.8460429198466386 0 -2.8460429198466386 76.857906171806547 0 0 0 0 0.00044231137135449742 -2.2969342213683701 0 -2.2969342213683701 83.866653751539047 0 0 0 0 0.24563632684589151 -3.8977784013661831 0 -3.8977784013661831 85.586830926781417 0 0 0 0 0.22126649731217962 -2.8210551715920564 0 -2.8210551715920564 85.025997517405514 0 0 0 0 0.46349454496974257 -5.1844832916347006 0 -5.1844832916347006 84.742999318380527 0 0 0 0 0.60321717926164098 -3.0967562653645615 0 -3.0967562653645615 82.44148078043402 0 0 0 0 0.68998229148121482 -3.9561794348562245 0 -3.9561794348562245 83.551378747870061 0 0 0 0 1.0482936770624873 -3.1025241892511772 0 -3.1025241892511772 80.749282543188741 0 0 0 0 1.0425785794848688 -2.283156887662841 0 -2.283156887662841 79.638012685236333 0 0 0 0 1.1169663540040915 -3.856407113225059 0 -3.856407113225059 81.402029357434884 0 0 0 0 1.2572026508596501 -2.7208943963851766 0 -2.7208943963851766 79.077825535082226 0 0 0 0 0.73287398106250334 -1.799553182050964 0 -1.799553182050964 79.374036519287529 0 0 0 0 0.5481021844120475 -2.331355667025548 0 -2.331355667025548 81.784834881315817 0 0 0 0 0.00054842745160963964 -1.9561297983020918 0 -1.9561297983020918 81.130415749558807 0 0 0 0 0.60909965301447799 -3.3474668573226039 0 -3.3474668573226039 82.463134055434452 0 0 0 0 0.67272311937449913 -2.6724371326083585 0 -2.6724371326083585 80.132543631986124 0 0 0 0 0.00067904133785989329 -1.5938510280193665 0 -1.5938510280193665 79.185626744117982 0 0 0 0 0.86988680275861185 -1.4746159391104001 0 -1.4746159391104001 77.651830219582052 0 0 0 0 0.56226579787732045 -1.3786914850774288 0 -1.3786914850774288 77.704499802561585 0 0 0 0 0.00022180159755332387 -1.2809917411209852 0 -1.2809917411209852 77.93029975366062 0 0 0 0 0.63902882693724961 -2.0394260393828771 0 -2.0394260393828771 78.399928280910757 0 0 0 0 0.6712431941257273 -1.4018419509929458 0 -1.4018419509929458 77.017577941385852 0 0 0 0 0.74317218292499065 -0.87455551724693237 0 -0.87455551724693237 76.170924577107769 0 0 0 0 0.3843682546040299 -1.2097424785527977 0 -1.2097424785527977 77.017577941385852 0 0 0 0 0.00050655942886770346 -0.75342250978205205 0 -0.75342250978205205 76.488799699019395 0 0 0 0 0.76747424432903344 -0.73371229041156028 0 -0.73371229041156028 76.116955250762345 0 0 0 0 1.0418260241115864 -0.87103520038716908 0 -0.87103520038716908 75.801725513636129 0 0 0 0 0.65745444581967805 -0.95391800935005477 0 -0.95391800935005477 76.630811521540167 0 0 0 0 1.1474491209188025 -1.3547146229785199 0 -1.3547146229785199 76.630811521540139 0 0 0 0 1.2360751540307904 -1.2183594371099815 0 -1.2183594371099815 76.116955250762345 0 0 0 0 0.88771043029174268 -1.0601398832990938 0 -1.0601398832990938 76.958977879978974 0 0 0 0 1.1702903278333094 -1.915246701462479 0 -1.915246701462479 77.425151973517103 0 0 0 0 0.99918358565019716 -2.2696078797104704 0 -2.2696078797104704 78.821213147217804 0 0 0 0 1.1760283505637275 -1.5869957080633537 0 -1.5869957080633537 77.798467544016688 0 0 0 0 1.1027960873321585 -2.0611774728365191 0 -2.0611774728365191 77.539525332515666 0 0 0 0 1.1313046748675559 -1.3785430515153352 0 -1.3785430515153352 76.134282340112634 0 0 0 0 0.80503126236436495 -1.034348745081104 0 -1.034348745081104 76.57570463589434 0 0 0 0 1.3235123602278169 -1.3372469034292358 0 -1.3372469034292358 76.395975778634607 0 0 0 0 0.048329212900978025 -1.4677199269186758 0 -1.4677199269186758 75.920973321753081 0 0 0 0 0.54503946559451677 -0.60836492373002216 0 -0.60836492373002216 75.739784137849142 0 0 0 0 0.6485899384428917 -1.5017163117240671 0 -1.5017163117240671 76.176362958284926 0 0 0 0 -0.2634014921023935 -0.39982930087737145 0 -0.39982930087737145 75.377746705902382 0 0 0 0 0.60749779066738463 -0.91859472483405646 0 -0.91859472483405646 75.043495602168207 0 0 0 0 0.49089968096537984 -0.82164881909628207 0 -0.82164881909628207 75.251012270973433 0 0 0 0 0.54182518980657401 -0.60237871890632277 0 -0.60237871890632277 75.156875054255693 0 0 0 0 0.034155641700837958 -0.18738937526714494 0 -0.18738937526714494 75.251012270973405 0 0 0 0 -0.15448012779614162 -0.44569035505750776 0 -0.44569035505750776 74.91862441716853 0 0 0 0 1.0585002196267757 -1.0708945783463975 0 -1.0708945783463975 75.687554472908317 0 0 0 0 0.54536136509363842 -0.44760341441011064 0 -0.44760341441011064 75.687554472908346 0 0 0 0 0.98224912585419333 -0.74936310890932134 0 -0.74936310890932134 75.452225883165909 0 0 0 0 0.58625331929141389 -0.32234158733814411 0 -0.32234158733814411 75.436322357966816 0 0 0 0 0.59572454387996765 -0.42586739779925153 0 -0.42586739779925153 75.072501458054916 0 0 0 0 0.35348836340723322 -0.056567948740877227 0 -0.056567948740877227 75.050944355711806 0 0 0 0 -0.45648381593555942 0.11147475860151701 0 0.11147475860151701 74.939363763252402 0 0 0 0 0.19121189063981708 -0.093409734705517167 0 -0.093409734705517167 75.157059086754003 0 0 0 0 0.028296118940865145 -0.30427621810869709 0 -0.30427621810869709 74.91909653052835 0 0 0 0 -0.18727828936144608 0.091282693462744646 0 0.091282693462744646 74.922041764180861 0 0 0 0 -0.46840033500792416 -0.18349664570689583 0 -0.18349664570689583 74.823371536563116 0 0 0 0 0.19948459310641298 -0.23429827641012935 0 -0.23429827641012935 74.8840089891346 0 0 0 0 -0.1904215944795252 -0.15676182488338952 0 -0.15676182488338952 74.832424765191831 0 0 0 0 0.080466815671557931 0.0903134312032563 0 0.0903134312032563 74.876590475886644 0 0 0 0 -0.5641071209717089 0.16631589836812566 0 0.16631589836812566 74.831797940232775 0 0 0 0 0.62510517623598627 -0.29083701150725716 0 -0.29083701150725716 75.01289830534995 0 0 0 0 0.35699591281288229 -0.15063270804712658 0 -0.15063270804712658 74.891876799896579 0 0 0 0 0.4953477057082018 0.00024439244904783664 0 0.00024439244904783664 74.999958568251657 0 0 0 0 0.63325932288791642 -0.13131110435480053 0 -0.13131110435480053 75.033467309467341 0 0 0 0 0.75376197346787632 -0.33376229175077299 0 -0.33376229175077299 75.216659822383079 0 0 0 0 0.59493689966103325 -0.096271898310813953 0 -0.096271898310813953 75.259661310285509 0 0 0 0 0.61182593571543142 -0.09832068839928354 0 -0.09832068839928354 75.206635525431096 0 0 0 0 0.38642786894284675 -0.15347489601831654 0 -0.15347489601831654 75.602709183932049 0 0 0 0 0.00054617909411211658 0.002101107264790826 0 0.002101107264790826 75.54831136349388 0 0 0 0 5.3290251087148631e-05 -0.26023698501068993 0 -0.26023698501068993 75.68249150665082 0 0 0 0 0.53463242918265963 -0.33314874124915406 0 -0.33314874124915406 75.483480990174755 0 0 0 0 0.4123154364325286 -0.18331820892435502 0 -0.18331820892435502 75.46965485945276 0 0 0 0 0.00048059684272651012 -0.49172801275207512 0 -0.49172801275207512 75.973000186416442 0 0 0 0 0.37359340135961444 -0.52846159312915542 0 -0.52846159312915542 75.872061795087802 0 0 0 0 0.49876437355461967 -0.90780984261211228 0 -0.90780984261211228 76.309026437884285 0 0 0 0 0.41463861439479111 -0.66659330993343957 0 -0.66659330993343957 76.130415209748662 0 0 0 0 0.80959493027923346 -0.61981163469592815 0 -0.61981163469592815 75.602754700330635 0 0 0 0 0.87249770512901115 -0.52991369113711073 0 -0.52991369113711073 75.292604066345575 0 0 0 0 0.67164695754267556 -0.53954462846660078 0 -0.53954462846660078 75.783736632086089 0 0 0 0 0.61013423777790043 -0.22350957434271379 0 -0.22350957434271379 75.279203847840023 0 0 0 0 0.56172518945533634 -0.38331569531182907 0 -0.38331569531182907 75.575221048744581 0 0 0 0 -1.4146521942496495 -0.01427075615066542 0 -0.01427075615066542 74.792116526818319 0 0 0 0 -1.6678634169590938 0.039787125917911226 0 0.039787125917911226 74.803985593618336 0 0 0 0 -1.3812703646126057 -0.017000143570783166 0 -0.017000143570783166 74.551004006321477 0 0 0 0 -1.6464975766793273 -0.051733069771067619 0 -0.051733069771067619 74.690827247414802 0 0 0 0 -1.8059910548609706 0.059503329102483349 0 0.059503329102483349 74.615867896317809 0 0 0 0 -1.8606399942172636 0.055747167064652103 0 0.055747167064652103 74.71902972024759 0 0 0 0 -1.752422320594303 -0.057993879585495733 0 -0.057993879585495733 74.49580432695052 0 0 0 0 -1.8126363432179684 -0.042320759719534973 0 -0.042320759719534973 74.816267591103383 0 0 0 0 -1.8114032345465789 0.050989739223609831 0 0.050989739223609831 74.850061550743106 0 0 0 0 -1.8512106631224881 0.028842444672818601 0 0.028842444672818601 74.908370217898266 0 0 0 0 -1.8039012941946102 -0.011924563093464791 0 -0.011924563093464791 74.939862535215866 0 0 0 0 -1.8043057574805093 0.019182425177523221 0 0.019182425177523221 74.96326691166712 0 0 0 0 -1.6527795462992891 0.0001906392097907883 0 0.0001906392097907883 74.934327410419883 0 0 0 0 -1.6536296225955653 -0.015372904968785406 0 -0.015372904968785406 74.875120014053294 0 0 0 0 -1.6560745554931957 0.033065720069004101 0 0.033065720069004101 74.932552685948394 0 0 0 0 -1.6527653337886372 -0.001363203916156408 0 -0.001363203916156408 74.978851982995025 0 0 0 0 -1.4112299818027878 -0.004089614550736087 0 -0.004089614550736087 74.897313534596918 0 0 0 0 -1.0585007829758251 -0.00072886372578295777 0 -0.00072886372578295777 74.877880588508759 0 0 0 0 -1.4101541375583313 0.025833083586576766 0 0.025833083586576766 74.959027982958617 0 0 0 0 -2.1170015659516501 0.0032545476951781893 0 0.0032545476951781893 75.008938805094772 0 0 0 0 -2.1995769011987125 0.052107571988813106 0 0.052107571988813106 74.992489541302348 0 0 0 0 -1.0997884505993571 0.0082099039543379604 0 0.0082099039543379604 74.843777937378121 0 0 0 0 -0.92074205587144153 -0.15393495666165791 0 -0.15393495666165791 74.839041014455645 0 0 0 0 -1.4285916567573504 0.18668645955880692 0 0.18668645955880692 74.926098603328967 0 0 0 0 -1.5308741525001945 -0.047545846637262912 0 -0.047545846637262912 74.784132780575817 0 0 0 0 -1.3484848290079192 -0.14835146062941362 0 -0.14835146062941362 74.870390871650329 0 0 0 0 -0.9246179685112299 0.19667534163495759 0 0.19667534163495759 74.874070438646413 0 0 0 0 -1.5125914962156584 0.15575909109588792 0 0.15575909109588792 74.74577396036932 0 0 0 0 -1.4315677463112246 0.043233511395726509 0 0.043233511395726509 74.632196250069057 0 0 0 0 -1.3887919252830656 0.17461461157168401 0 0.17461461157168401 74.92439905069773 0 0 0 0 -0.7381491837760823 -0.19050370468772826 0 -0.19050370468772826 74.800863561671207 0 0 0 0 -1.4216772002184868 0.046132261935014185 0 0.046132261935014185 74.898224155759351 0 0 0 0 -2.1628711928095532 0.031238585748837977 0 0.031238585748837977 74.952943428443376 0 0 0 0 -1.4071251941897902 0.050150180433064406 0 0.050150180433064406 74.759618752041973 0 0 0 0 -1.0814355964047759 -0.016627158170365419 0 -0.016627158170365419 74.720254550917787 0 0 0 0 -1.3573752691987861 0.037144682163756215 0 0.037144682163756215 74.453083239879675 0 0 0 0 -1.1504243263130518 -0.13473146783834977 0 -0.13473146783834977 74.589884596998147 0 0 0 0 -2.3008486526261009 -0.089838817497366108 0 -0.089838817497366108 74.846073514318391 0 0 0 0 -1.4118975721560485 -0.25710885738936895 0 -0.25710885738936895 74.453083239879732 0 0 0 0 -0.71199824543110646 0.068986420524396408 0 0.068986420524396408 74.900822830985021 0 0 0 0 -1.4860143449228933 0.17480633042507066 0 0.17480633042507066 74.56052950246135 0 0 0 0 -1.1564216774048406 -0.31633142910851575 0 -0.31633142910851575 74.784042965622163 0 0 0 0 -1.401329641346833 -0.4915700778129235 0 -0.4915700778129235 74.56052950246135 0 0 0 0 -0.37467124121109396 -0.63074604570601878 0 -0.63074604570601878 74.900822830984993 0 0 0 0 -1.0806760107303433 -0.026908644906711743 0 -0.026908644906711743 74.706095506312408 0 0 0 0 -1.1816384593559466 -0.59464442335394807 0 -0.59464442335394807 74.061255649067334 0 0 0 0 -1.1311065224598824 -0.87453730032683552 0 -0.87453730032683552 75.050539233599622 0 0 0 0 -0.068650594113052854 -0.82408404231276222 0 -0.82408404231276222 74.434763897024425 0 0 0 0 -1.3745646788488788 -0.38091982417299164 0 -0.38091982417299164 74.144225127202674 0 0 0 0 -1.1596903491421426 -0.32155660080397297 0 -0.32155660080397297 74.071980530036058 0 0 0 0 -2.3193806982842862 -0.056204567008535378 0 -0.056204567008535378 74.607849537790116 0 0 0 0 -2.3333820010916604 -0.63306355946536996 0 -0.63306355946536996 74.588735750706519 0 0 0 0 -1.1666910005458275 -0.79390240716085714 0 -0.79390240716085714 73.532132242871199 0 0 0 0 -1.4369775355143659 -0.3637387751572021 0 -0.3637387751572021 73.383984440010067 0 0 0 0 -1.472632572177254 -0.57823274022612736 0 -0.57823274022612736 72.914237146179573 0 0 0 0 -1.588114664755504 -0.1831349957141839 0 -0.1831349957141839 73.648631518010575 0 0 0 0 -1.4218505524232077 -0.58131517782798525 0 -0.58131517782798525 73.716828017587545 0 0 0 0 -1.4089598773147278 -0.15924809418538644 0 -0.15924809418538644 73.89643483278266 0 0 0 0 -1.6548011685674275 -0.2215868671891883 0 -0.2215868671891883 74.246213551946823 0 0 0 0 -1.7206292008152353 -0.13988006672227016 0 -0.13988006672227016 74.496782588309088 0 0 0 0 -1.5674172853598893 0.0098924263670596702 0 0.0098924263670596702 74.246213551946823 0 0 0 0 -1.518363758403547 -0.15369554900979665 0 -0.15369554900979665 74.611947266782721 0 0 0 0 -1.8779047818119881 -0.0086721706614980576 0 -0.0086721706614980576 74.480767803555523 0 0 0 0 -1.7039529098384225 -0.018134449460916358 0 -0.018134449460916358 74.136934929959182 0 0 0 0 -1.7834844420434361 -0.12247094090776045 0 -0.12247094090776045 74.136934929959097 0 0 0 0 -1.8630878108035001 -0.0035776570030066068 0 -0.0035776570030066068 74.088810119542757 0 0 0 0 -1.7096468808799443 -0.29573615876483927 0 -0.29573615876483927 73.433857535052169 0 0 0 0 -1.692823878182586 0.017471351238469879 0 0.017471351238469879 73.580187398061639 0 0 0 0 -1.6760567267555952 -0.084909490811071464 0 -0.084909490811071464 73.59954497745224 0 0 0 0 -1.5822455520426857 0.096604355902087491 0 0.096604355902087491 72.836153347648633 0 0 0 0 -1.3816295934176281 -0.48119031434404747 0 -0.48119031434404747 72.135289671689065 0 0 0 0 -1.1751690903539707 0.074392252926980151 0 0.074392252926980151 71.423188696461921 0 0 0 0 -0.84242442121862737 -0.80117307750003874 0 -0.80117307750003874 70.299752546964214 0 0 0 0 -0.84628656604101415 -0.63619839783504517 0 -0.63619839783504517 70.940117999523295 0 0 0 0 -1.3761709627450409 -0.25198563404980812 0 -0.25198563404980812 72.505054740385276 0 0 0 0 -1.2350916936227394 -1.0342000722002922 0 -1.0342000722002922 72.614976495825573 0 0 0 0 -1.1470158148011964 -0.8670242461285953 0 -0.8670242461285953 72.393621812100889 0 0 0 0 -0.91294976018097174 -1.8673247771483261 0 -1.8673247771483261 71.179607852382048 0 0 0 0 -1.1483846067968226 -1.0526730711881953 0 -1.0526730711881953 71.51855469195246 0 0 0 0 -0.50609867837661893 -1.8445968732785083 0 -1.8445968732785083 69.35246891445729 0 0 0 0 -0.51323320443284137 -1.7465633440833619 0 -1.7465633440833619 70.913866413387836 0 0 0 0 -0.26364882153110969 -3.2886320137012888 0 -3.2886320137012888 68.934034375664623 0 0 0 0 0.16683466967296745 -1.293526108082375 0 -1.293526108082375 68.534010413987573 0 0 0 0 0.16981318121038491 -1.3480209996564838 0 -1.3480209996564838 67.444076983706907 0 0 0 0 -0.37055803278857224 0.0076479590643456774 0 0.0076479590643456774 69.192632558081527 0 0 0 0 0.54810085100582939 -1.994140192374795 0 -1.994140192374795 74.40036373810284 0 0 0 0 -0.12933755028638227 -3.0893705288133617 0 -3.0893705288133617 75.890320011671918 0 0 0 0 -0.7726994636417599 -1.5643781551857501 0 -1.5643781551857501 75.405765510235256 0 0 0 0 -0.81046979649401651 -1.1063926957124171 0 -1.1063926957124171 73.547856469388762 0 0 0 0 -0.12933755028524629 -2.2879176322694832 0 -2.2879176322694832 72.878272669668831 0 0 0 0 -2.1694349560757384 -1.5055298451508179 0 -1.5055298451508179 74.461728737270448 0 0 0 0 -1.22789323281759 -0.83080663339714533 0 -0.83080663339714533 73.590788194621922 0 0 0 0 -1.0847174780378679 -1.5855102392849467 0 -1.5855102392849467 72.656479474502476 0 0 0 0 -0.91289706894574429 -1.7214478467959964 0 -1.7214478467959964 72.755944691078696 0 0 0 0 -0.85658137719263916 -2.9248787806126302 0 -2.9248787806126302 71.361650450739091 0 0 0 0 -0.26457432212581899 -3.2888981068315104 0 -3.2888981068315104 71.58507764638648 0 0 0 0 -1.7131627543852803 -3.0716537004030955 0 -3.0716537004030955 74.31119486419334 0 0 0 0 1.0185197846528364 -4.3097505991370895 0 -4.3097505991370895 71.971002862310399 0 0 0 0 1.0034027139635224 -5.8866656495284815 0 -5.8866656495284815 76.940352859395489 0 0 0 0 1.2309669810289732 -3.8674154718903253 0 -3.8674154718903253 74.537382990169647 0 0 0 0 1.8676495781660176 -12.405333294516367 0 -12.405333294516367 78.471524801459879 0 0 0 0 2.7786286271833891 -10.92853111980628 0 -10.92853111980628 79.730792209877336 0 0 0 0 1.8722407166467032 -7.0178451148407524 0 -7.0178451148407524 75.378560308867691 0 0 0 0 2.9516358880552205 -7.9494139132640189 0 -7.9494139132640189 70.756499367696506 0 0 0 0 2.3652354396225999 -11.47262057023363 0 -11.47262057023363 74.800701622971076 0 0 0 0 -0.56710327638747415 -5.9411420252527023 0 -5.9411420252527023 74.351152824342591 0 0 0 0 -0.28355163819373586 -5.1601564734111554 0 -5.1601564734111554 69.374477108548035 0 0 0 0 0.98165483047069202 -5.9900555405619684 0 -5.9900555405619684 69.913983855726173 0 0 0 0 1.1826177198113008 -8.8420251859203063 0 -8.8420251859203063 66.489284839261614 0 0 0 0 3.4228947543192456 -9.9281159599819162 0 -9.9281159599819162 66.963581610213794 0 0 0 0 7.9101004658814036 -13.095262365694936 0 -13.095262365694936 50.034171536729332 0 0 0 0 7.19564204463917 -17.996703889536491 0 -17.996703889536491 60.551513005646711 0 0 0 0 14.39128408927834 -30.336603599268869 0 -30.336603599268869 80.568578512903287 0 0 0 0 4.1412581142501628 -18.553438006675528 0 -18.553438006675528 86.894883243634808 0 0 0 0 5.513999370796923 -14.191760539569827 0 -14.191760539569827 69.939063748781791 0 0 0 0 1.7091590032572337 -26.996787967309047 0 -26.996787967309047 99.930334862790573 0 0 0 0 0.13039350541599837 -22.227966210459556 0 -22.227966210459556 85.657074301239732 0 0 0 0 -2.9289901104760179 -19.383801542721812 0 -19.383801542721812 100.00593898234891 0 0 0 0 3.5401330106455342 -0.2654657694170055 0 -0.2654657694170055 60.568423238531523 0 0 0 0 1.967961195323511 -2.1912790470446737 0 -2.1912790470446737 63.035126464148334 0 0 0 0 1.0895238861836181 -0.13060804963716688 0 -0.13060804963716688 65.775565493753447 0 0 0 0 1.9746402849149598 -2.3660001882731825 0 -2.3660001882731825 64.795726830983426 0 0 0 0 0.65766852469057646 -3.1670683885099606 0 -3.1670683885099606 66.111550134285864 0 0 0 0 0.65891996762620586 -3.2223584071492724 0 -3.2223584071492724 68.552755105629757 0 0 0 0 0.97127415527072847 -5.7382982835690131 0 -5.7382982835690131 65.311911412167149 0 0 0 0 2.8400784375787422 -5.5973680039253111 0 -5.5973680039253111 64.624537681221227 0 0 0 0 2.8024314019139567 -5.1776752268110897 0 -5.1776752268110897 61.080239870101934 0 0 0 0 3.3109092050736106 -8.9808992753074186 0 -8.9808992753074186 59.052019959102495 0 0 0 0 7.7473922194271525 -11.521411883451691 0 -11.521411883451691 59.848321383905983 0 0 0 0 7.4645674825637114 -6.5444039270296059 0 -6.5444039270296059 56.282457553549762 0 0 0 0 7.437809127960155 -7.9288164728193351 0 -7.9288164728193351 50.001027557971554 0 0 0 0 7.5151336126190929 -4.0380419358781694 0 -4.0380419358781694 50.002283642586008 0 0 0 0 4.95894810017385 -2.9848481439340926 0 -2.9848481439340926 56.751422615625017 0 0 0 0 5.014709538480961 -3.6154530766914377 0 -3.6154530766914377 58.36420116306283 0 0 0 0 7.2775622585997093 -0.032805071746082604 0 -0.032805071746082604 50.00666049874701 0 0 0 0 7.373754369326929 -1.7416187746050582 0 -1.7416187746050582 55.9019500609879 0 0 0 0 7.3282873077997062 1.7587190641192194 0 1.7587190641192194 56.045056368998075 0 0 0 0 7.3890594693643159 3.8229420267730063 0 3.8229420267730063 50.002542019730413 0 0 0 0 4.9759495681962989 3.4063328728909283 0 3.4063328728909283 58.330211940694312 0 0 0 0 4.894969441098814 2.7781717361455662 0 2.7781717361455662 56.671055903883143 0 0 0 0 3.5582782358280327 0.11995757397006379 0 0.11995757397006379 60.745193395687124 0 0 0 0 1.9678649967621868 2.1458868782850153 0 2.1458868782850153 64.654174067332747 0 0 0 0 1.9534418473248838 1.9690441771666656 0 1.9690441771666656 62.963728709436054 0 0 0 0 1.0914232289394323 -0.028789239775812714 0 -0.028789239775812714 65.801114653474997 0 0 0 0 0.69283565890978771 3.1639428774839189 0 3.1639428774839189 68.398017607479574 0 0 0 0 1.0179953463016194 5.7335011994692309 0 5.7335011994692309 65.198269283146772 0 0 0 0 0.69156675617861829 3.1069076981863759 0 3.1069076981863759 66.125926361791073 0 0 0 0 2.8169507974398655 5.1491603302004023 0 5.1491603302004023 61.096596627828376 0 0 0 0 2.8798255344557853 5.6301984068557402 0 5.6301984068557402 64.609715278312706 0 0 0 0 3.3016173488042204 9.0115515961963411 0 9.0115515961963411 59.063798663921744 0 0 0 0 7.3965726322141219 6.5356176170679987 0 6.5356176170679987 56.521789066754934 0 0 0 0 7.4009746399672256 7.969045869023887 0 7.969045869023887 50.00094219942082 0 0 0 0 7.7484597137830349 11.533783441656453 0 11.533783441656453 59.887833825442272 0 0 0 0 7.1981421902989666 17.997241770384207 0 17.997241770384207 60.534531367964519 0 0 0 0 7.939359169555428 13.117607850663319 0 13.117607850663319 50.03404654927462 0 0 0 0 14.396284380597924 30.353195491913556 0 30.353195491913556 80.557906353986709 0 0 0 0 3.4225955788252547 9.9950821393967999 0 9.9950821393967999 67.036106030153064 0 0 0 0 -2.8061808116230349 19.575488482780884 0 19.575488482780884 100.00595935707634 0 0 0 0 0.092337686818660947 22.209862246430646 0 22.209862246430646 85.639559940329946 0 0 0 0 1.6914961429853994 27.019272205305469 0 27.019272205305469 99.930541164792373 0 0 0 0 4.3078761460903685 18.805565604932553 0 18.805565604932553 86.821715203650115 0 0 0 0 5.5771940958595696 14.355978628986122 0 14.355978628986122 69.841960983870877 0 0 0 0 1.9387756376788523 12.542544753616198 0 12.542544753616198 78.475653847014655 0 0 0 0 3.0772311266864394 8.1954056352415421 0 8.1954056352415421 70.719124927324401 0 0 0 0 2.7566024152253181 11.031814789701848 0 11.031814789701848 79.80276233566542 0 0 0 0 1.8818875017307508 7.0658909479252543 0 7.0658909479252543 75.359520907435467 0 0 0 0 1.1700462766202939 8.8422747276761697 0 8.8422747276761697 66.475524464626972 0 0 0 0 2.3400925532405861 11.410727945111944 0 11.410727945111944 74.798214287415249 0 0 0 0 -0.55320733484003526 5.894653124187812 0 5.894653124187812 74.353281743134289 0 0 0 0 -0.27660366742001408 5.1540918746214288 0 5.1540918746214288 69.323068351510642 0 0 0 0 1.0349900315695226 6.0184359620205328 0 6.0184359620205328 69.877259623018745 0 0 0 0 -0.24590941261412347 3.297742908013845 0 3.297742908013845 71.534783833890685 0 0 0 0 -1.7139180602371358 3.0895690484272791 0 3.0895690484272791 74.336059629436818 0 0 0 0 -0.856959030118567 2.93715158274955 0 2.93715158274955 71.322496052217275 0 0 0 0 1.0343484122091393 5.9548971817240499 0 5.9548971817240499 77.00572850433673 0 0 0 0 1.0700383340922812 4.4023229700277398 0 4.4023229700277398 71.984626804538834 0 0 0 0 1.3269676314291643 3.9368076423234015 0 3.9368076423234015 74.565998670489648 0 0 0 0 -0.10132025521790658 3.1020415367453147 0 3.1020415367453147 75.936777936058661 0 0 0 0 0.64995869539319573 2.0577328970620101 0 2.0577328970620101 74.50965325932259 0 0 0 0 -0.052378481969058976 2.3420140678391235 0 2.3420140678391235 72.934110032490025 0 0 0 0 -0.72818006830671145 1.1337315306859637 0 1.1337315306859637 73.605903408284576 0 0 0 0 -0.69872414608596412 1.5984149717602349 0 1.5984149717602349 75.462270050702841 0 0 0 0 -1.0789757804692712 1.5922937609402084 0 1.5922937609402084 72.645210448522903 0 0 0 0 -0.90914211357965513 1.7201901060810201 0 1.7201901060810201 72.7340616757308 0 0 0 0 -2.1579515609385407 1.5103353706407461 0 1.5103353706407461 74.459862122352206 0 0 0 0 -1.2274698433790912 0.81058291795477544 0 0.81058291795477544 73.555339892461518 0 0 0 0 -1.2411700653729669 1.0283134850539 0 1.0283134850539 72.597703129854608 0 0 0 0 -1.1512134834270107 0.83799943538861044 0 0.83799943538861044 72.353329103513204 0 0 0 0 -0.89999577866715796 1.8463564177607168 0 1.8463564177607168 71.128031381630478 0 0 0 0 -1.1499524646940265 1.026812307501868 0 1.026812307501868 71.49257528173689 0 0 0 0 -1.3864489658804988 0.21658906661815536 0 0.21658906661815536 72.479647043555872 0 0 0 0 -1.3859648528191375 0.4472541928594751 0 0.4472541928594751 72.122943194249501 0 0 0 0 -1.1740935650797593 -0.1179280382421849 0 -0.1179280382421849 71.398886341685966 0 0 0 0 -0.84860518222187231 0.74458711805169742 0 0.74458711805169742 70.294962742994812 0 0 0 0 -0.85149806231762959 0.56685585709806219 0 0.56685585709806219 70.874642021722593 0 0 0 0 -0.36868592940174688 -0.099992054936212771 0 -0.099992054936212771 69.176108428925886 0 0 0 0 0.15087519872590249 1.2302549820936974 0 1.2302549820936974 67.456301561089106 0 0 0 0 0.1505102608550839 1.1392698838746707 0 1.1392698838746707 68.431848526324075 0 0 0 0 -0.24540651124596735 3.3051981827377972 0 3.3051981827377972 68.908730066133785 0 0 0 0 -0.51605695828111842 1.7068988006728674 0 1.7068988006728674 70.854051960192237 0 0 0 0 -0.50144993638511082 1.8055622173857842 0 1.8055622173857842 69.33360389885604 0 0 0 0 0.00010035265847808169 2.455741029217279 0 2.455741029217279 87.345835620702246 0 0 0 0 -0.40966691063275906 4.0725516617512767 0 4.0725516617512767 89.41111716071282 0 0 0 0 -0.4684782623321283 3.0053989785279782 0 3.0053989785279782 89.405281884048236 0 0 0 0 -0.00056578213517488206 2.2243323703928581 0 2.2243323703928581 91.443882964192653 0 0 0 0 -1.6509474049573782 3.6368258021323072 0 3.6368258021323072 93.91558344194209 0 0 0 0 -2.7704423388619142 2.2597090345932429 0 2.2597090345932429 99.933474921331779 0 0 0 0 -0.0025676486560178087 1.3582842320815871 0 1.3582842320815871 95.362750626108664 0 0 0 0 -3.3330833609118944 3.8434882980895395 0 3.8434882980895395 95.479153851063984 0 0 0 0 -1.8157249417763246 2.9239261915381434 0 2.9239261915381434 95.081269815738779 0 0 0 0 -4.386711998513289 4.622694273214961 0 4.622694273214961 100.01277293537669 0 0 0 0 -4.6421176061354679 5.8367478115304721 0 5.8367478115304721 95.753423171658142 0 0 0 0 -5.1213872679211248 7.254127338169269 0 7.254127338169269 99.994995473020481 0 0 0 0 -3.4257243228822931 6.9178104995728518 0 6.9178104995728518 94.954261367429353 0 0 0 0 -1.805551249971896 4.9642680701540485 0 4.9642680701540485 91.887911844438804 0 0 0 0 -1.8443658724864327 4.6324943063622186 0 4.6324943063622186 91.592334822665407 0 0 0 0 -0.23822873817854529 4.6158057044992802 0 4.6158057044992802 87.319216591804661 0 0 0 0 -0.26730543695366471 3.9473790244678639 0 3.9473790244678639 86.426456847231748 0 0 0 0 -1.002287238894489 6.2818700440928978 0 6.2818700440928978 89.281610569155418 0 0 0 0 0.19741856304893357 6.9983619462124125 0 6.9983619462124125 85.929977779114097 0 0 0 0 0.20855563624570994 6.4169837508612773 0 6.4169837508612773 82.727631780326874 0 0 0 0 -1.7713829350804562 8.8416493686556308 0 8.8416493686556308 88.342694236690932 0 0 0 0 -1.7784840773718074 8.958699614557645 0 8.958699614557645 91.128479078265514 0 0 0 0 -1.0187135649981518 5.8813278933573514 0 5.8813278933573514 87.673592808858757 0 0 0 0 -3.4128496922004627 7.0336608572097248 0 7.0336608572097248 94.061880316289262 0 0 0 0 -5.1362425078266298 9.1475622254173459 0 9.1475622254173459 95.331865273183439 0 0 0 0 -5.1460406811034112 10.421285692799529 0 10.421285692799529 99.995482544211882 0 0 0 0 -2.1229025059967741 12.467250579050415 0 12.467250579050415 93.263115428494018 0 0 0 0 -4.9342301427501196 12.088009797597579 0 12.088009797597579 93.604786407754318 0 0 0 0 -4.6822319959256253 14.497636911205518 0 14.497636911205518 99.994879473704714 0 0 0 0 -3.4602289241088409 17.073469289673767 0 17.073469289673767 92.023810487656874 0 0 0 0 -2.1168156617271019 12.556149996518002 0 12.556149996518002 89.561262313749921 0 0 0 0 1.5332392152858954 13.983849649608146 0 13.983849649608146 86.655444063473396 0 0 0 0 0.41606602423588868 9.7921248653428847 0 9.7921248653428847 86.869808231002594 0 0 0 0 0.52262098487859898 8.9822789444050386 0 8.9822789444050386 81.463107713147679 0 0 0 0 1.8249475210028718 8.7273587368282968 0 8.7273587368282968 81.341576399334372 0 0 0 0 1.2905529930742232 5.5408542990177239 0 5.5408542990177239 78.026388534178864 0 0 0 0 1.2861470215698232 6.6469257587028157 0 6.6469257587028157 82.155325636326552 0 0 0 0 1.1952194093733124 5.083019796848248 0 5.083019796848248 78.544668485749298 0 0 0 0 1.2687279265625255 3.2307354372181862 0 3.2307354372181862 76.389196855267983 0 0 0 0 0.6443988549109102 2.8924153880015351 0 2.8924153880015351 76.97399900570349 0 0 0 0 0.9715333997645812 1.7018647079019047 0 1.7018647079019047 75.530041309734429 0 0 0 0 0.9698970106054281 2.4811431692000951 0 2.4811431692000951 77.519951654518536 0 0 0 0 1.2534204857193827 4.1719969723627219 0 4.1719969723627219 79.254619827028364 0 0 0 0 1.279023366083774 2.5340407846920243 0 2.5340407846920243 77.355553641609504 0 0 0 0 1.2502347614568148 1.9356874770936656 0 1.9356874770936656 77.736999169241471 0 0 0 0 1.0775963599255656 3.0320957529485213 0 3.0320957529485213 79.752695922444218 0 0 0 0 1.2834583564680369 3.3299979057805067 0 3.3299979057805067 79.339499785292901 0 0 0 0 1.0916683905669631 4.9803674945321941 0 4.9803674945321941 82.026132824955312 0 0 0 0 1.0775196694699405 4.1546100283400165 0 4.1546100283400165 79.331602513195207 0 0 0 0 0.41007994426997918 4.3991794889863058 0 4.3991794889863058 82.926204281743821 0 0 0 0 0.44031538355573829 5.0968079152133896 0 5.0968079152133896 84.794206777859472 0 0 0 0 0.66585049642451588 3.9165150860238569 0 3.9165150860238569 83.55496335158432 0 0 0 0 0.61827183040935907 3.0940245171517518 0 3.0940245171517518 82.517462312594262 0 0 0 0 1.0955249495704071 3.8247130163471095 0 3.8247130163471095 81.457943655862891 0 0 0 0 1.0342075179359078 2.2747704982355117 0 2.2747704982355117 79.696784742366162 0 0 0 0 1.2315217187281959 2.7053690315282211 0 2.7053690315282211 79.141965103954362 0 0 0 0 1.0281716953182498 3.0842123191956077 0 3.0842123191956077 80.782766706307939 0 0 0 0 0.56951091583473756 2.3317270873046709 0 2.3317270873046709 81.78749346398763 0 0 0 0 0.70126790319672683 1.8005559158732467 0 1.8005559158732467 79.414732961026175 0 0 0 0 0.66940661544360047 2.654162265057721 0 2.654162265057721 80.132612578893259 0 0 0 0 0.00051129384593739599 1.9873903095065089 0 1.9873903095065089 81.144560879356959 0 0 0 0 0.56915110083443832 3.3268464478112492 0 3.3268464478112492 82.495434274095487 0 0 0 0 0.00045159473833868147 2.314322398151262 0 2.314322398151262 83.838904074082166 0 0 0 0 0.20400905871015507 2.8037629893696021 0 2.8037629893696021 85.089012999350189 0 0 0 0 0.24386378441548862 3.8692337124610283 0 3.8692337124610283 85.585421641087123 0 0 0 0 0.000481193681879581 0.75037172939664742 0 0.75037172939664742 76.483113993210281 0 0 0 0 0.38784283270986819 1.2116475667151008 0 1.2116475667151008 77.018304028818875 0 0 0 0 0.74753715464885195 0.87609700027951476 0 0.87609700027951476 76.166991451497779 0 0 0 0 0.66556377778682396 1.3959004297150841 0 1.3959004297150841 77.018304028818747 0 0 0 0 0.00024388899125299732 1.2768557891748582 0 1.2768557891748582 77.92171319869658 0 0 0 0 0.65988576501296681 2.0285870995901405 0 2.0285870995901405 78.383643457573726 0 0 0 0 0.00068362155890183619 1.6083981804438281 0 1.6083981804438281 79.188919963613444 0 0 0 0 0.56821443231829782 1.3908406974072136 0 1.3908406974072136 77.717282544100044 0 0 0 0 0.82993694668917417 1.4633723022125764 0 1.4633723022125764 77.674390296658657 0 0 0 0 1.0017086108957254 2.2679577976145993 0 2.2679577976145993 78.833595975376397 0 0 0 0 1.1352033019113084 1.5900501724742782 0 1.5900501724742782 77.885349611640322 0 0 0 0 1.1983155754150756 1.9288578007267461 0 1.9288578007267461 77.443780836682208 0 0 0 0 0.87893081564095699 1.0863997740405011 0 1.0863997740405011 76.98704394080869 0 0 0 0 1.238316801082961 1.1876592125852312 0 1.1876592125852312 76.11568089659977 0 0 0 0 1.1418105113321424 1.3384735337891698 0 1.3384735337891698 76.626955907675665 0 0 0 0 0.66569410327858503 0.95884078603489797 0 0.95884078603489797 76.626955907675338 0 0 0 0 0.76913371571160671 0.73002518012458495 0 0.73002518012458495 76.11568089659977 0 0 0 0 1.0319315569836169 0.85534258930272244 0 0.85534258930272244 75.780563955842126 0 0 0 0 0.97446987246006245 0.74341288180357878 0 0.74341288180357878 75.442118758565016 0 0 0 0 0.54505964466446177 0.44266623855730813 0 0.44266623855730813 75.688532509334891 0 0 0 0 1.0663422810014773 1.0645019514817591 0 1.0645019514817591 75.688532509334891 0 0 0 0 1.3039423862991677 1.3278871395851297 0 1.3278871395851297 76.458838884787156 0 0 0 0 0.79846294697310949 1.0648430464235616 0 1.0648430464235616 76.610448156900475 0 0 0 0 1.13570849607021 2.0975287700844092 0 2.0975287700844092 77.592958283109851 0 0 0 0 1.1124481941379485 1.4011373775542317 0 1.4011373775542317 76.225351324277653 0 0 0 0 0.76157528139076658 1.5466588953825067 0 1.5466588953825067 76.196094192288342 0 0 0 0 0.5410247173581515 0.62977686116914811 0 0.62977686116914811 75.75969751806258 0 0 0 0 0.15537457485161843 1.5393305582114181 0 1.5393305582114181 75.988665121988788 0 0 0 0 0.62323749933180461 0.9040809658614819 0 0.9040809658614819 75.109810445185303 0 0 0 0 -0.24967857971660323 0.44819362220039238 0 0.44819362220039238 75.442192019413596 0 0 0 0 0.51504486857165688 0.81341432463534602 0 0.81341432463534602 75.254728688668592 0 0 0 0 0.54147627677900956 0.59989771115999702 0 0.59989771115999702 75.154616814797464 0 0 0 0 0.013010877405808086 0.19176481911711107 0 0.19176481911711107 75.254728688668251 0 0 0 0 -0.15411108653574535 0.43749450960621061 0 0.43749450960621061 74.915578947809536 0 0 0 0 -0.49473749069529049 -0.11489493904537085 0 -0.11489493904537085 74.921360590673203 0 0 0 0 0.19029297379307142 0.09051680041329746 0 0.09051680041329746 75.149563747695751 0 0 0 0 0.026633933501579943 0.29833983548695642 0 0.29833983548695642 74.908008998471814 0 0 0 0 -0.2445646681858894 -0.089209466423199046 0 -0.089209466423199046 74.927231445127831 0 0 0 0 -0.51233952675177163 0.18086571713729427 0 0.18086571713729427 74.831103735501301 0 0 0 0 -0.59858968356092823 -0.17106205213360681 0 -0.17106205213360681 74.826350344007551 0 0 0 0 0.062716259338799388 -0.093922776436784261 0 -0.093922776436784261 74.878316429217421 0 0 0 0 -0.23940511140949153 0.16116026717429577 0 0.16116026717429577 74.833146194557926 0 0 0 0 0.20709767404569859 0.22206312719583821 0 0.22206312719583821 74.867534659530293 0 0 0 0 0.34679135562657487 0.15162877795501117 0 0.15162877795501117 74.883205209426706 0 0 0 0 0.48622674221268936 -0.0021163084439876911 0 -0.0021163084439876911 75.002276368113371 0 0 0 0 0.62281416201144935 0.27801484344502114 0 0.27801484344502114 74.998225677838491 0 0 0 0 0.33548071898624943 0.055488094746465322 0 0.055488094746465322 75.055149329418327 0 0 0 0 0.60093792809916435 0.4190209605817472 0 0.4190209605817472 75.055600676597123 0 0 0 0 0.58561155644252683 0.32180369708930812 0 0.32180369708930812 75.438965804456217 0 0 0 0 0.67408104923491741 0.53142678200879345 0 0.53142678200879345 75.768240219507533 0 0 0 0 0.85882211124925822 0.51416155272215747 0 0.51416155272215747 75.271421938222829 0 0 0 0 0.80993697980864676 0.61215687538935981 0 0.61215687538935981 75.590857129426468 0 0 0 0 0.56978577059720537 0.37035249899088285 0 0.37035249899088285 75.548067484212424 0 0 0 0 0.60749438393999655 0.21333538503586169 0 0.21333538503586169 75.268948381301669 0 0 0 0 0.74802911130444394 0.3170463418334748 0 0.3170463418334748 75.19946130270614 0 0 0 0 0.61510623512089446 0.091540387746135821 0 0.091540387746135821 75.193703412595596 0 0 0 0 0.628937645922787 0.12821558107134479 0 0.12821558107134479 75.025927022418045 0 0 0 0 0.60340303766574821 0.097550378040239138 0 0.097550378040239138 75.253640446047939 0 0 0 0 0.54108805795742354 0.32330107379266337 0 0.32330107379266337 75.470932178511163 0 0 0 0 0.41543288957327834 0.16857553056343022 0 0.16857553056343022 75.446235907822654 0 0 0 0 0.40111110777323311 0.15641778747720991 0 0.15641778747720991 75.601966974368224 0 0 0 0 0.00054564708081147341 -0.00026135148209505132 0 -0.00026135148209505132 75.549400955053443 0 0 0 0 5.604073528039645e-05 0.2534437719430116 0 0.2534437719430116 75.672752141625779 0 0 0 0 0.39162796354085389 0.52770060603575075 0 0.52770060603575075 75.863005490684372 0 0 0 0 0.00049757069847499911 0.48323859600782271 0 0.48323859600782271 75.962933500983354 0 0 0 0 0.41444191616028259 0.65839042032939687 0 0.65839042032939687 76.113106865415546 0 0 0 0 0.51147317341065779 0.90565364720100661 0 0.90565364720100661 76.300979795727471 0 0 0 0 -1.6576669273125066 0.2124460156034047 0 0.2124460156034047 74.243284625643398 0 0 0 0 -1.5164580039706501 0.15542069000250081 0 0.15542069000250081 74.609310885764899 0 0 0 0 -1.7253269080242095 0.1394487063471388 0 0.1394487063471388 74.481418517847032 0 0 0 0 -1.5650661314670886 -0.0075037136443825148 0 -0.0075037136443825148 74.243284625643327 0 0 0 0 -1.8745283070461207 0.0042309891374259223 0 0.0042309891374259223 74.478996135594002 0 0 0 0 -1.7589238068755195 0.0020024438334758088 0 0.0020024438334758088 74.088810119542842 0 0 0 0 -1.7017878477324118 0.012739684555896247 0 0.012739684555896247 74.136380348427906 0 0 0 0 -1.7896901467578026 0.099975446334269691 0 0.099975446334269691 74.136380348427835 0 0 0 0 -1.6745553321327431 0.060626147664372354 0 0.060626147664372354 73.57108902437426 0 0 0 0 -1.6926805332284083 -0.0049151131315454677 0 -0.0049151131315454677 73.581514059095753 0 0 0 0 -1.7243062496821508 0.27583122471008892 0 0.27583122471008892 73.445731827224648 0 0 0 0 -1.5753454023329494 -0.10644331457758671 0 -0.10644331457758671 72.825424854022572 0 0 0 0 -1.4867363697493685 0.57310153245668971 0 0.57310153245668971 72.924016839899821 0 0 0 0 -1.5893239000538153 0.19558214309392952 0 0.19558214309392952 73.641345637374968 0 0 0 0 -1.4060741274431448 0.16371091169668262 0 0.16371091169668262 73.888963117732601 0 0 0 0 -1.4325279226763481 0.58049224221923623 0 0.58049224221923623 73.71809747858299 0 0 0 0 -1.4384629338359716 0.34493970511242367 0 0.34493970511242367 73.351668128795609 0 0 0 0 -1.1612599573422289 0.79825382673703871 0 0.79825382673703871 73.524169011024753 0 0 0 0 -2.3225199146844573 0.61908765121034481 0 0.61908765121034481 74.585037244461773 0 0 0 0 -2.3275241495091938 0.0466205414062415 0 0.0466205414062415 74.603320578779631 0 0 0 0 -1.3693156176881018 0.36985751544790446 0 0.36985751544790446 74.127265765185484 0 0 0 0 -1.1637620747545969 0.32685155721122783 0 0.32685155721122783 74.068244265812837 0 0 0 0 0.012075029245865565 0.84930095433639963 0 0.84930095433639963 74.505337998464938 0 0 0 0 -1.0586767102214685 0.9091761447561737 0 0.9091761447561737 75.072068386538376 0 0 0 0 -1.1534012415743007 0.55821462534549937 0 0.55821462534549937 74.071505073987055 0 0 0 0 -1.070560353439685 0.041400488265708191 0 0.041400488265708191 74.714472003721369 0 0 0 0 -0.31368663089133952 0.63531203925526825 0 0.63531203925526825 74.897540238569263 0 0 0 0 -1.3839809701285128 0.49752209772537981 0 0.49752209772537981 74.561580512036926 0 0 0 0 -1.1545918746538626 0.3147574776306783 0 0.3147574776306783 74.762164951677278 0 0 0 0 -1.4877663702063129 -0.17707684744328844 0 -0.17707684744328844 74.561580512036926 0 0 0 0 -0.74476983532086427 -0.079238298626933101 0 -0.079238298626933101 74.897540238569277 0 0 0 0 -1.4124112630395818 0.25841897434074212 0 0.25841897434074212 74.453758619839391 0 0 0 0 -2.3004303941971749 0.086433777915431165 0 0.086433777915431165 74.84722328531052 0 0 0 0 -1.1502151970985879 0.13500369578918026 0 0.13500369578918026 74.587983608654667 0 0 0 0 -1.3561606511464044 -0.035081525642397082 0 -0.035081525642397082 74.453758619839462 0 0 0 0 -1.4013696502556909 -0.055410043581503032 0 -0.055410043581503032 74.761024456782764 0 0 0 0 -1.0850296988332455 0.019729070281039422 0 0.019729070281039422 74.725150119122304 0 0 0 0 -2.1700593976664897 -0.036978640288277534 0 -0.036978640288277534 74.95434961842966 0 0 0 0 -1.4106966449726082 -0.051098023003419257 0 -0.051098023003419257 74.901008377851042 0 0 0 0 -0.77941953795390173 0.18032034903956173 0 0.18032034903956173 74.805228988322597 0 0 0 0 -1.4229078832131448 -0.16422220260869835 0 -0.16422220260869835 74.93745459393682 0 0 0 0 -1.4526156691300747 -0.053821650439999758 0 -0.053821650439999758 74.630963550260276 0 0 0 0 -1.5457865953778436 -0.15582509212640616 0 -0.15582509212640616 74.738908753203873 0 0 0 0 -0.98729750215960554 -0.19972823284115293 0 -0.19972823284115293 74.86878436538791 0 0 0 0 -1.3700671825565731 0.14674621641597696 0 0.14674621641597696 74.857779917309472 0 0 0 0 -1.5636721080703011 0.058561505048260187 0 0.058561505048260187 74.779814673775036 0 0 0 0 -1.4364419510089173 -0.19617602473897477 0 -0.19617602473897477 74.924748381563376 0 0 0 0 -0.98911698703458373 0.1562989389278755 0 0.1562989389278755 74.841927203023715 0 0 0 0 -1.100659642904295 -0.0088900833276284175 0 -0.0088900833276284175 74.842889193546341 0 0 0 0 -2.2013192858085895 -0.057672524647500722 0 -0.057672524647500722 75.008393521291509 0 0 0 0 -2.1191112097104869 -0.00053701045442267059 0 -0.00053701045442267059 75.012885652192949 0 0 0 0 -1.0595556048552435 -0.0017115876774482786 0 -0.0017115876774482786 74.876036803946988 0 0 0 0 -1.4001331814602465 -0.026626251181710359 0 -0.026626251181710359 74.960793687453474 0 0 0 0 -1.3998618873521116 0.0017328882825062841 0 0.0017328882825062841 74.896622309460895 0 0 0 0 -1.6442837764353999 0.015431051191666434 0 0.015431051191666434 74.875502606219925 0 0 0 0 -1.6449119502434364 -0.034898667121751714 0 -0.034898667121751714 74.933844954810638 0 0 0 0 -1.4070785160800832 0.012306268468764259 0 0.012306268468764259 74.792383805802501 0 0 0 0 -1.6415694789869626 0.04864890439528935 0 0.04864890439528935 74.684864603541541 0 0 0 0 -1.6567837718605145 -0.034500965325946709 0 -0.034500965325946709 74.808791114527537 0 0 0 0 -1.3804494305510517 0.014148548396882177 0 0.014148548396882177 74.551502750245959 0 0 0 0 -1.7677809043268535 0.073169670596598735 0 0.073169670596598735 74.506951889747114 0 0 0 0 -1.8559303050705416 -0.05758869402384903 0 -0.05758869402384903 74.713885355842422 0 0 0 0 -1.7812049981387901 -0.061793446690955989 0 -0.061793446690955989 74.601516099283572 0 0 0 0 -1.8051194517198059 -0.04582782400581209 0 -0.04582782400581209 74.858665280712955 0 0 0 0 -1.8008940825767026 0.042578673229854758 0 0.042578673229854758 74.811135891447748 0 0 0 0 -1.8512070291741769 -0.029679609689083009 0 -0.029679609689083009 74.909570346199871 0 0 0 0 -1.7955221492474829 -0.016764723603102993 0 -0.016764723603102993 74.965484946138758 0 0 0 0 -1.7951694844059292 0.011410801693784833 0 0.011410801693784833 74.938344525713035 0 0 0 0 -1.8484158804779385 -0.00015080787013717746 0 -0.00015080787013717746 74.969457268857354 0 0 0 0 -1.7957830082344424 -0.012250748764301989 0 -0.012250748764301989 74.937968249706444 0 0 0 0 -1.7957766741823782 0.017739312447183582 0 0.017739312447183582 74.964064837384399 0 0 0 0 -1.8509487968333396 0.02899868211352441 0 0.02899868211352441 74.908725756052206 0 0 0 0 -1.8017526502170911 -0.041662375857470124 0 -0.041662375857470124 74.807358071294857 0 0 0 0 -1.8042393082099091 0.046948700856620285 0 0.046948700856620285 74.855757848033022 0 0 0 0 -1.7853941542203202 0.061622816065437291 0 0.061622816065437291 74.607958132986596 0 0 0 0 -1.7631118048465031 -0.068164396111171754 0 -0.068164396111171754 74.504202772225881 0 0 0 0 -1.856267328439686 0.056059017017105361 0 0.056059017017105361 74.718172225270678 0 0 0 0 -1.6579926200787414 0.036846040922419832 0 0.036846040922419832 74.806771126049171 0 0 0 0 -1.380250813557558 -0.017617777524890244 0 -0.017617777524890244 74.549319351002396 0 0 0 0 -1.6408200894253517 -0.049444877324390291 0 -0.049444877324390291 74.689918011010832 0 0 0 0 -1.4089481831053983 -0.016251591706634372 0 -0.016251591706634372 74.793297505569512 0 0 0 0 -1.64394252839527 0.035108022910222525 0 0.035108022910222525 74.931246150511583 0 0 0 0 -1.6435725802207943 -0.015546399497225138 0 -0.015546399497225138 74.8749492105527 0 0 0 0 -1.6415978656276959 -0.00026819461641025555 0 -0.00026819461641025555 74.933469315860179 0 0 0 0 -1.3991104574810551 -0.0027093637288544414 0 -0.0027093637288544414 74.895684407187787 0 0 0 0 -1.6415980088936228 -0.00036232858798257439 0 -0.00036232858798257439 74.97932326854658 0 0 0 0 -1.3993586854487268 0.025351702727220982 0 0.025351702727220982 74.958054501477648 0 0 0 0 -2.1944247362360967 0.06153436505337595 0 0.06153436505337595 74.986506910818889 0 0 0 0 -1.0972123681180481 0.0087880232166526184 0 0.0087880232166526184 74.840398265559827 0 0 0 0 -0.9248213530646342 -0.1453479360742449 0 -0.1453479360742449 74.827058683465594 0 0 0 0 -1.5393431160568953 -0.037860701068552771 0 -0.037860701068552771 74.775403005403405 0 0 0 0 -1.4607774695801465 0.1717508473736018 0 0.1717508473736018 74.966091163890269 0 0 0 0 -1.3355136585660401 -0.14794173685709211 0 -0.14794173685709211 74.828904562739183 0 0 0 0 -0.94123652082048503 0.21404605353274064 0 0.21404605353274064 74.884281956416089 0 0 0 0 -1.501836801121027 0.15838867415470759 0 0.15838867415470759 74.751144648436593 0 0 0 0 -1.406485502309494 0.17870715231094891 0 0.17870715231094891 74.932326239557597 0 0 0 0 -1.4455908092025709 0.051228382669705752 0 0.051228382669705752 74.62777335267424 0 0 0 0 -0.76635190996355618 -0.1884617601787113 0 -0.1884617601787113 74.793792590665134 0 0 0 0 -1.4115410365982377 0.052710549630484493 0 0.052710549630484493 74.897690936420304 0 0 0 0 -2.1691098654114667 0.026952086909204809 0 0.026952086909204809 74.952416396836838 0 0 0 0 -1.0845549327057327 -0.019031476508814649 0 -0.019031476508814649 74.721473116809705 0 0 0 0 -1.4041389266988733 0.054219997629786576 0 0.054219997629786576 74.758211968285764 0 0 0 0 -1.358719011705297 0.036593359900336964 0 0.036593359900336964 74.446886184003915 0 0 0 0 -1.1547549028787278 -0.13506346783157142 0 -0.13506346783157142 74.586235730641249 0 0 0 0 -2.309509805757457 -0.087562701303733531 0 -0.087562701303733531 74.845118676507354 0 0 0 0 -1.4102298239221955 -0.25947399183991138 0 -0.25947399183991138 74.446886184004029 0 0 0 0 -0.74072968746629331 0.071313471324629063 0 0.071313471324629063 74.912883037458641 0 0 0 0 -1.4929508370962643 0.17316488164340171 0 0.17316488164340171 74.55001487374011 0 0 0 0 -1.1629328545151942 -0.31832084419079365 0 -0.31832084419079365 74.772255065279978 0 0 0 0 -1.429484704202757 -0.47232667195407885 0 -0.47232667195407885 74.55001487374011 0 0 0 0 -0.47948480158707663 -0.63371925203227875 0 -0.63371925203227875 74.912883037458641 0 0 0 0 -1.1074718354141266 -0.014083771744708429 0 -0.014083771744708429 74.650363870879119 0 0 0 0 -1.0885403299537373 -0.92937944602886091 0 -0.92937944602886091 74.969148310223943 0 0 0 0 -1.1712443234567984 -0.61656590023932267 0 -0.61656590023932267 74.054826313452168 0 0 0 0 -0.3760788348803159 -0.5372297454305226 0 -0.5372297454305226 74.849164056511881 0 0 0 0 -1.1700249760419958 -0.32785362564447951 0 -0.32785362564447951 74.06992206851487 0 0 0 0 -1.3760153038956906 -0.38906120933410193 0 -0.38906120933410193 74.142326600582749 0 0 0 0 -2.340049952083989 -0.05374986536526194 0 -0.05374986536526194 74.623426508443799 0 0 0 0 -2.2929765436728928 -0.59586677802258237 0 -0.59586677802258237 74.568280279457667 0 0 0 0 -1.1464882718364464 -0.78858845605350325 0 -0.78858845605350325 73.526380154655499 0 0 0 0 -1.4414793596979596 -0.35742389999978741 0 -0.35742389999978741 73.3846563339726 0 0 0 0 -1.4178121827874075 -0.58061340936421857 0 -0.58061340936421857 73.728572499824281 0 0 0 0 -1.4055013394019653 -0.16307183286346572 0 -0.16307183286346572 73.884841102493056 0 0 0 0 -1.5873695018487588 -0.18378356709911259 0 -0.18378356709911259 73.663988591894139 0 0 0 0 -1.4747687118765436 -0.57021581300563184 0 -0.57021581300563184 72.938018037649556 0 0 0 0 -1.5823359460156867 0.094645855226019648 0 0.094645855226019648 72.862002308107549 0 0 0 0 -1.6926165233221369 0.017605114715877335 0 0.017605114715877335 73.588882664928576 0 0 0 0 -1.7041670826338837 -0.29912089964642519 0 -0.29912089964642519 73.42782990791693 0 0 0 0 -1.6841382585009157 -0.08965857586031234 0 -0.08965857586031234 73.617922820745889 0 0 0 0 -1.7893219049148072 -0.11693826645168315 0 -0.11693826645168315 74.131839431922003 0 0 0 0 -1.8614919831543211 -0.0055363954412541716 0 -0.0055363954412541716 74.083983799705436 0 0 0 0 -1.8721277667333602 -0.0053775372570896707 0 -0.0053775372570896707 74.480700616872696 0 0 0 0 -1.7588198682530791 -0.0037000426487736604 0 -0.0037000426487736604 74.083983799705436 0 0 0 0 -1.7020300773269827 -0.015116710537967037 0 -0.015116710537967037 74.131839431922003 0 0 0 0 -1.5643266179756319 0.0070536738362250162 0 0.0070536738362250162 74.242256544879865 0 0 0 0 -1.7224390219562284 -0.13878433520477529 0 -0.13878433520477529 74.487965116792338 0 0 0 0 -1.5191265624612074 -0.15213536829861596 0 -0.15213536829861596 74.612951494106539 0 0 0 0 -1.6569123185441379 -0.21724567551044061 0 -0.21724567551044061 74.242256544879865 0 0 0 0 0.51929649562131741 -0.92026831897283046 0 -0.92026831897283046 76.312117785928422 0 0 0 0 0.42062803441884722 -0.65911547789914948 0 -0.65911547789914948 76.098313842305288 0 0 0 0 0.00051932715962485672 -0.48502166458388274 0 -0.48502166458388274 75.954744447446274 0 0 0 0 0.38728297324323857 -0.53273286612488846 0 -0.53273286612488846 75.86804039781623 0 0 0 0 4.9534163972927843e-05 -0.24795208259765147 0 -0.24795208259765147 75.664428138747098 0 0 0 0 0.40458461547542252 -0.16382455490088432 0 -0.16382455490088432 75.603643631947989 0 0 0 0 0.41227013728961592 -0.15848350948431289 0 -0.15848350948431289 75.432262453742169 0 0 0 0 0.54392049635315987 -0.31634080620500526 0 -0.31634080620500526 75.468174375730541 0 0 0 0 0.60252641660889916 -0.08636334801508383 0 -0.08636334801508383 75.259887818582712 0 0 0 0 0.61620777237086921 -0.076649947503369731 0 -0.076649947503369731 75.18519554489626 0 0 0 0 0.62834550845713832 -0.11203817101318236 0 -0.11203817101318236 75.026763796390199 0 0 0 0 0.74896860531648102 -0.30203512734169635 0 -0.30203512734169635 75.185480560676282 0 0 0 0 0.61066026610604485 -0.1979984887966566 0 -0.1979984887966566 75.252900661012973 0 0 0 0 0.57148588372459974 -0.35714798418325699 0 -0.35714798418325699 75.526585416903345 0 0 0 0 0.81687637717367356 -0.60898858126302002 0 -0.60898858126302002 75.583515438165193 0 0 0 0 0.68283955378997152 -0.51974676142913268 0 -0.51974676142913268 75.744680830513744 0 0 0 0 0.86451332702704964 -0.49802645291333647 0 -0.49802645291333647 75.25370926886967 0 0 0 0 0.58698949067958273 -0.30522857718051455 0 -0.30522857718051455 75.437295269617664 0 0 0 0 0.5987250770438407 -0.40321615145819578 0 -0.40321615145819578 75.042413469210487 0 0 0 0 0.33851925625778079 -0.034849122635534968 0 -0.034849122635534968 75.045948849178785 0 0 0 0 0.61973299596083142 -0.26546927525623687 0 -0.26546927525623687 74.989287547029107 0 0 0 0 0.48885774513098235 0.019531953322598383 0 0.019531953322598383 74.988481081533791 0 0 0 0 0.34412078061430351 -0.13463329753085418 0 -0.13463329753085418 74.888177914673179 0 0 0 0 0.18272856308729682 -0.22064996402400538 0 -0.22064996402400538 74.870159749802667 0 0 0 0 0.065921347981090728 0.10575776798003744 0 0.10575776798003744 74.874368388331732 0 0 0 0 -0.20325442988308162 -0.14652194343420888 0 -0.14652194343420888 74.828589732173882 0 0 0 0 -0.59985928056240889 0.17282250269352062 0 0.17282250269352062 74.829752150715194 0 0 0 0 -0.4988979265168858 -0.18173611554834679 0 -0.18173611554834679 74.832950702175495 0 0 0 0 -0.20886502097736209 0.10668884478809559 0 0.10668884478809559 74.924566561519441 0 0 0 0 0.18753310535883155 -0.069344740478527456 0 -0.069344740478527456 75.134770878653171 0 0 0 0 0.019648067367082966 -0.28382779655635204 0 -0.28382779655635204 74.904820661544051 0 0 0 0 -0.48465946505550483 0.12654965930710205 0 0.12654965930710205 74.957431610579761 0 0 0 0 -0.17396375898657634 -0.42793845151004462 0 -0.42793845151004462 74.894907485584767 0 0 0 0 0.027619409389518679 -0.14654804924447262 0 -0.14654804924447262 75.249143572262255 0 0 0 0 0.55233672330937811 -0.59255410913578999 0 -0.59255410913578999 75.153880785854511 0 0 0 0 0.4768659615805898 -0.88210696276723866 0 -0.88210696276723866 75.249143572262369 0 0 0 0 -0.16675048952032595 -0.27915158468044865 0 -0.27915158468044865 75.202938530406755 0 0 0 0 0.39359860125456292 -1.3491293203240957 0 -1.3491293203240957 75.214104256888959 0 0 0 0 0.42929572270514099 -1.0598501202025545 0 -1.0598501202025545 76.048961018412115 0 0 0 0 1.146387081314838 -1.5997644735352878 0 -1.5997644735352878 75.891953361168589 0 0 0 0 0.51074331807853812 -0.65742422429673297 0 -0.65742422429673297 75.901333121806601 0 0 0 0 0.89618296362157945 -1.4491684081468748 0 -1.4491684081468748 77.164245787594382 0 0 0 0 1.4300442674426224 -1.7510466075261775 0 -1.7510466075261775 76.605298348638371 0 0 0 0 0.85875649796127407 -1.0006420183649425 0 -1.0006420183649425 76.610927885521505 0 0 0 0 1.0768718223848628 -1.0821484306075035 0 -1.0821484306075035 75.674235417957107 0 0 0 0 0.56387896061566611 -0.43611123115147166 0 -0.43611123115147166 75.674235417957107 0 0 0 0 0.98318266749878669 -0.73698355008355065 0 -0.73698355008355065 75.416856997183814 0 0 0 0 1.050931339380119 -0.85212423233383561 0 -0.85212423233383561 75.767741831330213 0 0 0 0 0.78874014705435491 -0.71856848044228627 0 -0.71856848044228627 76.14432286427791 0 0 0 0 0.68724289901215352 -0.97539251494663404 0 -0.97539251494663404 76.618696598815177 0 0 0 0 1.1334230456158156 -1.3201955885880352 0 -1.3201955885880352 76.618696598815177 0 0 0 0 1.2746898511004048 -1.2304524867295186 0 -1.2304524867295186 76.144322864278138 0 0 0 0 0.87077971757803185 -1.2511755275905898 0 -1.2511755275905898 77.244707189259771 0 0 0 0 1.377400492971145 -1.7742461188408924 0 -1.7742461188408924 77.224405465477048 0 0 0 0 1.0011472190991149 -1.7011962795277213 0 -1.7011962795277213 78.104708064665829 0 0 0 0 0.77825592505152419 -1.9045383557105424 0 -1.9045383557105424 78.856450781164767 0 0 0 0 0.92438235620920528 -1.5337099027603927 0 -1.5337099027603927 77.676795458725735 0 0 0 0 0.57696215735174805 -1.4046607733728251 0 -1.4046607733728251 77.719174755410734 0 0 0 0 0.00080238303573516162 -1.6461327117337987 0 -1.6461327117337987 79.27863982152985 0 0 0 0 0.66593195527168969 -2.0616637442991532 0 -2.0616637442991532 78.407303933542153 0 0 0 0 0.00021784935365046763 -1.2979523343622077 0 -1.2979523343622077 77.937417157683171 0 0 0 0 0.66892773621046042 -1.4076827128176319 0 -1.4076827128176319 77.049246513915477 0 0 0 0 0.76192055770300815 -0.90038340093838087 0 -0.90038340093838087 76.174954821511164 0 0 0 0 0.39555430860861684 -1.2408425194216761 0 -1.2408425194216761 77.04924651391525 0 0 0 0 0.00047945488616997451 -0.76597145300654912 0 -0.76597145300654912 76.494579234806679 0 0 0 0 0.21341043748065269 -3.6906710144116914 0 -3.6906710144116914 85.269684513295942 0 0 0 0 -0.14706529544966696 -3.0929011897695773 0 -3.0929011897695773 86.751121077968037 0 0 0 0 0.00059614650200791016 -2.3465613229936935 0 -2.3465613229936935 83.796496544989395 0 0 0 0 0.00024777366496232523 -2.0548540694289192 0 -2.0548540694289192 81.201675136137965 0 0 0 0 0.46204227610287329 -3.2497555764093704 0 -3.2497555764093704 82.661063030283003 0 0 0 0 0.68281741868337331 -2.5864897718608972 0 -2.5864897718608972 79.927539305705068 0 0 0 0 0.4440267922447545 -2.3120309072930354 0 -2.3120309072930354 80.945877671592825 0 0 0 0 0.86408272739529712 -2.5852775836434603 0 -2.5852775836434603 80.907722447478136 0 0 0 0 1.2618756336728865 -2.3129255049691437 0 -2.3129255049691437 78.7766837679996 0 0 0 0 0.8828107213566736 -2.4230212589022813 0 -2.4230212589022813 80.287680366443283 0 0 0 0 1.499357887318375 -2.50428310591019 0 -2.50428310591019 78.098084816599709 0 0 0 0 1.1902386655898463 -3.167454141888129 0 -3.167454141888129 80.270307642611812 0 0 0 0 0.75183670303498129 -3.3733715656794629 0 -3.3733715656794629 82.160049429873425 0 0 0 0 0.46428666910478444 -3.0859023685571856 0 -3.0859023685571856 83.206082575794426 0 0 0 0 0.64926000556207697 -3.7413403965633734 0 -3.7413403965633734 83.230622219381445 0 0 0 0 0.10563391599241223 -3.9439270541923861 0 -3.9439270541923861 85.941577331452208 0 0 0 0 0.752100355277737 -4.5261316522281732 0 -4.5261316522281732 82.175684524222788 0 0 0 0 0.36152970995450762 -4.899250446580254 0 -4.899250446580254 84.595489501241588 0 0 0 0 1.1435547550819036 -5.3862396491915092 0 -5.3862396491915092 80.560249479581671 0 0 0 0 0.93270982145493075 -3.6045378331052689 0 -3.6045378331052689 80.529316405007648 0 0 0 0 1.4311038180696518 -3.639934678472855 0 -3.639934678472855 79.202558761432556 0 0 0 0 1.0235365332579769 -2.4042789906267217 0 -2.4042789906267217 79.184743820382664 0 0 0 0 1.5344097500119727 -2.5844828724095805 0 -2.5844828724095805 77.162835663025518 0 0 0 0 1.6050932318556952 -3.8495154789976596 0 -3.8495154789976596 77.700870683530582 0 0 0 0 0.87719675920183005 -2.1389769157284491 0 -2.1389769157284491 77.642947528583363 0 0 0 0 1.168636889021716 -2.4447464478815846 0 -2.4447464478815846 76.116617062449322 0 0 0 0 0.2942479261073947 -1.6084920571226462 0 -1.6084920571226462 75.968867290992875 0 0 0 0 1.3520371897836303 -3.6615191462375947 0 -3.6615191462375947 75.941064276921225 0 0 0 0 0.87593427429225734 -3.457192863642149 0 -3.457192863642149 78.304157251536481 0 0 0 0 0.7818702926964316 -5.5934291237604725 0 -5.5934291237604725 82.308224354106414 0 0 0 0 1.744218946224434 -5.8724626538167968 0 -5.8724626538167968 78.268260712868454 0 0 0 0 1.0356529074883256 -5.5102244883452158 0 -5.5102244883452158 78.941979770253738 0 0 0 0 2.0125843191721975 -9.1787126495671032 0 -9.1787126495671032 78.975992690287285 0 0 0 0 0.5649785436791479 -8.0831930656391933 0 -8.0831930656391933 82.279229080331589 0 0 0 0 0.50211710379492058 -8.8542066824037988 0 -8.8542066824037988 85.134767280329015 0 0 0 0 -0.56892714492571272 -11.795717069533339 0 -11.795717069533339 84.970634320227362 0 0 0 0 0.052697450973060889 -13.918506714399143 0 -13.918506714399143 90.373042569499376 0 0 0 0 -3.3594089893257779 -16.443756312055257 0 -16.443756312055257 90.102126892019669 0 0 0 0 -4.5081711450722093 -12.16134058240425 0 -12.16134058240425 92.791210515540797 0 0 0 0 -4.1562034227761107 -14.47552413934045 0 -14.47552413934045 99.990567469704516 0 0 0 0 -1.7580369866562582 -10.679933421042676 0 -10.679933421042676 92.732483885120701 0 0 0 0 -4.8671044522418008 -10.452663912989465 0 -10.452663912989465 99.999330226923803 0 0 0 0 -4.8442447230033849 -8.833835879393348 0 -8.833835879393348 94.16698240369692 0 0 0 0 -2.4661451372699954 -7.8942564151398074 0 -7.8942564151398074 94.201623356785831 0 0 0 0 -1.9526074474092572 -9.162884042140206 0 -9.162884042140206 87.961871122054617 0 0 0 0 -0.41521025322458582 -7.3060650830257146 0 -7.3060650830257146 87.94408674420356 0 0 0 0 -0.26738310949646316 -6.4910692961079803 0 -6.4910692961079803 84.614111715333195 0 0 0 0 -0.85972826414532388 -5.5735100106254549 0 -5.5735100106254549 89.552045129141106 0 0 0 0 -0.46777561555699698 -4.954325790053872 0 -4.954325790053872 86.014973145343831 0 0 0 0 -0.92821721679898994 -4.0285590229165678 0 -4.0285590229165678 90.47708644835393 0 0 0 0 -1.8194139221665031 -4.8431882663780357 0 -4.8431882663780357 90.68683439772235 0 0 0 0 -2.2676717781358571 -6.7606001200783794 0 -6.7606001200783794 89.577610283168354 0 0 0 0 -2.4114212639167105 -5.3532767016266689 0 -5.3532767016266689 94.899633379777015 0 0 0 0 -4.8218524026125476 -7.2206526267182198 0 -7.2206526267182198 99.991966422465111 0 0 0 0 -4.5369700618050324 -6.0821537613878718 0 -6.0821537613878718 94.959442721247797 0 0 0 0 -4.263837185215797 -4.4799389917701546 0 -4.4799389917701546 100.01460103919112 0 0 0 0 -1.8504556570480979 -3.0736891221786209 0 -3.0736891221786209 95.171708073275852 0 0 0 0 -3.3198159075733376 -3.8482863264152911 0 -3.8482863264152911 95.481549451258729 0 0 0 0 -0.0026581460244989741 -1.3531597602593592 0 -1.3531597602593592 95.34188165911155 0 0 0 0 -2.7606080233914612 -2.26972800867253 0 -2.26972800867253 99.932968033305087 0 0 0 0 -1.536894176797698 -3.7060385279301045 0 -3.7060385279301045 93.825003509847647 0 0 0 0 -0.00028350536536639499 -2.2127989624088968 0 -2.2127989624088968 90.965479266088551 0 0 0 0 -0.08600099853142007 -3.6878726596161187 0 -3.6878726596161187 86.917671904958752 0 0 0 0 -7.4598638400220647e-05 -2.4847732021717093 0 -2.4847732021717093 87.191467859819795 0 0 0 0 -0.48586413201995893 -3.918576386713994 0 -3.918576386713994 89.720959176891483 0 0 0 0 -0.5025111277101999 -1.8323497183614563 0 -1.8323497183614563 69.398963359962579 0 0 0 0 -0.50235983904784287 -1.7165880857305975 0 -1.7165880857305975 70.834849872110794 0 0 0 0 -0.2350301861916293 -3.2871320618952495 0 -3.2871320618952495 68.931025988472072 0 0 0 0 0.15287103356795129 -1.2298357576116814 0 -1.2298357576116814 68.484836588307587 0 0 0 0 0.15293062108423072 -1.2913299476784914 0 -1.2913299476784914 67.530348845375158 0 0 0 0 -0.38149906062258054 0.02055941953801721 0 0.02055941953801721 69.219333675315795 0 0 0 0 -0.84608749409397666 -0.61886371412724461 0 -0.61886371412724461 70.909935840443154 0 0 0 0 -0.84831087310624176 -0.79189589854437892 0 -0.79189589854437892 70.314091349556293 0 0 0 0 -1.173378728378788 0.077559410138007934 0 0.077559410138007934 71.426433970313212 0 0 0 0 -1.3872333657401827 -0.48281925696958794 0 -0.48281925696958794 72.132610016741637 0 0 0 0 -1.3760808176967214 -0.25420584693739023 0 -0.25420584693739023 72.519767907271671 0 0 0 0 -1.143431351554197 -1.048081629485921 0 -1.048081629485921 71.516840319214793 0 0 0 0 -1.1412354226998274 -0.86881539413626685 0 -0.86881539413626685 72.382948557257691 0 0 0 0 -0.90617230002801463 -1.8815671948152044 0 -1.8815671948152044 71.159120240863672 0 0 0 0 -1.2409077271463991 -1.0494371361367598 0 -1.0494371361367598 72.634556858064229 0 0 0 0 -1.2296153276490216 -0.83336469923608547 0 -0.83336469923608547 73.600575056901675 0 0 0 0 -2.2430860935887602 -1.5336846872524521 0 -1.5336846872524521 74.492548843731583 0 0 0 0 -0.90488014261032568 -1.7420123554427391 0 -1.7420123554427391 72.737617220187531 0 0 0 0 -1.121543046794381 -1.6052721689639045 0 -1.6052721689639045 72.652100286631594 0 0 0 0 0.1452315492667049 -1.9992599385175254 0 -1.9992599385175254 75.084824629210175 0 0 0 0 -0.95711618413140442 -1.4813306754924724 0 -1.4813306754924724 73.56806357800906 0 0 0 0 -0.75743649834690152 -1.0186537491880472 0 -1.0186537491880472 74.47201314125823 0 0 0 0 -0.50620577106229625 -1.9290002504552604 0 -1.9290002504552604 72.719248641041531 0 0 0 0 -0.00020466638841565299 -3.1562258428592713 0 -3.1562258428592713 74.878508057012681 0 0 0 0 0.29677032983027996 -2.6780214713724035 0 -2.6780214713724035 75.64684471033911 0 0 0 0 0.81986358117580593 -4.684856039554802 0 -4.684856039554802 71.689238353131145 0 0 0 0 0.48717833832468838 -5.0045466835495063 0 -5.0045466835495063 76.372125209524711 0 0 0 0 1.8334236086891402 -5.6112071269575381 0 -5.6112071269575381 75.501831419594737 0 0 0 0 -0.85373388110671566 -2.9516301534922604 0 -2.9516301534922604 71.323822143712277 0 0 0 0 -1.7074677622134278 -3.1000022800836859 0 -3.1000022800836859 74.370945050520618 0 0 0 0 -0.23503018619162752 -3.2760312973645682 0 -3.2760312973645682 71.492173754220516 0 0 0 0 -0.2504665033271305 -5.1184980021311617 0 -5.1184980021311617 69.369821897326062 0 0 0 0 0.99779981417075447 -5.9723624954047523 0 -5.9723624954047523 69.939690914912717 0 0 0 0 -0.50093300665426099 -5.8478704398585251 0 -5.8478704398585251 74.130911464990277 0 0 0 0 2.4831371674969969 -11.768005882680995 0 -11.768005882680995 74.832056842552106 0 0 0 0 1.2415685837484993 -8.8776353904899565 0 -8.8776353904899565 66.533869762990093 0 0 0 0 1.6076784512806712 -9.253069883816238 0 -9.253069883816238 80.633664950471484 0 0 0 0 2.3301191072164107 -6.8707991069007903 0 -6.8707991069007903 71.070853406195056 0 0 0 0 3.4742748955463107 -9.3764550718407236 0 -9.3764550718407236 74.441864063510025 0 0 0 0 2.4647118027009376 -14.397685266646135 0 -14.397685266646135 79.489119995911864 0 0 0 0 5.9031050800730345 -13.951333504006556 0 -13.951333504006556 70.060559270588783 0 0 0 0 3.6475784974672525 -17.858435662815282 0 -17.858435662815282 86.53585104345143 0 0 0 0 1.555020150070755 -27.125225463953825 0 -27.125225463953825 99.928983724000545 0 0 0 0 0.031522708397763527 -22.353653759703207 0 -22.353653759703207 85.228170783107657 0 0 0 0 -2.5332263385800511 -19.962403249867236 0 -19.962403249867236 100.00910910637822 0 0 0 0 3.4001715815945852 -9.9071907195307247 0 -9.9071907195307247 66.964511214955678 0 0 0 0 14.338401392241503 -30.262502544150493 0 -30.262502544150493 80.87104832143666 0 0 0 0 7.1692006961207513 -17.960688955271848 0 -17.960688955271848 60.563987173982753 0 0 0 0 7.9320833578890797 -13.077339580258922 0 -13.077339580258922 50.034405762188726 0 0 0 0 7.7490725555361326 -11.511920430460279 0 -11.511920430460279 59.954026292400158 0 0 0 0 7.4167087645364091 -8.0056687094503332 0 -8.0056687094503332 50.000859339195884 0 0 0 0 7.4079814844669851 -6.52061704482702 0 -6.52061704482702 56.634183995793023 0 0 0 0 3.2854105880864051 -8.9550738342968472 0 -8.9550738342968472 59.103303620476254 0 0 0 0 2.8335810727428123 -5.6452901739089043 0 -5.6452901739089043 64.763662173535124 0 0 0 0 2.7700251694872966 -5.1530939133934339 0 -5.1530939133934339 61.195917617577265 0 0 0 0 0.66804368960574467 -3.097888359254485 0 -3.097888359254485 66.160433939915151 0 0 0 0 0.66959580742956959 -3.1580691904500782 0 -3.1580691904500782 68.480682698150588 0 0 0 0 0.98081870813881666 -5.6803390831734788 0 -5.6803390831734788 65.311248740496922 0 0 0 0 1.0486118958367923 -0.11240945669724067 0 -0.11240945669724067 65.86953899942182 0 0 0 0 1.9123839934762135 -2.0975290172514178 0 -2.0975290172514178 63.167871864241761 0 0 0 0 1.9247305900442768 -2.2804124648101833 0 -2.2804124648101833 64.823626023357974 0 0 0 0 3.4875080752797194 -0.30882218511800374 0 -0.30882218511800374 60.785961281066989 0 0 0 0 4.8703565038339356 -2.9080525752995072 0 -2.9080525752995072 56.908848637153369 0 0 0 0 4.9119184081144347 -3.5111671362651578 0 -3.5111671362651578 58.374729493078519 0 0 0 0 7.3935649195934259 -3.8789867003964673 0 -3.8789867003964673 50.002482732984618 0 0 0 0 7.2201353801818886 -0.04848811844144052 0 -0.04848811844144052 50.006652082475 0 0 0 0 7.294098350878361 -1.7453408261038703 0 -1.7453408261038703 56.151381834137226 0 0 0 0 7.311285263097262 1.7996214013018914 0 1.7996214013018914 56.184710372790619 0 0 0 0 7.4267794980976154 3.9552719173881599 0 3.9552719173881599 50.002274896028439 0 0 0 0 4.9915226326429991 3.3013789434087926 0 3.3013789434087926 58.615018662602239 0 0 0 0 4.771463115725938 2.581212976227846 0 2.581212976227846 56.669147286251814 0 0 0 0 7.7096726414705934 11.482783815447419 0 11.482783815447419 59.906126599655181 0 0 0 0 7.3558739589824347 7.7368979884441842 0 7.7368979884441842 50.001245356669635 0 0 0 0 7.3798108331725407 6.4296008895584578 0 6.4296008895584578 56.678826762694996 0 0 0 0 3.3292067578763183 8.8471250552566403 0 8.8471250552566403 59.012592774088375 0 0 0 0 2.8702591905891195 5.4169979229990304 0 5.4169979229990304 64.559531430527954 0 0 0 0 2.8119204866485097 4.9569588299045435 0 4.9569588299045435 61.137325576030321 0 0 0 0 0.67575095015596176 3.0693751082176561 0 3.0693751082176561 66.114280929582065 0 0 0 0 0.9992018353214398 5.6638904071171794 0 5.6638904071171794 65.314060921084263 0 0 0 0 0.67575131896886298 3.0706335125048518 0 3.0706335125048518 68.385322514372263 0 0 0 0 3.5056264486270448 0.1300041444546185 0 0.1300041444546185 60.770219869094035 0 0 0 0 1.9274182631184225 2.0128231188817836 0 2.0128231188817836 64.570141483954103 0 0 0 0 1.047753601745129 -0.025908020523171205 0 -0.025908020523171205 65.79477994038723 0 0 0 0 1.9342569222003281 1.8888400198140403 0 1.8888400198140403 63.273011469709957 0 0 0 0 0.16466969546616816 1.2103995997479444 0 1.2103995997479444 67.524087574366206 0 0 0 0 -0.38136167016853273 -0.099053053884529008 0 -0.099053053884529008 69.182866287571755 0 0 0 0 0.164879509002235 1.1439172504808934 0 1.1439172504808934 68.389039782889199 0 0 0 0 -0.23770407088672307 3.2863326345614325 0 3.2863326345614325 68.899563405241594 0 0 0 0 -0.50439729311815662 1.6911656458199618 0 1.6911656458199618 70.818553713470976 0 0 0 0 -0.49533930744676447 1.7941099298079735 0 1.7941099298079735 69.333043826656592 0 0 0 0 -1.142260471873237 1.0221146916623347 0 1.0221146916623347 71.488934227020536 0 0 0 0 -1.1411664898901961 0.83851496111788038 0 0.83851496111788038 72.330067647940126 0 0 0 0 -0.89716204044220937 1.8530889100782701 0 1.8530889100782701 71.109044099689072 0 0 0 0 -1.2460005923772561 1.0381745922422851 0 1.0381745922422851 72.589547370181464 0 0 0 0 -1.381193692977579 0.21765431082829423 0 0.21765431082829423 72.471805137425179 0 0 0 0 -1.3804386884384137 0.44491284941463505 0 0.44491284941463505 72.115557981371239 0 0 0 0 -1.1733214578666653 -0.11945439195776641 0 -0.11945439195776641 71.395826007235314 0 0 0 0 -0.84147456290436651 0.74021957503057934 0 0.74021957503057934 70.296228735753516 0 0 0 0 -0.84440170049704122 0.56897663749049343 0 0.56897663749049343 70.870952479447055 0 0 0 0 0.031664562151117792 3.2123740871663813 0 3.2123740871663813 74.964986512770082 0 0 0 0 -0.41372048096043645 2.005612357142013 0 2.005612357142013 72.757521237731737 0 0 0 0 0.24638457477069675 2.0298443100112706 0 2.0298443100112706 75.14325316726331 0 0 0 0 -0.72629469308778916 1.0791062572607188 0 1.0791062572607188 74.618875981288369 0 0 0 0 -0.87831605796015033 1.48915671687692 0 1.48915671687692 73.608018026063917 0 0 0 0 -1.2311056143462871 0.80887535475113737 0 0.80887535475113737 73.555900848721791 0 0 0 0 -1.1160888277039893 1.6048876753339698 0 1.6048876753339698 72.642482503780656 0 0 0 0 -0.90930358003035749 1.7372041106102074 0 1.7372041106102074 72.725207668072073 0 0 0 0 -2.2321776554079804 1.5093438933832886 0 1.5093438933832886 74.439375033277884 0 0 0 0 -1.6981525475898565 3.0757774563675242 0 3.0757774563675242 74.283164313810516 0 0 0 0 -0.84907627379493089 2.9303476782822884 0 2.9303476782822884 71.336681916075776 0 0 0 0 -0.23763405395567716 3.2631610180629878 0 3.2631610180629878 71.517360754114236 0 0 0 0 0.47056015943938156 4.7780146629474416 0 4.7780146629474416 75.986113395929237 0 0 0 0 0.83730596440765659 4.5511959947083369 0 4.5511959947083369 71.736700617460997 0 0 0 0 0.38183327932368571 2.6982022834284862 0 2.6982022834284862 75.71994185705762 0 0 0 0 1.9074790323540387 5.6557000483680042 0 5.6557000483680042 75.619042493000791 0 0 0 0 1.5692057388233447 9.1965978688277517 0 9.1965978688277517 80.627214402448033 0 0 0 0 3.3325698966331463 9.301233185250851 0 9.301233185250851 74.861592677768627 0 0 0 0 2.1114651468157639 6.6345385620417971 0 6.6345385620417971 71.136132065434253 0 0 0 0 2.4511160024713248 14.198771280660822 0 14.198771280660822 79.423433606207595 0 0 0 0 -0.25245090003814674 5.1503158863094427 0 5.1503158863094427 69.375636382202998 0 0 0 0 1.0067139862253125 5.8954982390113173 0 5.8954982390113173 69.81627789915683 0 0 0 0 -0.50490180007629348 5.991208455524486 0 5.991208455524486 74.166166997010691 0 0 0 0 2.51021013056355 11.815738829623854 0 11.815738829623854 74.876693662052446 0 0 0 0 1.2551050652817768 8.8808715994050829 0 8.8808715994050829 66.456017410665453 0 0 0 0 3.4835770853375654 9.9583644560382929 0 9.9583644560382929 66.935714055785525 0 0 0 0 14.300673308958185 30.258287130761836 0 30.258287130761836 80.879961176451047 0 0 0 0 7.1503366544790925 17.952020811461722 0 17.952020811461722 60.592698832674643 0 0 0 0 7.8903263205511545 13.042713544118413 0 13.042713544118413 50.034094631916219 0 0 0 0 3.6059398378239345 17.74775881759129 0 17.74775881759129 86.587481506571521 0 0 0 0 5.8713723971385754 13.961154428552391 0 13.961154428552391 70.078944206873075 0 0 0 0 1.5886239752436551 27.089527993072295 0 27.089527993072295 99.92952878551398 0 0 0 0 0.06170054081776713 22.280952862120273 0 22.280952862120273 85.052097319053615 0 0 0 0 -2.5259978989391545 19.810425693401129 0 19.810425693401129 100.00850396644478 0 0 0 0 -3.3299925526616772 16.436867738231115 0 16.436867738231115 90.070467563257523 0 0 0 0 0.041045670510346799 13.765462053281283 0 13.765462053281283 90.248247929072761 0 0 0 0 -1.7978606481394959 10.679711169399241 0 10.679711169399241 92.736599842484935 0 0 0 0 -4.5137623301121632 12.194144662118333 0 12.194144662118333 92.831106955212078 0 0 0 0 -4.1716721008064956 14.454340179495759 0 14.454340179495759 99.990911610230285 0 0 0 0 -4.876453727309058 10.457320460383414 0 10.457320460383414 99.999168481867457 0 0 0 0 -4.8781379818879582 8.8735816130186009 0 8.8735816130186009 94.362500484776973 0 0 0 0 -2.5690523931660532 7.9228103884127137 0 7.9228103884127137 94.340742124009381 0 0 0 0 -2.0124983944102701 9.224533265354566 0 9.224533265354566 88.198550248607148 0 0 0 0 -0.33410684214694086 6.4975240994109384 0 6.4975240994109384 84.665103757482086 0 0 0 0 -0.44031715651905401 7.2898026267211264 0 7.2898026267211264 87.99043058434151 0 0 0 0 0.55855160455066599 8.0414630151568929 0 8.0414630151568929 82.358939497781932 0 0 0 0 0.48861458517025369 8.7485949668172225 0 8.7485949668172225 85.069161236049112 0 0 0 0 2.0234018389548543 9.1073084096097858 0 9.1073084096097858 78.950713608866522 0 0 0 0 -0.56865513203207918 11.7664336795835 0 11.7664336795835 85.089176875007752 0 0 0 0 -1.5536368524718824 3.7242745841895015 0 3.7242745841895015 93.86245993238559 0 0 0 0 -0.002630700760727387 1.3541171479885841 0 1.3541171479885841 95.416078102862059 0 0 0 0 -2.7624102375681754 2.2325799776964601 0 2.2325799776964601 99.932783299090445 0 0 0 0 -3.3384364629759928 3.8173366584591193 0 3.8173366584591193 95.575869404008927 0 0 0 0 -1.8752335931796154 3.0617195884966577 0 3.0617195884966577 95.379647595041419 0 0 0 0 -4.3065009995710604 4.4335806567869724 0 4.4335806567869724 100.01474858066425 0 0 0 0 -4.6037900600699748 6.1175413244795465 0 6.1175413244795465 95.1866804368413 0 0 0 0 -4.8797886832790898 7.1898123481073526 0 7.1898123481073526 99.992048036910361 0 0 0 0 -2.4876289914622349 5.2864743777321621 0 5.2864743777321621 95.094220202716812 0 0 0 0 -2.3514109776839254 6.7482833767771311 0 6.7482833767771311 89.841817720814987 0 0 0 0 -0.91395662696583901 5.6287179850282598 0 5.6287179850282598 89.804167085317161 0 0 0 0 -0.5359606850692975 4.9330903989527783 0 4.9330903989527783 86.101772370631394 0 0 0 0 -0.96030842215466228 4.0316362948351632 0 4.0316362948351632 90.787171006004044 0 0 0 0 -1.9048105957586388 4.8065755161180732 0 4.8065755161180732 90.965123810251896 0 0 0 0 -0.11464587510855084 3.6274189349263608 0 3.6274189349263608 86.913213328189002 0 0 0 0 -0.44815038529343232 3.8941709884896198 0 3.8941709884896198 89.725624353600267 0 0 0 0 5.43785246818803e-05 2.4754775430907676 0 2.4754775430907676 87.058894918648107 0 0 0 0 -0.00039413721377585479 2.2014045471876025 0 2.2014045471876025 91.132087526063287 0 0 0 0 0.00052602144128131422 2.3477477875382582 0 2.3477477875382582 83.773721776669134 0 0 0 0 0.20439628478835647 3.6921316204016321 0 3.6921316204016321 85.261843044859475 0 0 0 0 -0.15491724438334131 3.1289579590605641 0 3.1289579590605641 86.842493989388885 0 0 0 0 0.47783998163931329 3.0131036748579803 0 3.0131036748579803 83.214017127464416 0 0 0 0 0.60222780628543315 3.7351056939403691 0 3.7351056939403691 83.248123849282649 0 0 0 0 0.09172554424739543 3.8942939690738498 0 3.8942939690738498 85.984524726274714 0 0 0 0 0.75551920411526652 4.552124704954025 0 4.552124704954025 82.185992161210322 0 0 0 0 0.76056966857254205 3.338580518825907 0 3.338580518825907 82.163327539674583 0 0 0 0 1.4982479096007082 2.4600736966623131 0 2.4600736966623131 78.045613273674149 0 0 0 0 0.86658823916376981 2.4068713836649209 0 2.4068713836649209 80.236150055075299 0 0 0 0 1.2538409163468769 2.2756949605756986 0 2.2756949605756986 78.751083711880284 0 0 0 0 1.1936244990953151 3.1269608843052694 0 3.1269608843052694 80.205141668624321 0 0 0 0 0.86029780408483192 2.6164225766161273 0 2.6164225766161273 80.863442999302336 0 0 0 0 0.42470432467971087 2.306780895364632 0 2.306780895364632 80.893539631822136 0 0 0 0 0.67466489060737311 2.5504371796796548 0 2.5504371796796548 79.911526461424344 0 0 0 0 0.00027678540291102907 2.0725835272379611 0 2.0725835272379611 81.124319404978039 0 0 0 0 0.40378123650832443 3.2114529685662063 0 3.2114529685662063 82.70153548945494 0 0 0 0 0.91978076831487976 3.4879707563347324 0 3.4879707563347324 78.401283184476895 0 0 0 0 1.0340518122507794 5.4525517746360208 0 5.4525517746360208 78.943050416471294 0 0 0 0 0.77734404822710568 5.583972177525979 0 5.583972177525979 82.319442745219419 0 0 0 0 1.7293485722453266 5.8936331128621475 0 5.8936331128621475 78.387825890858252 0 0 0 0 1.1299946000407179 5.3972221654753696 0 5.3972221654753696 80.579007014754751 0 0 0 0 0.36624983076822915 4.8706413679782656 0 4.8706413679782656 84.658644320943907 0 0 0 0 0.94133797920279161 3.5980936967545176 0 3.5980936967545176 80.610291318841547 0 0 0 0 1.4289981857105691 3.5976494215375396 0 3.5976494215375396 79.150381962987211 0 0 0 0 1.024435597768961 2.4119027934792427 0 2.4119027934792427 79.203558795647325 0 0 0 0 1.5266391018960843 2.537033743841917 0 2.537033743841917 77.120390623414892 0 0 0 0 1.2005691877359312 2.4290791587798282 0 2.4290791587798282 76.113114018789361 0 0 0 0 0.89232130704830226 2.215605916976358 0 2.215605916976358 77.7894491295433 0 0 0 0 1.5896437341145102 3.8795046053650708 0 3.8795046053650708 77.751251797952932 0 0 0 0 1.40630616957402 3.7311773343107717 0 3.7311773343107717 76.107632040793305 0 0 0 0 0.35500390005619953 1.6715199608110822 0 1.6715199608110822 76.058251792042114 0 0 0 0 0.41870743717356507 1.3586337312317482 0 1.3586337312317482 75.246638108944978 0 0 0 0 -0.16662881416534536 0.28538725862114234 0 0.28538725862114234 75.207088909245726 0 0 0 0 0.52034881920959686 0.66412397776534249 0 0.66412397776534249 75.905849092553737 0 0 0 0 0.45951451767107809 1.0769408818614608 0 1.0769408818614608 76.103066774859712 0 0 0 0 1.1279209454802812 1.6083360615272397 0 1.6083360615272397 75.90619045870568 0 0 0 0 0.88326495956065809 1.4612915207547417 0 1.4612915207547417 77.184356561158992 0 0 0 0 1.4357227017214815 1.7280806563109579 0 1.7280806563109579 76.580058725619466 0 0 0 0 0.85217758259420906 0.99844677443169871 0 0.99844677443169871 76.607677102970683 0 0 0 0 1.0740484833015069 1.0834898174332608 0 1.0834898174332608 75.678680874519785 0 0 0 0 0.98976612503056571 0.75766787173431283 0 0.75766787173431283 75.452035317112262 0 0 0 0 0.56422812673385248 0.44229743716300618 0 0.44229743716300618 75.678680874519813 0 0 0 0 0.03315798936819836 0.14314901845054351 0 0.14314901845054351 75.245158933412398 0 0 0 0 0.55378289465144093 0.59949509374946786 0 0.59949509374946786 75.161741512903575 0 0 0 0 -0.1866137212419694 0.43460410720769005 0 0.43460410720769005 74.909669881282355 0 0 0 0 0.50380970257223756 0.86822894411963603 0 0.86822894411963603 75.24515893341237 0 0 0 0 0.00023387883073567608 1.2993615857602194 0 1.2993615857602194 77.928783641402632 0 0 0 0 0.67720919939650503 2.0599629764728959 0 2.0599629764728959 78.394885008490775 0 0 0 0 0.00077592581622225234 1.6549265218035925 0 1.6549265218035925 79.264888115191653 0 0 0 0 0.5720474618913971 1.3976784623761915 0 1.3976784623761915 77.70870862857096 0 0 0 0 0.90299621643317129 1.5246354484212965 0 1.5246354484212965 77.677969587620254 0 0 0 0 0.76788527557210307 1.8766289958060369 0 1.8766289958060369 78.800810868153974 0 0 0 0 0.98435365124305729 1.689324706974773 0 1.689324706974773 78.079893118329025 0 0 0 0 1.3800232071748795 1.7347498577078824 0 1.7347498577078824 77.197682713197409 0 0 0 0 0.86012364726101209 1.2534032644633299 0 1.2534032644633299 77.22460679405701 0 0 0 0 1.2791953294060738 1.2215216585790074 0 1.2215216585790074 76.144156577442743 0 0 0 0 1.0671279365027508 0.88279128212165858 0 0.88279128212165858 75.808459497986419 0 0 0 0 0.78643272547592513 0.72030659024856902 0 0.72030659024856902 76.144156577442729 0 0 0 0 0.67765120099883114 0.96927749598728141 0 0.96927749598728141 76.621461002406662 0 0 0 0 1.1307505674277618 1.3060516031831249 0 1.3060516031831249 76.621461002406676 0 0 0 0 0.76214389255873671 0.89986596322336609 0 0.89986596322336609 76.184115096323396 0 0 0 0 0.3896184751750964 1.2369443328609293 0 1.2369443328609293 77.050910731467383 0 0 0 0 0.00049462154911887233 0.77188827815024874 0 0.77188827815024874 76.509922475671885 0 0 0 0 0.66588228156314544 1.4054738393610942 0 1.4054738393610942 77.050910731467354 0 0 0 0 0.00047803154723845991 0.50475055286996062 0 0.50475055286996062 75.984202002417959 0 0 0 0 0.39294984475757483 0.54290230392419758 0 0.54290230392419758 75.874149916738659 0 0 0 0 0.51291054340633768 0.92840086539428768 0 0.92840086539428768 76.321625513260571 0 0 0 0 0.42249146319853881 0.68173470050523832 0 0.68173470050523832 76.137841746166742 0 0 0 0 0.5696125282581449 0.38324427647499704 0 0.38324427647499704 75.566255774627635 0 0 0 0 0.81934099874984878 0.63165265144569105 0 0.63165265144569105 75.616885301797467 0 0 0 0 0.68506164601410724 0.53982645200402146 0 0.53982645200402146 75.773718835250676 0 0 0 0 0.88769716703342139 0.51856273928254382 0 0.51856273928254382 75.28147359727464 0 0 0 0 0.61153358308592509 0.21035981678945603 0 0.21035981678945603 75.271294801151186 0 0 0 0 0.75081042326569492 0.31709789559872092 0 0.31709789559872092 75.207065524729629 0 0 0 0 0.62739681933706193 0.11468060564267546 0 0.11468060564267546 75.038061967910167 0 0 0 0 0.61420482532903176 0.080439975329042568 0 0.080439975329042568 75.181215608563079 0 0 0 0 0.60179838748201897 0.089429186921549331 0 0.089429186921549331 75.268447739197597 0 0 0 0 0.53383208925616543 0.32649780060824796 0 0.32649780060824796 75.476854202812547 0 0 0 0 0.40965013255538796 0.17393322765330765 0 0.17393322765330765 75.455775172808217 0 0 0 0 0.39607864786883229 0.16300410195425741 0 0.16300410195425741 75.602056626038291 0 0 0 0 7.8369234711261434e-05 0.2548331619677302 0 0.2548331619677302 75.666666758152871 0 0 0 0 -0.19079331743516353 -0.10838714636858526 0 -0.10838714636858526 74.914171176708393 0 0 0 0 -0.46877014653806193 -0.13150289833623674 0 -0.13150289833623674 74.948496216461933 0 0 0 0 0.017001231099993519 0.28846051651692051 0 0.28846051651692051 74.916799435914854 0 0 0 0 0.1972442065140676 0.069194594946921484 0 0.069194594946921484 75.129854884866802 0 0 0 0 0.60075817066235049 0.41582226460072036 0 0.41582226460072036 75.0721611425285 0 0 0 0 0.58874904393282512 0.31885517568139221 0 0.31885517568139221 75.442179988545846 0 0 0 0 0.35502108802869647 0.033952243958793815 0 0.033952243958793815 75.032625126404113 0 0 0 0 0.62418060417272603 0.27448888439003838 0 0.27448888439003838 74.993443412330492 0 0 0 0 0.4940998593611069 -0.019890514090718625 0 -0.019890514090718625 74.992275608508152 0 0 0 0 0.3494181847765227 0.13529536410973719 0 0.13529536410973719 74.886907751005211 0 0 0 0 0.081170062126969672 -0.10433790105942364 0 -0.10433790105942364 74.871653316313257 0 0 0 0 -0.19286507026141944 0.14489126796021878 0 0.14489126796021878 74.830738128003006 0 0 0 0 0.19317053063102546 0.21943201673158796 0 0.21943201673158796 74.876847853496884 0 0 0 0 -0.48362485131005756 0.17654167931311804 0 0.17654167931311804 74.825998440241335 0 0 0 0 -0.55732257420422315 -0.1719946042335323 0 -0.1719946042335323 74.825267616318968 0 0 0 0 -0.92215621465956199 0.14289504342923465 0 0.14289504342923465 74.828958800628456 0 0 0 0 -1.4425602211820681 -0.18302401804869106 0 -0.18302401804869106 74.939299259634538 0 0 0 0 -1.537213895615082 0.028705621544062865 0 0.028705621544062865 74.78657651772221 0 0 0 0 -1.3467600048419286 0.14740964037898152 0 0.14740964037898152 74.858774778879479 0 0 0 0 -0.94866651651597556 -0.20909088146848376 0 -0.20909088146848376 74.887461740333833 0 0 0 0 -1.5234917279547746 -0.17678746030664172 0 -0.17678746030664172 74.751219610988301 0 0 0 0 -1.4432744277702385 -0.052136976996393969 0 -0.052136976996393969 74.625571486179524 0 0 0 0 -1.4061943734200266 -0.17499154246698367 0 -0.17499154246698367 74.945440937381591 0 0 0 0 -0.74970783936269214 0.18234428239722433 0 0.18234428239722433 74.79141974092218 0 0 0 0 -1.4151690166288029 -0.049060207650512666 0 -0.049060207650512666 74.758945339095902 0 0 0 0 -1.0856491892684597 0.022288049960927044 0 0.022288049960927044 74.722664976131739 0 0 0 0 -2.171298378536922 -0.019924129906996768 0 -0.019924129906996768 74.952925798075569 0 0 0 0 -1.426257913361249 -0.051487108768299095 0 -0.051487108768299095 74.893881696430867 0 0 0 0 -1.1017353499482812 -0.0073673711341191873 0 -0.0073673711341191873 74.84372934387244 0 0 0 0 -2.2034706998965623 -0.026774745403088218 0 -0.026774745403088218 74.994374629206845 0 0 0 0 -1.4113107634822886 -0.028518813395123743 0 -0.028518813395123743 74.958013239941778 0 0 0 0 -1.4128768973574135 0.0057181234548693283 0 0.0057181234548693283 74.898017683366248 0 0 0 0 -1.6578189463063522 0.016511416748272723 0 0.016511416748272723 74.876066912515029 0 0 0 0 -1.6579214838691039 -0.035574852717672911 0 -0.035574852717672911 74.929798740412821 0 0 0 0 -1.84841588181288 0.00013613347925911512 0 0.00013613347925911512 74.968620971316454 0 0 0 0 -1.804192223116954 0.012572634604936184 0 0.012572634604936184 74.939515937949409 0 0 0 0 -1.8041918879100098 -0.01755819877172371 0 -0.01755819877172371 74.962991456689451 0 0 0 0 -1.851042613624859 -0.028115591176422178 0 -0.028115591176422178 74.908152041934272 0 0 0 0 -1.8127069543038856 0.042106299748979836 0 0.042106299748979836 74.810915570083864 0 0 0 0 -1.8127079619495825 -0.048466153311470035 0 -0.048466153311470035 74.851938847098268 0 0 0 0 -1.797069859684254 -0.061181243111093409 0 -0.061181243111093409 74.605542670125658 0 0 0 0 -1.7653092624849118 0.065015220540232121 0 0.065015220540232121 74.498016527026948 0 0 0 0 -1.8599275220794962 -0.054954073294373629 0 -0.054954073294373629 74.716985162486139 0 0 0 0 -1.4212553983986271 0.017559948205219555 0 0.017559948205219555 74.793825130406788 0 0 0 0 -1.6499777754691509 0.049784852597809959 0 0.049784852597809959 74.684338596873175 0 0 0 0 -1.6722873199991457 -0.035998850800154969 0 -0.035998850800154969 74.804923843244637 0 0 0 0 -1.3846143998201286 0.015374644790654202 0 0.015374644790654202 74.546751582782747 0 0 0 0 -1.5224864465418184 0.15419707844466757 0 0.15419707844466757 74.609894276215471 0 0 0 0 -1.7205449671554733 0.14513196209095724 0 0.14513196209095724 74.481189175561099 0 0 0 0 -1.5725654155295665 -0.013025201093320504 0 -0.013025201093320504 74.240643109978862 0 0 0 0 -1.6575861718599763 0.21392730117457859 0 0.21392730117457859 74.240643109978961 0 0 0 0 -1.8710124478212364 0.012980592400140267 0 0.012980592400140267 74.478852893101049 0 0 0 0 -1.7098405512640387 0.0012136973377607774 0 0.0012136973377607774 74.131195392072016 0 0 0 0 -1.7882419143153339 0.10029949511977065 0 0.10029949511977065 74.131195392072073 0 0 0 0 -1.7235773281429339 0.27405794267650663 0 0.27405794267650663 73.449209245926511 0 0 0 0 -1.6900919037386526 -0.0030631394695319614 0 -0.0030631394695319614 73.578721294838488 0 0 0 0 -1.6744893254235387 0.059831481311359624 0 0.059831481311359624 73.567159141540174 0 0 0 0 -1.5769979308782678 -0.10971189198190778 0 -0.10971189198190778 72.821503216340261 0 0 0 0 -1.4070014802393018 0.16693917824972004 0 0.16693917824972004 73.883835530509771 0 0 0 0 -1.4318764096549987 0.5816523780639784 0 0.5816523780639784 73.71383298563893 0 0 0 0 -1.5894918175880375 0.1969781510983637 0 0.1969781510983637 73.639072240371092 0 0 0 0 -1.4847170147443842 0.57372847663853577 0 0.57372847663853577 72.917572553285027 0 0 0 0 -1.4363881511358736 0.34715899097006542 0 0.34715899097006542 73.348112244514539 0 0 0 0 -1.141506073035222 0.7976836492889845 0 0.7976836492889845 73.519514876742846 0 0 0 0 -1.1729477623072513 0.33063493522593035 0 0.33063493522593035 74.064600140482597 0 0 0 0 -1.3698653004745183 0.37470114309902414 0 0.37470114309902414 74.123240791206285 0 0 0 0 -2.3458955246144999 0.051347154852635413 0 0.051347154852635413 74.62374843581631 0 0 0 0 -2.2830121460704413 0.58907279816699676 0 0.58907279816699676 74.566149376590772 0 0 0 0 -1.1407170122207866 0.60292044987136251 0 0.60292044987136251 74.058505455205761 0 0 0 0 -0.33417306722929396 0.55099508735065683 0 0.55099508735065683 74.874692377421198 0 0 0 0 -1.0271907558854387 0.96356440369009988 0 0.96356440369009988 74.946069868257666 0 0 0 0 -1.1226339212681307 0.028253803863265148 0 0.028253803863265148 74.688984197970669 0 0 0 0 -1.4296434394568696 0.47294560483449288 0 0.47294560483449288 74.550693250623453 0 0 0 0 -0.448939791604829 0.62551546114249845 0 0.62551546114249845 74.907247116967881 0 0 0 0 -0.72417068576970345 -0.078236801774025366 0 -0.078236801774025366 74.907247116967881 0 0 0 0 -1.1525357619839274 0.31719085378225031 0 0.31719085378225031 74.75751029836681 0 0 0 0 -1.4876357046006752 -0.17841432734431351 0 -0.17841432734431351 74.550693250623453 0 0 0 0 -2.3113656701048066 0.086950793454889208 0 0.086950793454889208 74.843692974528153 0 0 0 0 -1.3614749308732554 -0.036026472492217465 0 -0.036026472492217465 74.447488773969269 0 0 0 0 -1.1556828350524033 0.13708258788423677 0 0.13708258788423677 74.58791479890138 0 0 0 0 -1.4144383585308833 0.25993591659437243 0 0.25993591659437243 74.447488773969326 0 0 0 0 
</DataArray>
<DataArray type="Float64" Name="displacement_divergence" format="ascii">
0.95365309462005665 0.97156353716211408 0.9225980992891476 0.93257513562208083 0.92155506124838293 0.95648539888283823 0.94958894591492804 0.909764327322095 0.9147703857471513 0.90040823156568117 0.89621367591924472 0.88320657051813001 0.85994158767881701 0.87163114865006242 0.88960771675309869 0.88978675230818638 0.87423354322703273 0.91475352723256209 0.87446664463854962 0.88678962979271958 0.88668931164164233 0.95277976634810457 0.91095719952041598 0.94862572805136747 0.90038201420205244 0.90705701850474529 0.89118306971469941 0.85978997826981218 0.86343939795659486 0.82787641113038912 0.86615284556405703 0.8696107036662335 0.83122944557935252 0.81804148758000306 0.88184937679026332 0.79648699932403888 0.79144628291505459 0.83208330814427756 0.80253727310632694 0.83145730467118906 0.82976221473296374 0.80537512361105845 0.80728955560836635 0.78884225979025557 0.78492629912202716 0.80368962065081728 0.78329023550033194 0.76307065871501623 0.77487405702749346 0.77451447658228645 0.83867096062910396 0.85832467253627309 0.85247264014717716 0.85206493863350308 0.83044697959695613 0.84241361039351281 0.81797576220251234 0.80680591264721224 0.82518995711438947 0.8033502818594187 0.80106910500350026 0.82332937065727863 0.81130964177010423 0.83072233708448928 0.80805266751360627 0.79186305785455835 0.78521717022340698 0.78266765600438926 0.77930521555258159 0.79038957107847996 0.77688821135511588 0.76914096760032735 0.77401946195989879 0.76489306258448275 0.768844294950914 0.76843551537747745 0.77288265967359837 0.77778260642458963 0.77353030404793133 0.77846688310270729 0.78595442301350393 0.79820396732868004 0.78974495894580454 0.78642321419847838 0.7726558701498023 0.77380735898258701 0.77719488138862403 0.75969302534654082 0.76284823603443663 0.7682495289672775 0.75114345213799982 0.7565099339283563 0.75741911951938823 0.75698700244062289 0.75285167912674233 0.74764144289372458 0.76746054692535148 0.76232915838001969 0.76434475009020142 0.76022575677258253 0.7566822600193488 0.75404432719119041 0.7448287994731686 0.75348270977393805 0.74947392649469169 0.7473476347481941 0.7435497120155512 0.75083493582241001 0.74642003170712323 0.74957057291558282 0.74267690819261123 0.75638003481585936 0.75248872712709458 0.75495306273959883 0.75666726632355275 0.75970421795850973 0.75854598209946533 0.75818461461146536 0.75989137052874889 0.75548857542587977 0.75682544796901918 0.76018113419357403 0.75881970295885248 0.75973480783259162 0.76245655196447415 0.76807790811438903 0.76545053824143461 0.76412349630609855 0.76165101771474597 0.76455383589628734 0.7588933808561793 0.76136946238199943 1.4675492866513733 1.4627224435331847 1.4633946728341778 1.4608865934147079 1.4561975368291362 1.4571677945206076 1.4548676401271265 1.4600726249577072 1.4607731663239312 1.4611431910955179 1.462719224820427 1.4631792230837313 1.4656309572824107 1.4644298078291555 1.4655295626091043 1.4665217329841269 1.4697216710558809 1.4763875961106576 1.4709774769080051 0.72891937239143134 0.72792912640103724 1.4748797897355752 0.73918298958584194 0.73497506946571622 0.73253258628075724 0.7352190604264246 0.73949452470135224 0.73233182464153668 0.73200628503757859 0.73535607125414604 0.74062714377895222 1.4695309391108178 0.72790072235633829 1.4670498711570432 1.4727763790902602 1.4619141594136185 1.4687892054137026 0.72545224861692503 1.4608237133544737 0.74188824585553936 0.730745151575384 0.73627621288217449 0.73159199861114477 0.7452615158977387 0.73625419495582012 0.72879617189711521 0.73919432711139699 0.74366113302911252 1.4553932089670751 1.4582458036178787 0.72288468839505882 0.72255353749614848 1.4473088248465071 1.4389401380899143 1.4288320914800483 1.4412103370651028 1.4458995493032871 1.4497494991093596 1.4518282476675886 1.4555230677498763 1.4535759253317382 1.461871670167584 1.4520572604348709 1.4486596404024148 1.4470690097583134 1.4445144461747859 1.4344842130834454 1.4377472703975798 1.4384697650139318 1.4250781559121179 1.4150732015654262 1.4049603921221614 1.3891465625149122 1.401876628669644 1.4225776755528035 1.4275976960440588 1.4249321199459928 1.405333161844021 1.4074034017031138 1.3769274047216147 1.4080126641790995 1.3734077110826721 1.3740169016732127 1.352277803298346 1.376441490505858 0.7494846458910871 0.7576098246138554 0.74633066046593521 0.7273738667289491 0.72748935119383518 0.72292293781194727 1.4472578992360856 1.431435239929292 1.4368609524426601 1.41010138147093 1.4264100664852126 0.7259803210980813 0.72989522646963234 0.77943755573359041 0.75768349971198612 0.80339174379625966 0.82509420837060787 0.77250801025514271 0.73708135255751639 0.77165937062593759 0.73784049547955144 1.3818185094070863 1.4179127737239359 1.3534380511814583 1.4077295272906607 1.1588854400522175 1.354943101005718 0.94959862602181566 0.91036141357885025 0.75453063119578712 1.0163949386604783 0.85787467806655737 0.97076948871872959 1.2821711249835417 1.3000617531894383 1.3373017875987383 1.335407342317966 1.3353843731795276 1.3842335014651219 1.3256637113487564 1.3492923223759989 1.2776534254403193 1.2472585832835232 1.3519142720666617 1.2749405007222681 1.1487767337186341 1.1503483451041028 1.2342074143159767 1.267578214030876 1.1456844551469363 1.2655140886062992 1.2674668735359553 1.1478320297818936 1.2661232301778131 1.2313205068996393 1.2860694326303062 1.3324407812818979 1.2983434111352192 1.3378507576482885 1.3818170653277893 1.324325292588969 1.3363498623593939 1.2782709485053649 1.3497908162553749 1.2473083202545192 1.2783672339793806 1.1480383367877618 1.3527258707845036 1.3546534711652676 1.1594681143765992 0.94954190734584643 1.4091740321795703 0.97199778545452986 0.85731897627148257 1.0162203730777779 0.91129591349740391 0.75419155079730249 0.80414429484693706 0.73796356054010914 0.82559364750891007 0.77241408409165935 1.3529114148249484 0.77138306840655346 0.73800074408294236 1.3809292936818132 1.4182449930917649 1.4257774884255312 0.72622141569199883 1.4093107404419705 0.78040076916545686 0.73054665138631236 0.75892966301918996 0.7583545768084079 0.75159611954716077 0.72881731550520712 0.72877723339977862 0.74763545904617246 1.4313246933610735 1.4364983912430196 0.72301910561413685 1.44655740098165 1.4271306612896328 1.4240423124017259 1.4045607120592649 1.4068524563408573 1.4218639615535063 1.4147395668286054 1.4044958555321276 1.3889271512154577 1.4004628791880993 1.376148449990481 1.3521435351963023 1.3716471757435844 1.3732664710977582 1.4067599000382245 1.3766430792494191 0.87345935973360689 0.89001450250079728 0.8893680362171601 0.91443317182057449 0.92264636036984982 0.97163032582469777 0.95360182977452013 0.92146070490152709 0.93265544873962369 0.95626060936863055 0.91111305565522827 0.94873608205099558 0.91528537044546887 0.90082360594466948 0.89747968950178958 0.87080987853626546 0.86159151410277701 0.88279323330261228 0.86127396342162754 0.82936187416572515 0.86571311301610621 0.89349995000893756 0.86654879243860705 0.90649030624088311 0.90195622765356376 0.94849441863108197 0.91140212922497277 0.88670556265004485 0.95312647477779322 0.88563581563548421 0.87444446652023 0.88188683278759328 0.87285874255238483 0.81985728698026428 0.83166523920337454 0.79316941527253171 0.83441472657895943 0.79739887895122763 0.77657924781830623 0.77618397860614152 0.76501574709499032 0.78489848665123674 0.80508040312747653 0.78634577007693451 0.78987233930698153 0.80830292282369953 0.80622958141760748 0.83117801215522391 0.80409122182665094 0.83336284226013468 0.85234522161415249 0.84220813848008902 0.83135734143003326 0.82553468605432911 0.80730992260302337 0.80373486822682416 0.81810938401626743 0.82357004379821852 0.80116000864223125 0.80802019194337049 0.81145072173203481 0.83064585374929756 0.83839355668820481 0.85293022058060508 0.85829285425502277 0.76483595186892117 0.77406146861528669 0.76914528606145893 0.776838678066055 0.77921957087687943 0.79043529222586528 0.79189603585172463 0.78285496976418756 0.78504327243348015 0.79835304586272038 0.79020552913551612 0.78642096412097295 0.77865974756449763 0.77353997697682786 0.77768766419007562 0.77292650010953901 0.76884814612311558 0.76812495512825052 0.76416588631024729 0.76233592154000007 0.76754874790336558 0.77762781271086112 0.77408911103873734 0.78728666779180223 0.77337799518415551 0.76957669473678969 0.76300722235420793 0.76144039696840515 0.7573304794451694 0.75192513439697173 0.75769773557240327 0.75696093091575989 0.75267739566074243 0.74761467861273445 0.74426623099978428 0.75339856721488829 0.74934642931973272 0.74682666776941353 0.74318764208749499 0.74227760660446407 0.74941032688556319 0.74593741083148424 0.75074632333575764 0.7522999656505327 0.75488503110326022 0.75621039839849757 0.75390630048404716 0.75656538604696166 0.7602457736089876 0.76442321268742386 0.7613024404947204 0.76400794109235193 0.76117853254809731 0.75876442765241636 0.75947490414010943 0.75808809647715947 0.75654864668340949 0.75857043483713582 0.76012020236469025 0.75861668797396042 0.76003078082141329 0.75549946602133922 0.75672808182360818 0.76254633454225029 0.75963431071681597 0.76527548781576016 0.76812452969137723 1.4517123539666175 1.4618570576358838 1.4551218321964541 1.4535643698835266 1.4520893565709567 1.4465977262533467 1.4486918500139119 1.4469338040334019 1.4379306738448303 1.437776670517346 1.4344285115508484 1.4250015890337924 1.4287456094030073 1.441040434746423 1.4496577798057899 1.4457113911181327 1.4382641038991899 1.4472581810736518 0.72262517329777509 0.72275796429270223 1.4551590029499462 1.4580896438211637 0.74517413027710688 0.74013391676317042 0.72918103832412662 0.73643911650281701 0.74583853607678208 0.731775995419083 0.73607573077023503 0.73073814141830518 0.74152770403248669 1.4608269471359971 0.72546792891113299 1.4687553682311236 1.4619519593738604 1.4671930961305399 1.4728024084057871 0.72784290220763381 1.4698062346575718 0.7402580945036874 0.73514546710723527 0.73178347881130268 0.73193122157825918 0.73881486863228063 0.73487712734752719 0.732161425657047 0.7348830643055464 0.73852810215989173 1.4748445910128414 0.72807074235483249 0.72893774442482595 1.4763296239818384 1.4712132101198652 1.4699352084421804 1.4646243765956903 1.4657786600913436 1.4677061057944485 1.4608659024910935 1.4630401468533387 1.4634210663938951 1.454783419708404 1.4571591010154377 1.4564062220228964 1.4610709165798621 1.4602048361774216 1.4611672663405146 1.4633992559378255 1.4628635008261428 1.4624208277675876 1.4628437048294405 1.46336576326404 1.4611555391843787 1.460112108421554 1.4610303707964629 1.4564512795753277 1.4548218193475879 1.4572380979366182 1.4629755701194078 1.4633813707488965 1.4609819584317085 1.4676869864492827 1.4657460724423252 1.4646275326066371 1.4658374290046474 1.469931478994134 1.4667545051930571 1.4711739163205753 0.72792082174582795 1.4748637179488391 0.73902237330400911 0.73236059889346627 0.73505313694310459 0.73493390904173417 0.73943045435595423 0.73249307847315848 0.73525840737248416 0.73182182543471797 0.74027440680701417 1.4697229979964419 0.72783306531425751 1.4727383636820814 1.4670814608317357 1.4617633434459751 1.468629616555253 0.72535608870749968 1.4607331272016371 0.74172153349991987 0.73057064036643737 0.73609322210764816 0.73120530169537545 0.74433398235871451 0.73542892035464291 0.7388060798027043 0.72883581989994894 0.74473085221631585 1.4579979418494542 1.4553262259337387 0.72283376556359968 0.72275303735784924 1.4475978376563798 1.4388635394854905 1.446215206340737 1.4495867952618213 1.4415323818009105 1.4292649865154612 1.4255933272418355 1.4379253228321258 1.4344732565056608 1.4386756912448995 1.4468503505401458 1.4444498363310228 1.4521714570027839 1.4465032786290486 1.4485961870918995 1.4535585985380823 1.4553105218967231 1.4618764986329049 1.4517068845267129 0.76831414281549471 0.76518941876724611 0.75955263774605619 0.76255323371058914 0.75664477672910735 0.76008228247423659 0.75844532591031566 0.7601209487208429 0.75862414235190978 0.75801403317267102 0.75655109304847135 0.75934449165992923 0.75863560927119167 0.76098071300627979 0.76400391815338597 0.76427520384303804 0.76118222595896512 0.76024284760296956 0.75641138546254538 0.75384468105437108 0.75609020542989924 0.75477338826664564 0.75232298695287714 0.7505288831289032 0.74940289736312948 0.74625335302290474 0.74229892870153336 0.7433405277565851 0.74715701540542412 0.75322303984012251 0.74924468728911187 0.74472772145524146 0.74720943726598543 0.75276762981651757 0.75706217509163753 0.75726009533842498 0.75036188040886387 0.75607702858143711 0.76478256741117712 0.77038340442483033 0.76412076439885013 0.78060428751215838 0.78035342616080783 0.77469684383482829 0.76751107240341909 0.76238114378572774 0.76400039664682384 0.76818673170709861 0.76933063011332692 0.77305939497827225 0.77752119644430806 0.77419012715378699 0.78115486906838072 0.78601805958448168 0.79105855283765436 0.79634706706216463 0.78601177814934964 0.78296136912762027 0.7927944220456542 0.79073235888813542 0.77937635007036654 0.77718174250125927 0.76936875379214342 0.77444800822523874 0.76495058689692996 0.85483094950776817 0.86604055782518685 0.83797092691491315 0.81201922909803059 0.83123105306385803 0.80610356724388232 0.81389904463837581 0.81771805174873791 0.80038559401672371 0.81170491087799945 0.79597442703918397 0.8146054630820172 0.82911886132908563 0.83670369244899589 0.83879882224943625 0.86047211247444366 0.82927784879500521 0.84957019211196738 0.8170380423466348 0.81462026226462569 0.80633662579502641 0.80208280353640049 0.7869724541303742 0.79305963915386402 0.78520144287785243 0.77285253951471378 0.76263115217100008 0.77293101466705139 0.79180091525828544 0.83090094646803081 0.80012479659092872 0.79977632677741894 0.80988577009459206 0.82844207624010502 0.85636884384124201 0.84401707175301788 0.90425740020472034 0.86742717902693656 0.88283039370468686 0.95834364046928189 0.90974446898464478 0.95132225774682055 0.8932273768069372 0.91735478219515798 0.86009263674645453 0.87528876490979002 0.84346728605836885 0.88692316864995746 0.85547197529786856 0.89548869231554917 0.88867420475555647 0.87309938505032259 0.92488212115860335 0.95170114019852647 0.90422472659442832 0.9575076385397594 0.93321252416227862 0.92161733543685109 0.95339223513086679 0.97172360009913561 0.92288109333050095 0.90965195760723461 0.8683167090642705 0.87191393261181105 0.89235095044871571 1.3779290446450467 1.406649800661258 1.3739199160456081 1.3727541524375084 1.3536655893291885 1.3767566922938634 1.401276966926984 1.3893156095289996 1.4050611048386914 1.4149075330200258 1.4228737417914985 1.4074681793532093 1.424834262691153 1.4050589588167117 1.4278729826183607 1.4474191945850547 0.72249462750142612 1.4366547415515427 1.430611144796746 0.75230056178476934 0.72610947393877368 0.73714576642911567 0.72213042869979382 0.74878303390624179 0.75943615040169377 0.72509101934307019 0.76859303547849578 0.77335255028284 1.4094017652521114 0.72663477288307199 1.4251428713605794 1.3823871078799783 1.4187498145816697 0.73629978458335898 0.77315194010049026 1.3555087669347703 0.82241343401752687 0.73400972513411666 0.77916138959056402 0.81953831798612731 0.75963664350661375 0.9018342954091878 1.0148400387407097 0.85259693491505262 0.97475882767798261 1.407293655931003 0.95209449713678218 1.3546637574020703 1.1593297824015529 1.354061976958727 1.1483513620746466 1.2808433096051992 1.2477742841712551 1.3519448649255619 1.2793188557412911 1.3365695525904187 1.3830055701115986 1.3258413489727161 1.3383630179051718 1.3016051171543603 1.3349671322680461 1.2854693871269331 1.2355841028197467 1.2657329580238592 1.1479209530515604 1.1445357492531372 1.2689096037003109 1.2699199127177572 1.1485810878825227 1.272130825904906 1.2288122080395567 1.3523159848225141 1.1471423863130403 1.2811727519173495 1.246835990639295 1.3485958124223423 1.2789849212535778 1.3358006375947591 1.3262652551281136 1.3812214766668243 1.2855169263544219 1.32995119494145 1.3368506708426473 1.3041453678382053 1.3537751453966473 1.3760300923480635 1.3710783858378264 1.3732371866870956 1.4062831284070567 1.3767540903841979 1.4069334751029441 1.423778023160998 1.4042376411849391 1.4268709355560842 1.4218122288889514 1.4147023858586563 1.4044500909873729 1.3890950834569828 1.4005310155790003 0.74996651074921261 0.72343800756771293 0.75389637742034044 0.73892581288200532 0.72729701968103733 1.4464959046875099 1.4305278735215339 1.4363180817608345 0.72207197377869736 0.72585011766220653 1.409752112845617 1.4255945340031699 0.76456673555368759 0.725740065818687 0.76101775136381322 0.77526521525354841 0.82196420141271354 0.78194162574401682 0.73247597212249893 0.81874549608678882 1.382463709643297 1.4164598377076434 0.736612651969343 0.7738690379261608 1.3542224495189443 1.4083858228224635 0.95180634485409144 1.3548607097430732 1.1584884190493483 0.90193421344395386 0.75950316604011547 1.0151815276075755 0.85113797859871432 0.97482506067505703 0.8674047501059583 0.90289293599583076 0.90938739194345408 0.88317344625099858 0.95819239509423815 0.9512271475455838 0.89484362502889025 0.91771689730843331 0.86186051854196899 0.84330996915335188 0.8755011342782254 0.82917491102332619 0.85557775821219373 0.80974115447821315 0.84520521742975685 0.92308823079913715 0.95413447402101315 0.97170373061522253 0.92237432941032926 0.93504414001861824 0.95708247581093153 0.90582890376771341 0.95112259353631268 0.92606591211254574 0.87490406743131066 0.88890210458351326 0.85565811685562077 0.89826862583849365 0.89060313214493281 0.86798567453080455 0.89277473968306831 0.87058949297172794 0.911316933888495 0.83774247798110424 0.85466239329647831 0.86687576745005535 0.83691857109103718 0.83850351655568089 0.86076250270522126 0.82941511365325571 0.8292389720824711 0.79543861183274855 0.81102738294239074 0.80004924628227181 0.81398766167719661 0.81723740803387168 0.81318243956501868 0.80586191352031711 0.8112459619038096 0.83105316725963263 0.79321063952791782 0.7997710222872203 0.83096786793446631 0.80117174463103602 0.81709001614795485 0.85024894151712105 0.81551629298044392 0.80579380148697854 0.80227994393416335 0.78647029725310968 0.7731368320652523 0.78681770436591603 0.79340895532067401 0.77513938210367295 0.76413255692098347 0.75665345546118568 0.7504046009508043 0.76426197911763349 0.76562581292530796 0.77034111404185968 0.78067621520719643 0.7801578142734098 0.77459854685564911 0.76752729357821314 0.76441801442142809 0.76242909001253645 0.75278316922780619 0.75715524407555002 0.74723056160040402 0.75748968635984637 0.77929017520233368 0.79072094207887278 0.79265664041007877 0.78280756090462367 0.78580965804053426 0.7956869614372607 0.79064246769572044 0.78577705920372276 0.78084730441318029 0.77423351906848792 0.76875587434489212 0.76930589302918662 0.77299112203405473 0.77752211569834406 0.7694625898888211 0.77440529206642472 0.76510417097220995 0.77716793013030516 0.75984680033965191 0.76267099761496238 0.76834536056666902 0.76560333209365294 0.76135868302885767 0.76436226300547316 0.7645878048126481 0.76169170764308047 0.75882828384237122 0.75957875947995324 0.7566545878724722 0.75795420433892136 0.75870246126679608 0.7601068629206873 0.75865425305363632 0.75998135273907108 0.75666745127387591 0.74723377859273232 0.74479726069923835 0.74933800667014816 0.75327099091380889 0.75672919313190867 0.76030929032478667 0.75387646214432846 0.75617624016503227 0.75486375467869249 0.75236325935781734 0.74952823378440225 0.74637873057741622 0.75070018384127923 0.7434237358893121 0.7426794504211478 0.73906802585968867 0.73496739038452397 0.73249362622107128 0.73512014774037593 0.73938795223817877 0.73227727883033467 0.7318229705840924 0.73539246563961491 0.74041711901559526 1.4668755264493427 1.4727403157372656 0.72781627419538752 1.4693524756613923 1.4748398798784841 0.72790903929310291 1.4709340495291889 1.4697028157201757 1.4643649593241728 1.4654375451308752 1.4624041017900744 1.4627064742966507 1.4631759913755902 1.4611421885661908 1.4599641723155985 1.4607846177029717 1.456169456208829 1.4546541452908368 1.4571411528081359 1.4674513946401628 1.4606872164280804 1.4626527304649093 1.4632427436592526 1.4617481565934707 1.4552128841681142 1.4533615538889872 1.4516611387623792 1.4521568089055981 1.448427096816161 1.446859069555136 1.4345126383556712 1.437772587821998 1.4378533963223337 1.42489010570924 1.4495366810054104 1.4456391315196795 1.4409916084556622 1.4286571107708124 1.4382344818675721 1.4475601760741523 1.457833047563508 1.4550675098146346 0.7227785291120179 0.72283137230520289 0.72917788442984932 0.74540519310191855 0.73918879112372249 0.73566350276702486 0.73121049811166561 0.74458307325363027 0.74183076431198236 0.73604974536382883 0.73063057546022758 0.7253232730442345 1.4617202768619206 1.4686446392769792 1.4606610083087688 
</DataArray>
</CellData>
</Piece>
</UnstructuredGrid>
</VTKFile>
