<?xml version="1.0"?>
<VTKFile type="UnstructuredGrid" version="0.1" byte_order="LittleEndian">
<UnstructuredGrid>
<Piece NumberOfPoints="3186" NumberOfCells="1062">
<Points>
<DataArray type="Float64" NumberOfComponents="3" format="ascii">
0 0 0 0.14285714285686729 0 0 0.10402057578810379 0.10402057578810379 0 0 0 0 0.10402057578810379 0.10402057578810379 0 0 0.14285714285686729 0 0.14285714285686729 0 0 0.10402057578810379 0.10402057578810379 0 0.21622614199724011 0.1170905489967794 0 0.10402057578810379 0.10402057578810379 0 0.12873413335214179 0.22892000827465461 0 0.21622614199724011 0.1170905489967794 0 0.10402057578810379 0.10402057578810379 0 0 0.14285714285686729 0 0.12873413335214179 0.22892000827465461 0 0 0.14285714285686729 0 0 0.28571428571359381 0 0.12873413335214179 0.22892000827465461 0 0.093737460955887239 0.36334567880837831 0 0 0.28571428571359381 0 0 0.42857142857032021 0 0.093737460955887239 0.36334567880837831 0 0 0.28571428571359381 0 0.12873413335214179 0.22892000827465461 0 0.093737460955887239 0.36334567880837831 0 0.12873413335214179 0.22892000827465461 0 0.21341038379882901 0.37169997079090128 0 0.12873413335214179 0.22892000827465461 0 0.28183877965613813 0.2453094238274868 0 0.21622614199724011 0.1170905489967794 0 0.12873413335214179 0.22892000827465461 0 0.21341038379882901 0.37169997079090128 0 0.28183877965613813 0.2453094238274868 0 0.21341038379882901 0.37169997079090128 0 0.28183877965613813 0.2453094238274868 0 0.35714458040172548 0.37949340689832922 0 0.28183877965613813 0.2453094238274868 0 0.35714458040172548 0.37949340689832922 0 0.42857142856968189 0.24782843958009351 0 0.28183877965613813 0.2453094238274868 0 0.35419193461659548 0.1242932860904311 0 0.42857142856968189 0.24782843958009351 0 0.28183877965613813 0.2453094238274868 0 0.35419193461659548 0.1242932860904311 0 0.21622614199724011 0.1170905489967794 0 0.35419193461659548 0.1242932860904311 0 0.28571428571359381 0 0 0.21622614199724011 0.1170905489967794 0 0.35419193461659548 0.1242932860904311 0 0.28571428571359381 0 0 0.42857142857032021 0 0 0.14285714285686729 0 0 0.28571428571359381 0 0 0.21622614199724011 0.1170905489967794 0 0.091975849439628388 0.63906079561326345 0 0.21183497469564019 0.63320029487793694 0 0.12868163055416221 0.76697400229767487 0 0 0.71428571428496201 0 0.091975849439628388 0.63906079561326345 0 0.12868163055416221 0.76697400229767487 0 0.091975849439628388 0.63906079561326345 0 0 0.57142857142744297 0 0.12654278762846541 0.50182270069242174 0 0 0.71428571428496201 0 0.091975849439628388 0.63906079561326345 0 0 0.57142857142744297 0 0.091975849439628388 0.63906079561326345 0 0.12654278762846541 0.50182270069242174 0 0.21183497469564019 0.63320029487793694 0 0 0.57142857142744297 0 0.12654278762846541 0.50182270069242174 0 0 0.42857142857032021 0 0.093737460955887239 0.36334567880837831 0 0.12654278762846541 0.50182270069242174 0 0 0.42857142857032021 0 0.093737460955887239 0.36334567880837831 0 0.21341038379882901 0.37169997079090128 0 0.12654278762846541 0.50182270069242174 0 0.21341038379882901 0.37169997079090128 0 0.12654278762846541 0.50182270069242174 0 0.28571428571288859 0.50512834069527579 0 0.35714458040172548 0.37949340689832922 0 0.28571428571288859 0.50512834069527579 0 0.42857911129460902 0.5051327763182708 0 0.21341038379882901 0.37169997079090128 0 0.35714458040172548 0.37949340689832922 0 0.28571428571288859 0.50512834069527579 0 0.28571428571288859 0.50512834069527579 0 0.35657912408519199 0.6297632267709089 0 0.42857911129460902 0.5051327763182708 0 0.12654278762846541 0.50182270069242174 0 0.28571428571288859 0.50512834069527579 0 0.21183497469564019 0.63320029487793694 0 0.28571428571288859 0.50512834069527579 0 0.21183497469564019 0.63320029487793694 0 0.35657912408519199 0.6297632267709089 0 0.35657912408519199 0.6297632267709089 0 0.42876602422768972 0.75267652020288756 0 0.28454251053718921 0.75357332720455328 0 0.21183497469564019 0.63320029487793694 0 0.35657912408519199 0.6297632267709089 0 0.28454251053718921 0.75357332720455328 0 0.21183497469564019 0.63320029487793694 0 0.28454251053718921 0.75357332720455328 0 0.12868163055416221 0.76697400229767487 0 0.50003783804313584 0.62886810132652948 0 0.57146100403685018 0.75258289532342593 0 0.42876602422768972 0.75267652020288756 0 0.35657912408519199 0.6297632267709089 0 0.50003783804313584 0.62886810132652948 0 0.42876602422768972 0.75267652020288756 0 0.35657912408519199 0.6297632267709089 0 0.50003783804313584 0.62886810132652948 0 0.42857911129460902 0.5051327763182708 0 0.50003783804313584 0.62886810132652948 0 0.42857911129460902 0.5051327763182708 0 0.57143682973041188 0.50513310862866234 0 0.35714458040172548 0.37949340689832922 0 0.42857911129460902 0.5051327763182708 0 0.50000265683637624 0.3797679478844822 0 0.42857911129460902 0.5051327763182708 0 0.50000265683637624 0.3797679478844822 0 0.57143682973041188 0.50513310862866234 0 0.6428589620457259 0.38113747419351418 0 0.71689882325258081 0.50562151542895928 0 0.57143682973041188 0.50513310862866234 0 0.50000265683637624 0.3797679478844822 0 0.6428589620457259 0.38113747419351418 0 0.57143682973041188 0.50513310862866234 0 0.6428589620457259 0.38113747419351418 0 0.71689882325258081 0.50562151542895928 0 0.78571428571267199 0.38141042586853341 0 0.71689882325258081 0.50562151542895928 0 0.57143682973041188 0.50513310862866234 0 0.6428688546313952 0.62885301731806609 0 0.50003783804313584 0.62886810132652948 0 0.57143682973041188 0.50513310862866234 0 0.6428688546313952 0.62885301731806609 0 0.71689882325258081 0.50562151542895928 0 0.6428688546313952 0.62885301731806609 0 0.7865654166374938 0.63474444568669874 0 0.6428688546313952 0.62885301731806609 0 0.7865654166374938 0.63474444568669874 0 0.71537080136980369 0.7565812122385458 0 0.50003783804313584 0.62886810132652948 0 0.6428688546313952 0.62885301731806609 0 0.57146100403685018 0.75258289532342593 0 0.6428688546313952 0.62885301731806609 0 0.57146100403685018 0.75258289532342593 0 0.71537080136980369 0.7565812122385458 0 0.49927531931040692 0.1259400136946118 0 0.42857142857032021 0 0 0.57142857142744297 0 0 0.35419193461659548 0.1242932860904311 0 0.49927531931040692 0.1259400136946118 0 0.42857142857032021 0 0 0.35419193461659548 0.1242932860904311 0 0.49927531931040692 0.1259400136946118 0 0.42857142856968189 0.24782843958009351 0 0.35714458040172548 0.37949340689832922 0 0.50000265683637624 0.3797679478844822 0 0.42857142856968189 0.24782843958009351 0 0.50000265683637624 0.3797679478844822 0 0.42857142856968189 0.24782843958009351 0 0.57134283277699616 0.25528695228377429 0 0.49927531931040692 0.1259400136946118 0 0.42857142856968189 0.24782843958009351 0 0.57134283277699616 0.25528695228377429 0 0.57134283277699616 0.25528695228377429 0 0.71335089116972128 0.25578338314493299 0 0.64223892332544308 0.130274960827549 0 0.6428589620457259 0.38113747419351418 0 0.57134283277699616 0.25528695228377429 0 0.71335089116972128 0.25578338314493299 0 0.50000265683637624 0.3797679478844822 0 0.6428589620457259 0.38113747419351418 0 0.57134283277699616 0.25528695228377429 0 0.6428589620457259 0.38113747419351418 0 0.71335089116972128 0.25578338314493299 0 0.78571428571267199 0.38141042586853341 0 0.71335089116972128 0.25578338314493299 0 0.64223892332544308 0.130274960827549 0 0.78018926648548503 0.12559094919453551 0 0.49927531931040692 0.1259400136946118 0 0.57134283277699616 0.25528695228377429 0 0.64223892332544308 0.130274960827549 0 0.64223892332544308 0.130274960827549 0 0.57142857142744297 0 0 0.71428571428496201 0 0 0.49927531931040692 0.1259400136946118 0 0.64223892332544308 0.130274960827549 0 0.57142857142744297 0 0 0.64223892332544308 0.130274960827549 0 0.71428571428496201 0 0 0.78018926648548503 0.12559094919453551 0 0.71428571428496201 0 0 0.78018926648548503 0.12559094919453551 0 0.85714285714248095 0 0 0.78018926648548503 0.12559094919453551 0 0.89542131320406015 0.10457868679576519 0 0.86802342313663505 0.2373869704637242 0 0.89542131320406015 0.10457868679576519 0 1 0.14285714285686729 0 0.86802342313663505 0.2373869704637242 0 0.89542131320406015 0.10457868679576519 0 0.85714285714248095 0 0 1 0 0 0.78018926648548503 0.12559094919453551 0 0.89542131320406015 0.10457868679576519 0 0.85714285714248095 0 0 0.89542131320406015 0.10457868679576519 0 1 0 0 1 0.14285714285686729 0 1 0.14285714285686729 0 1.1045786867956009 0.1045786867955263 0 1.11654878083672 0.2171580770020253 0 1 0 0 1 0.14285714285686729 0 1.1045786867956009 0.1045786867955263 0 1 0 0 1.1045786867956009 0.1045786867955263 0 1.142857142857143 0 0 1.120408926261548 0.35723491808527941 0 1 0.28571428571359381 0 1 0.42857142857032021 0 1.120408926261548 0.35723491808527941 0 1.11654878083672 0.2171580770020253 0 1 0.28571428571359381 0 1 0.14285714285686729 0 1.11654878083672 0.2171580770020253 0 1 0.28571428571359381 0 1 0.14285714285686729 0 1 0.28571428571359381 0 0.86802342313663505 0.2373869704637242 0 1 0.28571428571359381 0 0.90513725992141869 0.36710674629889062 0 1 0.42857142857032021 0 1 0.28571428571359381 0 0.90513725992141869 0.36710674629889062 0 0.86802342313663505 0.2373869704637242 0 0.90513725992141869 0.36710674629889062 0 0.86802342313663505 0.2373869704637242 0 0.78571428571267199 0.38141042586853341 0 0.71335089116972128 0.25578338314493299 0 0.78018926648548503 0.12559094919453551 0 0.86802342313663505 0.2373869704637242 0 0.71335089116972128 0.25578338314493299 0 0.86802342313663505 0.2373869704637242 0 0.78571428571267199 0.38141042586853341 0 0.71689882325258081 0.50562151542895928 0 0.78571428571267199 0.38141042586853341 0 0.87194859075778619 0.50245062087828152 0 0.71689882325258081 0.50562151542895928 0 0.87194859075778619 0.50245062087828152 0 0.7865654166374938 0.63474444568669874 0 0.90513725992141869 0.36710674629889062 0 0.87194859075778619 0.50245062087828152 0 1 0.42857142857032021 0 0.90513725992141869 0.36710674629889062 0 0.78571428571267199 0.38141042586853341 0 0.87194859075778619 0.50245062087828152 0 0.7865654166374938 0.63474444568669874 0 0.87061467893647215 0.77259634013423817 0 0.71537080136980369 0.7565812122385458 0 0.87194859075778619 0.50245062087828152 0 0.90582573726635052 0.63910113848232464 0 1 0.57142857142744297 0 0.87194859075778619 0.50245062087828152 0 0.7865654166374938 0.63474444568669874 0 0.90582573726635052 0.63910113848232464 0 0.90582573726635052 0.63910113848232464 0 1 0.71428571428496201 0 0.87061467893647215 0.77259634013423817 0 0.7865654166374938 0.63474444568669874 0 0.90582573726635052 0.63910113848232464 0 0.87061467893647215 0.77259634013423817 0 0.90582573726635052 0.63910113848232464 0 1 0.71428571428496201 0 1 0.57142857142744297 0 1 0.57142857142744297 0 1.1230850406616231 0.64211163998861642 0 1.1231105411754949 0.50105200202130007 0 1 0.71428571428496201 0 1 0.57142857142744297 0 1.1230850406616231 0.64211163998861642 0 1 0.71428571428496201 0 1.1230850406616231 0.64211163998861642 0 1.1205280434883049 0.78018926648583675 0 0.87194859075778619 0.50245062087828152 0 1 0.57142857142744297 0 1 0.42857142857032021 0 1 0.57142857142744297 0 1 0.42857142857032021 0 1.1231105411754949 0.50105200202130007 0 1.120408926261548 0.35723491808527941 0 1 0.42857142857032021 0 1.1231105411754949 0.50105200202130007 0 1.120408926261548 0.35723491808527941 0 1.1231105411754949 0.50105200202130007 0 1.242992467502205 0.4277245950738956 0 1.1231105411754949 0.50105200202130007 0 1.242992467502205 0.4277245950738956 0 1.247229121683481 0.57147965461975947 0 1.242992467502205 0.4277245950738956 0 1.247229121683481 0.57147965461975947 0 1.369122867196076 0.49769215192747729 0 1.1230850406616231 0.64211163998861642 0 1.246702098928647 0.71318645322081164 0 1.1205280434883049 0.78018926648583675 0 1.1230850406616231 0.64211163998861642 0 1.1231105411754949 0.50105200202130007 0 1.247229121683481 0.57147965461975947 0 1.1230850406616231 0.64211163998861642 0 1.247229121683481 0.57147965461975947 0 1.246702098928647 0.71318645322081164 0 1.247229121683481 0.57147965461975947 0 1.246702098928647 0.71318645322081164 0 1.3707808136040489 0.64248101537579216 0 1.246702098928647 0.71318645322081164 0 1.3707808136040489 0.64248101537579216 0 1.369080439626563 0.78389141510404459 0 1.247229121683481 0.57147965461975947 0 1.3707808136040489 0.64248101537579216 0 1.369122867196076 0.49769215192747729 0 1.3707808136040489 0.64248101537579216 0 1.49447102461245 0.57098124216803303 0 1.4948716593059641 0.71428571428344279 0 1.3707808136040489 0.64248101537579216 0 1.49447102461245 0.57098124216803303 0 1.369122867196076 0.49769215192747729 0 1.3707808136040489 0.64248101537579216 0 1.4948716593059641 0.71428571428344279 0 1.369080439626563 0.78389141510404459 0 1.242992467502205 0.4277245950738956 0 1.369122867196076 0.49769215192747729 0 1.365913983939659 0.35404229584497132 0 1.49447102461245 0.57098124216803303 0 1.369122867196076 0.49769215192747729 0 1.493210541712801 0.42593700932760992 0 1.369122867196076 0.49769215192747729 0 1.493210541712801 0.42593700932760992 0 1.365913983939659 0.35404229584497132 0 1.493210541712801 0.42593700932760992 0 1.365913983939659 0.35404229584497132 0 1.4945915486603041 0.278046120036475 0 1.365913983939659 0.35404229584497132 0 1.362797304713371 0.2085843731968661 0 1.239801768054871 0.28318912013054159 0 1.362797304713371 0.2085843731968661 0 1.4945915486603041 0.278046120036475 0 1.4981772993068541 0.1265427876282571 0 1.365913983939659 0.35404229584497132 0 1.362797304713371 0.2085843731968661 0 1.4945915486603041 0.278046120036475 0 1.4981772993068541 0.1265427876282571 0 1.4285714285714279 0 0 1.357142857142857 0.088385776599927718 0 1.4981772993068541 0.1265427876282571 0 1.4285714285714279 0 0 1.571428571428571 0 0 1.4285714285714279 0 0 1.357142857142857 0.088385776599927718 0 1.2857142857142849 0 0 1.362797304713371 0.2085843731968661 0 1.357142857142857 0.088385776599927718 0 1.230484398416066 0.12817051038898539 0 1.362797304713371 0.2085843731968661 0 1.4981772993068541 0.1265427876282571 0 1.357142857142857 0.088385776599927718 0 1.230484398416066 0.12817051038898539 0 1.2857142857142849 0 0 1.142857142857143 0 0 1.357142857142857 0.088385776599927718 0 1.230484398416066 0.12817051038898539 0 1.2857142857142849 0 0 1.1045786867956009 0.1045786867955263 0 1.230484398416066 0.12817051038898539 0 1.142857142857143 0 0 1.1045786867956009 0.1045786867955263 0 1.11654878083672 0.2171580770020253 0 1.230484398416066 0.12817051038898539 0 1.11654878083672 0.2171580770020253 0 1.230484398416066 0.12817051038898539 0 1.239801768054871 0.28318912013054159 0 1.120408926261548 0.35723491808527941 0 1.242992467502205 0.4277245950738956 0 1.239801768054871 0.28318912013054159 0 1.120408926261548 0.35723491808527941 0 1.11654878083672 0.2171580770020253 0 1.239801768054871 0.28318912013054159 0 1.242992467502205 0.4277245950738956 0 1.365913983939659 0.35404229584497132 0 1.239801768054871 0.28318912013054159 0 1.362797304713371 0.2085843731968661 0 1.230484398416066 0.12817051038898539 0 1.239801768054871 0.28318912013054159 0 1.2843187895246739 1.251849118408489 0 1.356519680644851 1.1297688427831769 0 1.217136293327606 1.122039968907099 0 1.2843187895246739 1.251849118408489 0 1.1309902448456099 1.235084640813384 0 1.217136293327606 1.122039968907099 0 1.1309902448456099 1.235084640813384 0 1.217136293327606 1.122039968907099 0 1.1045786867955529 1.1045786867955529 0 1.2843187895246739 1.251849118408489 0 1.1309902448456099 1.235084640813384 0 1.214285714285708 1.381410425868262 0 1.1309902448456099 1.235084640813384 0 1.214285714285708 1.381410425868262 0 1.0966122299857239 1.357142857142857 0 1.214285714285708 1.381410425868262 0 1.1265427876294609 1.501822700692834 0 1.285714285714282 1.505128340694609 0 1.214285714285708 1.381410425868262 0 1.0966122299857239 1.357142857142857 0 1.1265427876294609 1.501822700692834 0 1.214285714285708 1.381410425868262 0 1.3557237634480139 1.380474745153186 0 1.285714285714282 1.505128340694609 0 1.2843187895246739 1.251849118408489 0 1.214285714285708 1.381410425868262 0 1.3557237634480139 1.380474745153186 0 1.3557237634480139 1.380474745153186 0 1.285714285714282 1.505128340694609 0 1.42857911129607 1.505132776317748 0 1.3557237634480139 1.380474745153186 0 1.4999999999999949 1.3814104258682569 0 1.42857911129607 1.505132776317748 0 1.3557237634480139 1.380474745153186 0 1.4999999999999949 1.3814104258682569 0 1.426914538806672 1.255395578508163 0 1.4999999999999949 1.3814104258682569 0 1.426914538806672 1.255395578508163 0 1.571152652531757 1.256105255633247 0 1.2843187895246739 1.251849118408489 0 1.3557237634480139 1.380474745153186 0 1.426914538806672 1.255395578508163 0 1.2843187895246739 1.251849118408489 0 1.426914538806672 1.255395578508163 0 1.356519680644851 1.1297688427831769 0 1.426914538806672 1.255395578508163 0 1.499999999999998 1.1271398115696349 0 1.571152652531757 1.256105255633247 0 1.426914538806672 1.255395578508163 0 1.356519680644851 1.1297688427831769 0 1.499999999999998 1.1271398115696349 0 1.499999999999998 1.1271398115696349 0 1.4285714285714279 1 0 1.571428571428571 1 0 1.356519680644851 1.1297688427831769 0 1.499999999999998 1.1271398115696349 0 1.4285714285714279 1 0 1.4285714285714279 1 0 1.497549379121643 0.87194859075748521 0 1.571428571428571 1 0 1.4285714285714279 1 0 1.359152564409752 0.9044833397938371 0 1.2857142857142849 1 0 1.356519680644851 1.1297688427831769 0 1.4285714285714279 1 0 1.2857142857142849 1 0 1.4948716593059641 0.71428571428344279 0 1.497549379121643 0.87194859075748521 0 1.369080439626563 0.78389141510404459 0 1.497549379121643 0.87194859075748521 0 1.359152564409752 0.9044833397938371 0 1.369080439626563 0.78389141510404459 0 1.4285714285714279 1 0 1.497549379121643 0.87194859075748521 0 1.359152564409752 0.9044833397938371 0 1.359152564409752 0.9044833397938371 0 1.369080439626563 0.78389141510404459 0 1.2323719363650789 0.86814175826561835 0 1.246702098928647 0.71318645322081164 0 1.369080439626563 0.78389141510404459 0 1.2323719363650789 0.86814175826561835 0 1.359152564409752 0.9044833397938371 0 1.2323719363650789 0.86814175826561835 0 1.2857142857142849 1 0 1.2323719363650789 0.86814175826561835 0 1.142857142857143 1 0 1.104578686795793 0.89542131320410689 0 1.2323719363650789 0.86814175826561835 0 1.1205280434883049 0.78018926648583675 0 1.104578686795793 0.89542131320410689 0 1.246702098928647 0.71318645322081164 0 1.2323719363650789 0.86814175826561835 0 1.1205280434883049 0.78018926648583675 0 1.356519680644851 1.1297688427831769 0 1.2857142857142849 1 0 1.217136293327606 1.122039968907099 0 1.2323719363650789 0.86814175826561835 0 1.2857142857142849 1 0 1.142857142857143 1 0 1.142857142857143 1 0 1.217136293327606 1.122039968907099 0 1.1045786867955529 1.1045786867955529 0 1.2857142857142849 1 0 1.142857142857143 1 0 1.217136293327606 1.122039968907099 0 1.1045786867955529 1.1045786867955529 0 1 1 0 1 1.142857142857143 0 1.142857142857143 1 0 1.1045786867955529 1.1045786867955529 0 1 1 0 1.142857142857143 1 0 1 1 0 1.104578686795793 0.89542131320410689 0 1 1 0 0.89542131320410701 1.104578686795793 0 1 1.142857142857143 0 1 0.71428571428496201 0 1.1205280434883049 0.78018926648583675 0 1 0.85714285714248095 0 1 1 0 1.104578686795793 0.89542131320410689 0 1 0.85714285714248095 0 1.1205280434883049 0.78018926648583675 0 1.104578686795793 0.89542131320410689 0 1 0.85714285714248095 0 1 1 0 1 0.85714285714248095 0 0.89542131320417073 0.89542131320417073 0 1 0.71428571428496201 0 1 0.85714285714248095 0 0.87061467893647215 0.77259634013423817 0 1 0.85714285714248095 0 0.87061467893647215 0.77259634013423817 0 0.89542131320417073 0.89542131320417073 0 0.89542131320417073 0.89542131320417073 0 0.78149925341697946 0.88257916460195274 0 0.85714285714248095 1 0 0.87061467893647215 0.77259634013423817 0 0.89542131320417073 0.89542131320417073 0 0.78149925341697946 0.88257916460195274 0 0.87061467893647215 0.77259634013423817 0 0.78149925341697946 0.88257916460195274 0 0.71537080136980369 0.7565812122385458 0 0.89542131320410701 1.104578686795793 0 0.85714285714248095 1 0 0.78018926648585263 1.1205280434881351 0 1 1 0 0.89542131320410701 1.104578686795793 0 0.85714285714248095 1 0 1 1 0 0.89542131320417073 0.89542131320417073 0 0.85714285714248095 1 0 0.78149925341697946 0.88257916460195274 0 0.85714285714248095 1 0 0.71428571428496201 1 0 0.85714285714248095 1 0 0.78018926648585263 1.1205280434881351 0 0.71428571428496201 1 0 0.78018926648585263 1.1205280434881351 0 0.8681417582656602 1.2323719363648691 0 0.71318645322083074 1.246702098928443 0 0.8681417582656602 1.2323719363648691 0 0.78389141510410065 1.3690804396262211 0 0.71318645322083074 1.246702098928443 0 0.8681417582656602 1.2323719363648691 0 1 1.2857142857142849 0 0.90448333979397377 1.359152564409229 0 0.89542131320410701 1.104578686795793 0 0.78018926648585263 1.1205280434881351 0 0.8681417582656602 1.2323719363648691 0 0.89542131320410701 1.104578686795793 0 0.8681417582656602 1.2323719363648691 0 1 1.142857142857143 0 0.8681417582656602 1.2323719363648691 0 1 1.142857142857143 0 1 1.2857142857142849 0 1.1309902448456099 1.235084640813384 0 1 1.2857142857142849 0 1.0966122299857239 1.357142857142857 0 1.1309902448456099 1.235084640813384 0 1 1.142857142857143 0 1 1.2857142857142849 0 1.1309902448456099 1.235084640813384 0 1.1045786867955529 1.1045786867955529 0 1 1.142857142857143 0 1.0966122299857239 1.357142857142857 0 1 1.4285714285714279 0 1.1265427876294609 1.501822700692834 0 1 1.2857142857142849 0 1.0966122299857239 1.357142857142857 0 1 1.4285714285714279 0 1 1.2857142857142849 0 1 1.4285714285714279 0 0.90448333979397377 1.359152564409229 0 1 1.4285714285714279 0 0.87194859075750586 1.497549379121565 0 1 1.571428571428571 0 0.87194859075750586 1.497549379121565 0 0.90448333979397377 1.359152564409229 0 0.78389141510410065 1.3690804396262211 0 1 1.4285714285714279 0 0.87194859075750586 1.497549379121565 0 0.90448333979397377 1.359152564409229 0 0.8681417582656602 1.2323719363648691 0 0.90448333979397377 1.359152564409229 0 0.78389141510410065 1.3690804396262211 0 0.87194859075750586 1.497549379121565 0 0.78389141510410065 1.3690804396262211 0 0.71428571428344279 1.494871659305963 0 0.78389141510410065 1.3690804396262211 0 0.71428571428344279 1.494871659305963 0 0.64248101537579227 1.370780813604048 0 0.71428571428344279 1.494871659305963 0 0.5709812421680337 1.49447102461245 0 0.64248101537579227 1.370780813604048 0 0.5709812421680337 1.49447102461245 0 0.64248101537579227 1.370780813604048 0 0.49769215192747779 1.3691228671960749 0 0.64248101537579227 1.370780813604048 0 0.57147965461975991 1.2472291216834761 0 0.49769215192747779 1.3691228671960749 0 0.78389141510410065 1.3690804396262211 0 0.64248101537579227 1.370780813604048 0 0.71318645322083074 1.246702098928443 0 0.78018926648585263 1.1205280434881351 0 0.71318645322083074 1.246702098928443 0 0.64211163998861909 1.1230850406615951 0 0.71318645322083074 1.246702098928443 0 0.57147965461975991 1.2472291216834761 0 0.64211163998861909 1.1230850406615951 0 0.57147965461975991 1.2472291216834761 0 0.64211163998861909 1.1230850406615951 0 0.50105200202129974 1.1231105411754949 0 0.64248101537579227 1.370780813604048 0 0.71318645322083074 1.246702098928443 0 0.57147965461975991 1.2472291216834761 0 0.57147965461975991 1.2472291216834761 0 0.42772459507389549 1.2429924675022059 0 0.49769215192747779 1.3691228671960749 0 0.57147965461975991 1.2472291216834761 0 0.42772459507389549 1.2429924675022059 0 0.50105200202129974 1.1231105411754949 0 0.42772459507389549 1.2429924675022059 0 0.50105200202129974 1.1231105411754949 0 0.35723491808528002 1.1204089262615491 0 0.42772459507389549 1.2429924675022059 0 0.49769215192747779 1.3691228671960749 0 0.35404229584497188 1.365913983939661 0 0.42593700932761119 1.4932105417128021 0 0.49769215192747779 1.3691228671960749 0 0.35404229584497188 1.365913983939661 0 0.5709812421680337 1.49447102461245 0 0.42593700932761119 1.4932105417128021 0 0.49769215192747779 1.3691228671960749 0 0.57146100403685018 0.75258289532342593 0 0.71537080136980369 0.7565812122385458 0 0.64285714285588325 0.87628208517373918 0 0.57146100403685018 0.75258289532342593 0 0.64285714285588325 0.87628208517373918 0 0.49999999999885258 0.87628208517384021 0 0.78149925341697946 0.88257916460195274 0 0.71537080136980369 0.7565812122385458 0 0.64285714285588325 0.87628208517373918 0 0.78149925341697946 0.88257916460195274 0 0.64285714285588325 0.87628208517373918 0 0.71428571428496201 1 0 0.64285714285588325 0.87628208517373918 0 0.57142857142744297 1 0 0.49999999999885258 0.87628208517384021 0 0.64285714285588325 0.87628208517373918 0 0.57142857142744297 1 0 0.71428571428496201 1 0 0.78018926648585263 1.1205280434881351 0 0.71428571428496201 1 0 0.64211163998861909 1.1230850406615951 0 0.57142857142744297 1 0 0.71428571428496201 1 0 0.64211163998861909 1.1230850406615951 0 0.57142857142744297 1 0 0.64211163998861909 1.1230850406615951 0 0.50105200202129974 1.1231105411754949 0 0.57142857142744297 1 0 0.50105200202129974 1.1231105411754949 0 0.42857142857032021 1 0 0.50105200202129974 1.1231105411754949 0 0.42857142857032021 1 0 0.35723491808528002 1.1204089262615491 0 0.57142857142744297 1 0 0.42857142857032021 1 0 0.49999999999885258 0.87628208517384021 0 0.42857142857032021 1 0 0.49999999999885258 0.87628208517384021 0 0.35831043108656913 0.87695618430515165 0 0.49999999999885258 0.87628208517384021 0 0.42876602422768972 0.75267652020288756 0 0.35831043108656913 0.87695618430515165 0 0.57146100403685018 0.75258289532342593 0 0.49999999999885258 0.87628208517384021 0 0.42876602422768972 0.75267652020288756 0 0.28454251053718921 0.75357332720455328 0 0.22029060869521661 0.88080238224013152 0 0.12868163055416221 0.76697400229767487 0 0.28454251053718921 0.75357332720455328 0 0.35831043108656913 0.87695618430515165 0 0.22029060869521661 0.88080238224013152 0 0.42876602422768972 0.75267652020288756 0 0.28454251053718921 0.75357332720455328 0 0.35831043108656913 0.87695618430515165 0 0.35831043108656913 0.87695618430515165 0 0.22029060869521661 0.88080238224013152 0 0.28571428571359381 1 0 0.22029060869521661 0.88080238224013152 0 0.28571428571359381 1 0 0.14285714285686729 1 0 0.42857142857032021 1 0 0.35831043108656913 0.87695618430515165 0 0.28571428571359381 1 0 0.42857142857032021 1 0 0.28571428571359381 1 0 0.35723491808528002 1.1204089262615491 0 0.28571428571359381 1 0 0.35723491808528002 1.1204089262615491 0 0.21715807700202849 1.116548780836722 0 0.28571428571359381 1 0 0.21715807700202849 1.116548780836722 0 0.14285714285686729 1 0 0.21715807700202849 1.116548780836722 0 0.1045786867955263 1.1045786867956 0 0.14285714285686729 1 0 0.1045786867955263 1.1045786867956 0 0 1 0 0 1.142857142857143 0 0.1045786867955263 1.1045786867956 0 0 1 0 0.14285714285686729 1 0 0 1 0 0.14285714285686729 1 0 0.1045786867957653 0.89542131320405993 0 0.22029060869521661 0.88080238224013152 0 0.1045786867957653 0.89542131320405993 0 0.12868163055416221 0.76697400229767487 0 0.22029060869521661 0.88080238224013152 0 0.14285714285686729 1 0 0.1045786867957653 0.89542131320405993 0 0 1 0 0.1045786867957653 0.89542131320405993 0 0 0.85714285714248095 0 0.1045786867957653 0.89542131320405993 0 0 0.85714285714248095 0 0.12868163055416221 0.76697400229767487 0 0 0.71428571428496201 0 0 0.85714285714248095 0 0.12868163055416221 0.76697400229767487 0 0.2085843731968674 1.3627973047133739 0 0.27804612003647688 1.494591548660307 0 0.12654278762825799 1.4981772993068549 0 0.2085843731968674 1.3627973047133739 0 0.27804612003647688 1.494591548660307 0 0.35404229584497188 1.365913983939661 0 0.42593700932761119 1.4932105417128021 0 0.27804612003647688 1.494591548660307 0 0.35404229584497188 1.365913983939661 0 0.2085843731968674 1.3627973047133739 0 0.35404229584497188 1.365913983939661 0 0.2831891201305422 1.2398017680548721 0 0.42772459507389549 1.2429924675022059 0 0.35404229584497188 1.365913983939661 0 0.2831891201305422 1.2398017680548721 0 0.42772459507389549 1.2429924675022059 0 0.35723491808528002 1.1204089262615491 0 0.2831891201305422 1.2398017680548721 0 0.35723491808528002 1.1204089262615491 0 0.21715807700202849 1.116548780836722 0 0.2831891201305422 1.2398017680548721 0 0.21715807700202849 1.116548780836722 0 0.2831891201305422 1.2398017680548721 0 0.1281705103889863 1.2304843984160669 0 0.2085843731968674 1.3627973047133739 0 0.2831891201305422 1.2398017680548721 0 0.1281705103889863 1.2304843984160669 0 0.21715807700202849 1.116548780836722 0 0.1045786867955263 1.1045786867956 0 0.1281705103889863 1.2304843984160669 0 0.1045786867955263 1.1045786867956 0 0.1281705103889863 1.2304843984160669 0 0 1.142857142857143 0 0.1281705103889863 1.2304843984160669 0 0 1.2857142857142849 0 0.088385776599929494 1.357142857142857 0 0.1281705103889863 1.2304843984160669 0 0 1.142857142857143 0 0 1.2857142857142849 0 0 1.2857142857142849 0 0.088385776599929494 1.357142857142857 0 0 1.4285714285714279 0 0.2085843731968674 1.3627973047133739 0 0.088385776599929494 1.357142857142857 0 0.12654278762825799 1.4981772993068549 0 0.2085843731968674 1.3627973047133739 0 0.1281705103889863 1.2304843984160669 0 0.088385776599929494 1.357142857142857 0 0.12654278762825799 1.4981772993068549 0 0 1.4285714285714279 0 0 1.571428571428571 0 0.088385776599929494 1.357142857142857 0 0.12654278762825799 1.4981772993068549 0 0 1.4285714285714279 0 0.12654278762825799 1.4981772993068549 0 0 1.571428571428571 0 0.093464308857800493 1.636633879872754 0 0 1.571428571428571 0 0.093464308857800493 1.636633879872754 0 0 1.714285714285714 0 0.093464308857800493 1.636633879872754 0 0.21204462330902701 1.6281978226174341 0 0.12873413335171741 1.7710799917251949 0 0.12654278762825799 1.4981772993068549 0 0.093464308857800493 1.636633879872754 0 0.21204462330902701 1.6281978226174341 0 0.27804612003647688 1.494591548660307 0 0.12654278762825799 1.4981772993068549 0 0.21204462330902701 1.6281978226174341 0 0.21204462330902701 1.6281978226174341 0 0.35661818314176119 1.6201734641978449 0 0.2815234200304042 1.7546180202569051 0 0.27804612003647688 1.494591548660307 0 0.21204462330902701 1.6281978226174341 0 0.35661818314176119 1.6201734641978449 0 0.42593700932761119 1.4932105417128021 0 0.27804612003647688 1.494591548660307 0 0.35661818314176119 1.6201734641978449 0 0.2815234200304042 1.7546180202569051 0 0.35415439180319602 1.875698076300893 0 0.42857142856855118 1.752171560420507 0 0.2815234200304042 1.7546180202569051 0 0.21616732492381949 1.8828959187492971 0 0.35415439180319602 1.875698076300893 0 0.35661818314176119 1.6201734641978449 0 0.2815234200304042 1.7546180202569051 0 0.42857142856855118 1.752171560420507 0 0.21204462330902701 1.6281978226174341 0 0.2815234200304042 1.7546180202569051 0 0.12873413335171741 1.7710799917251949 0 0.2815234200304042 1.7546180202569051 0 0.12873413335171741 1.7710799917251949 0 0.21616732492381949 1.8828959187492971 0 0.12873413335171741 1.7710799917251949 0 0.1040205757871384 1.895979424212787 0 0.21616732492381949 1.8828959187492971 0 0.093464308857800493 1.636633879872754 0 0.12873413335171741 1.7710799917251949 0 0 1.714285714285714 0 0.12873413335171741 1.7710799917251949 0 0 1.714285714285714 0 0 1.857142857142857 0 0.12873413335171741 1.7710799917251949 0 0 1.857142857142857 0 0.1040205757871384 1.895979424212787 0 0 2 0 0.14285714285686729 2 0 0.1040205757871384 1.895979424212787 0 0 1.857142857142857 0 0 2 0 0.1040205757871384 1.895979424212787 0 0 2 0 0.14285714285686729 2 0 0.10402057578714501 2.104020575787219 0 0.14285714285686729 2 0 0.1040205757871384 1.895979424212787 0 0.21616732492381949 1.8828959187492971 0 0 2.1428571428571428 0 0.12873413335172121 2.2289200082748062 0 0 2.2857142857142851 0 0 2.1428571428571428 0 0.10402057578714501 2.104020575787219 0 0.12873413335172121 2.2289200082748062 0 0 2 0 0 2.1428571428571428 0 0.10402057578714501 2.104020575787219 0 0.10402057578714501 2.104020575787219 0 0.12873413335172121 2.2289200082748062 0 0.21616732492382371 2.1171040812507051 0 0.14285714285686729 2 0 0.10402057578714501 2.104020575787219 0 0.21616732492382371 2.1171040812507051 0 0.12873413335172121 2.2289200082748062 0 0.21616732492382371 2.1171040812507051 0 0.2815234200304122 2.2453819797430978 0 0.21616732492382371 2.1171040812507051 0 0.35415439180320291 2.1243019236991101 0 0.28571428571359381 2 0 0.21616732492382371 2.1171040812507051 0 0.35415439180320291 2.1243019236991101 0 0.2815234200304122 2.2453819797430978 0 0.35415439180320291 2.1243019236991101 0 0.2815234200304122 2.2453819797430978 0 0.42857142856855918 2.2478284395795001 0 0.14285714285686729 2 0 0.21616732492381949 1.8828959187492971 0 0.28571428571359381 2 0 0.14285714285686729 2 0 0.21616732492382371 2.1171040812507051 0 0.28571428571359381 2 0 0.35415439180320291 2.1243019236991101 0 0.28571428571359381 2 0 0.42857142857032021 2 0 0.28571428571359381 2 0 0.35415439180319602 1.875698076300893 0 0.42857142857032021 2 0 0.21616732492381949 1.8828959187492971 0 0.28571428571359381 2 0 0.35415439180319602 1.875698076300893 0 0.35415439180319602 1.875698076300893 0 0.42857142857032021 2 0 0.49927531931007929 1.874059986305624 0 0.42857142857032021 2 0 0.49927531931008179 2.1259400136943771 0 0.57142857142744297 2 0 0.42857142857032021 2 0 0.57142857142744297 2 0 0.49927531931007929 1.874059986305624 0 0.35415439180320291 2.1243019236991101 0 0.42857142856855918 2.2478284395795001 0 0.49927531931008179 2.1259400136943771 0 0.35415439180320291 2.1243019236991101 0 0.42857142857032021 2 0 0.49927531931008179 2.1259400136943771 0 0.42857142856855918 2.2478284395795001 0 0.49927531931008179 2.1259400136943771 0 0.57126208756432351 2.2553423194843969 0 0.49927531931008179 2.1259400136943771 0 0.64222861727828873 2.130282196703202 0 0.57126208756432351 2.2553423194843969 0 0.64222861727828873 2.130282196703202 0 0.57126208756432351 2.2553423194843969 0 0.7133104372685124 2.2558131098502412 0 0.49927531931008179 2.1259400136943771 0 0.64222861727828873 2.130282196703202 0 0.57142857142744297 2 0 0.64222861727828873 2.130282196703202 0 0.71428571428496201 2 0 0.78018926648515108 2.1255909491940099 0 0.64222861727828873 2.130282196703202 0 0.7133104372685124 2.2558131098502412 0 0.78018926648515108 2.1255909491940099 0 0.57142857142744297 2 0 0.71428571428496201 2 0 0.6422286172782864 1.869717803296798 0 0.57142857142744297 2 0 0.6422286172782864 1.869717803296798 0 0.49927531931007929 1.874059986305624 0 0.64222861727828873 2.130282196703202 0 0.57142857142744297 2 0 0.71428571428496201 2 0 0.71428571428496201 2 0 0.6422286172782864 1.869717803296798 0 0.78018926648514864 1.8744090508059901 0 0.6422286172782864 1.869717803296798 0 0.71331043726850674 1.744186890149759 0 0.78018926648514864 1.8744090508059901 0 0.6422286172782864 1.869717803296798 0 0.57126208756431718 1.7446576805156051 0 0.71331043726850674 1.744186890149759 0 0.6422286172782864 1.869717803296798 0 0.57126208756431718 1.7446576805156051 0 0.49927531931007929 1.874059986305624 0 0.57126208756431718 1.7446576805156051 0 0.71331043726850674 1.744186890149759 0 0.64269698385324503 1.618739532771452 0 0.71331043726850674 1.744186890149759 0 0.64269698385324503 1.618739532771452 0 0.78571428571188839 1.618589574132365 0 0.71428571428344279 1.494871659305963 0 0.64269698385324503 1.618739532771452 0 0.78571428571188839 1.618589574132365 0 0.71428571428344279 1.494871659305963 0 0.5709812421680337 1.49447102461245 0 0.64269698385324503 1.618739532771452 0 0.5709812421680337 1.49447102461245 0 0.64269698385324503 1.618739532771452 0 0.49948637524749079 1.619889960661181 0 0.57126208756431718 1.7446576805156051 0 0.64269698385324503 1.618739532771452 0 0.49948637524749079 1.619889960661181 0 0.5709812421680337 1.49447102461245 0 0.42593700932761119 1.4932105417128021 0 0.49948637524749079 1.619889960661181 0 0.42593700932761119 1.4932105417128021 0 0.35661818314176119 1.6201734641978449 0 0.49948637524749079 1.619889960661181 0 0.35661818314176119 1.6201734641978449 0 0.49948637524749079 1.619889960661181 0 0.42857142856855118 1.752171560420507 0 0.35415439180319602 1.875698076300893 0 0.42857142856855118 1.752171560420507 0 0.49927531931007929 1.874059986305624 0 0.57126208756431718 1.7446576805156051 0 0.42857142856855118 1.752171560420507 0 0.49927531931007929 1.874059986305624 0 0.57126208756431718 1.7446576805156051 0 0.49948637524749079 1.619889960661181 0 0.42857142856855118 1.752171560420507 0 0.28571428571359381 3 0 0.35723491808528102 2.87959107373845 0 0.42857142857032021 3 0 0.28571428571359381 3 0 0.35723491808528102 2.87959107373845 0 0.21715807700202869 2.883451219163276 0 0.35723491808528102 2.87959107373845 0 0.21715807700202869 2.883451219163276 0 0.28318912013054431 2.760198231945127 0 0.28571428571359381 3 0 0.21715807700202869 2.883451219163276 0 0.14285714285686729 3 0 0.21715807700202869 2.883451219163276 0 0.14285714285686729 3 0 0.10457868679552811 2.8954213132043991 0 0 3 0 0 2.8571428571428572 0 0.10457868679552811 2.8954213132043991 0 0.14285714285686729 3 0 0 3 0 0.10457868679552811 2.8954213132043991 0 0 2.8571428571428572 0 0.10457868679552811 2.8954213132043991 0 0.1281705103889878 2.7695156015839308 0 0.21715807700202869 2.883451219163276 0 0.10457868679552811 2.8954213132043991 0 0.1281705103889878 2.7695156015839308 0 0 2.8571428571428572 0 0.1281705103889878 2.7695156015839308 0 0 2.714285714285714 0 0.1281705103889878 2.7695156015839308 0 0 2.714285714285714 0 0.088385776599930521 2.6428571428571428 0 0 2.714285714285714 0 0.088385776599930521 2.6428571428571428 0 0 2.5714285714285712 0 0.1281705103889878 2.7695156015839308 0 0.088385776599930521 2.6428571428571428 0 0.20858437319687029 2.6372026952866259 0 0.21715807700202869 2.883451219163276 0 0.1281705103889878 2.7695156015839308 0 0.28318912013054431 2.760198231945127 0 0.1281705103889878 2.7695156015839308 0 0.20858437319687029 2.6372026952866259 0 0.28318912013054431 2.760198231945127 0 0.35723491808528102 2.87959107373845 0 0.28318912013054431 2.760198231945127 0 0.42772459507389821 2.7570075324977932 0 0.28318912013054431 2.760198231945127 0 0.35404229584497637 2.6340860160603379 0 0.42772459507389821 2.7570075324977932 0 0.20858437319687029 2.6372026952866259 0 0.28318912013054431 2.760198231945127 0 0.35404229584497637 2.6340860160603379 0 0.35404229584497637 2.6340860160603379 0 0.27804612003648221 2.5054084513396928 0 0.42593700932761791 2.506789458287197 0 0.27804612003648221 2.5054084513396928 0 0.35661818314176918 2.3798265358021551 0 0.42593700932761791 2.506789458287197 0 0.27804612003648221 2.5054084513396928 0 0.1265427876282616 2.5018227006931442 0 0.21204462330903229 2.3718021773825648 0 0.20858437319687029 2.6372026952866259 0 0.27804612003648221 2.5054084513396928 0 0.1265427876282616 2.5018227006931442 0 0.20858437319687029 2.6372026952866259 0 0.35404229584497637 2.6340860160603379 0 0.27804612003648221 2.5054084513396928 0 0.088385776599930521 2.6428571428571428 0 0.20858437319687029 2.6372026952866259 0 0.1265427876282616 2.5018227006931442 0 0.088385776599930521 2.6428571428571428 0 0 2.5714285714285712 0 0.1265427876282616 2.5018227006931442 0 0 2.5714285714285712 0 0.1265427876282616 2.5018227006931442 0 0 2.4285714285714279 0 0.1265427876282616 2.5018227006931442 0 0.093464308857803033 2.363366120127246 0 0.21204462330903229 2.3718021773825648 0 0.1265427876282616 2.5018227006931442 0 0.093464308857803033 2.363366120127246 0 0 2.4285714285714279 0 0.093464308857803033 2.363366120127246 0 0 2.4285714285714279 0 0 2.2857142857142851 0 0.12873413335172121 2.2289200082748062 0 0.093464308857803033 2.363366120127246 0 0 2.2857142857142851 0 0.12873413335172121 2.2289200082748062 0 0.093464308857803033 2.363366120127246 0 0.21204462330903229 2.3718021773825648 0 0.12873413335172121 2.2289200082748062 0 0.2815234200304122 2.2453819797430978 0 0.21204462330903229 2.3718021773825648 0 0.27804612003648221 2.5054084513396928 0 0.21204462330903229 2.3718021773825648 0 0.35661818314176918 2.3798265358021551 0 0.2815234200304122 2.2453819797430978 0 0.21204462330903229 2.3718021773825648 0 0.35661818314176918 2.3798265358021551 0 0.2815234200304122 2.2453819797430978 0 0.42857142856855918 2.2478284395795001 0 0.35661818314176918 2.3798265358021551 0 0.42857142856855918 2.2478284395795001 0 0.35661818314176918 2.3798265358021551 0 0.49948637524749862 2.3801100393388199 0 0.35661818314176918 2.3798265358021551 0 0.49948637524749862 2.3801100393388199 0 0.42593700932761791 2.506789458287197 0 0.42857142856855918 2.2478284395795001 0 0.49948637524749862 2.3801100393388199 0 0.57126208756432351 2.2553423194843969 0 0.49948637524749862 2.3801100393388199 0 0.57126208756432351 2.2553423194843969 0 0.64269698385325302 2.3812604672285489 0 0.57126208756432351 2.2553423194843969 0 0.7133104372685124 2.2558131098502412 0 0.64269698385325302 2.3812604672285489 0 0.7133104372685124 2.2558131098502412 0 0.64269698385325302 2.3812604672285489 0 0.78571428571189661 2.3814104258676352 0 0.64269698385325302 2.3812604672285489 0 0.714285714283452 2.5051283406940419 0 0.78571428571189661 2.3814104258676352 0 0.49948637524749862 2.3801100393388199 0 0.64269698385325302 2.3812604672285489 0 0.57098124216804058 2.5055289753875498 0 0.64269698385325302 2.3812604672285489 0 0.57098124216804058 2.5055289753875498 0 0.714285714283452 2.5051283406940419 0 0.714285714283452 2.5051283406940419 0 0.64248101537579549 2.6292191863959529 0 0.78389141510404725 2.630919560373445 0 0.57098124216804058 2.5055289753875498 0 0.49769215192748217 2.6308771328039229 0 0.64248101537579549 2.6292191863959529 0 0.57098124216804058 2.5055289753875498 0 0.714285714283452 2.5051283406940419 0 0.64248101537579549 2.6292191863959529 0 0.57098124216804058 2.5055289753875498 0 0.42593700932761791 2.506789458287197 0 0.49769215192748217 2.6308771328039229 0 0.49948637524749862 2.3801100393388199 0 0.57098124216804058 2.5055289753875498 0 0.42593700932761791 2.506789458287197 0 0.35404229584497637 2.6340860160603379 0 0.42593700932761791 2.506789458287197 0 0.49769215192748217 2.6308771328039229 0 0.35404229584497637 2.6340860160603379 0 0.42772459507389821 2.7570075324977932 0 0.49769215192748217 2.6308771328039229 0 0.42772459507389821 2.7570075324977932 0 0.57147965461976069 2.752770878316519 0 0.50105200202130085 2.8768894588245049 0 0.42772459507389821 2.7570075324977932 0 0.49769215192748217 2.6308771328039229 0 0.57147965461976069 2.752770878316519 0 0.49769215192748217 2.6308771328039229 0 0.64248101537579549 2.6292191863959529 0 0.57147965461976069 2.752770878316519 0 0.64248101537579549 2.6292191863959529 0 0.71318645322081142 2.7532979010713579 0 0.57147965461976069 2.752770878316519 0 0.64248101537579549 2.6292191863959529 0 0.71318645322081142 2.7532979010713579 0 0.78389141510404725 2.630919560373445 0 0.71318645322081142 2.7532979010713579 0 0.57147965461976069 2.752770878316519 0 0.64211163998861565 2.8769149593383769 0 0.57147965461976069 2.752770878316519 0 0.64211163998861565 2.8769149593383769 0 0.50105200202130085 2.8768894588245049 0 0.71318645322081142 2.7532979010713579 0 0.64211163998861565 2.8769149593383769 0 0.78018926648583442 2.8794719565116988 0 0.64211163998861565 2.8769149593383769 0 0.71428571428496201 3 0 0.78018926648583442 2.8794719565116988 0 0.64211163998861565 2.8769149593383769 0 0.71428571428496201 3 0 0.57142857142744297 3 0 0.64211163998861565 2.8769149593383769 0 0.57142857142744297 3 0 0.50105200202130085 2.8768894588245049 0 0.57142857142744297 3 0 0.50105200202130085 2.8768894588245049 0 0.42857142857032021 3 0 0.35723491808528102 2.87959107373845 0 0.42772459507389821 2.7570075324977932 0 0.50105200202130085 2.8768894588245049 0 0.35723491808528102 2.87959107373845 0 0.50105200202130085 2.8768894588245049 0 0.42857142857032021 3 0 1.1045786867955549 2.8954213132044448 0 1 3 0 1.142857142857143 3 0 1.1045786867955549 2.8954213132044448 0 1 2.8571428571428572 0 1 3 0 1.1045786867955549 2.8954213132044448 0 1 2.8571428571428572 0 1.1205280434878859 2.780189266486456 0 1 2.8571428571428572 0 1 3 0 0.89542131320410789 2.8954213132042099 0 1 3 0 0.85714285714248095 3 0 0.89542131320410789 2.8954213132042099 0 0.85714285714248095 3 0 0.78018926648583442 2.8794719565116988 0 0.89542131320410789 2.8954213132042099 0 0.71428571428496201 3 0 0.85714285714248095 3 0 0.78018926648583442 2.8794719565116988 0 1 2.8571428571428572 0 0.89542131320410789 2.8954213132042099 0 0.86814175826561968 2.7676280636349269 0 0.78018926648583442 2.8794719565116988 0 0.89542131320410789 2.8954213132042099 0 0.86814175826561968 2.7676280636349269 0 0.71318645322081142 2.7532979010713579 0 0.78018926648583442 2.8794719565116988 0 0.86814175826561968 2.7676280636349269 0 0.71318645322081142 2.7532979010713579 0 0.86814175826561968 2.7676280636349269 0 0.78389141510404725 2.630919560373445 0 0.86814175826561968 2.7676280636349269 0 0.78389141510404725 2.630919560373445 0 0.9044833397938421 2.6408474355902611 0 0.86814175826561968 2.7676280636349269 0 0.9044833397938421 2.6408474355902611 0 1 2.714285714285714 0 0.9044833397938421 2.6408474355902611 0 1 2.714285714285714 0 1 2.5714285714285712 0 1 2.8571428571428572 0 0.86814175826561968 2.7676280636349269 0 1 2.714285714285714 0 1 2.8571428571428572 0 1 2.714285714285714 0 1.1205280434878859 2.780189266486456 0 1 2.714285714285714 0 1.1231862696032711 2.6419363063191699 0 1 2.5714285714285712 0 1 2.714285714285714 0 1.1205280434878859 2.780189266486456 0 1.1231862696032711 2.6419363063191699 0 1.1231862696032711 2.6419363063191699 0 1.1237179148263481 2.4999999999999978 0 1 2.5714285714285712 0 1.1237179148263481 2.4999999999999978 0 1 2.5714285714285712 0 1 2.4285714285714279 0 1 2.5714285714285712 0 0.87194859075748876 2.5024506208783599 0 1 2.4285714285714279 0 0.78389141510404725 2.630919560373445 0 0.9044833397938421 2.6408474355902611 0 0.87194859075748876 2.5024506208783599 0 0.9044833397938421 2.6408474355902611 0 1 2.5714285714285712 0 0.87194859075748876 2.5024506208783599 0 0.714285714283452 2.5051283406940419 0 0.78389141510404725 2.630919560373445 0 0.87194859075748876 2.5024506208783599 0 0.714285714283452 2.5051283406940419 0 0.87194859075748876 2.5024506208783599 0 0.78571428571189661 2.3814104258676352 0 0.87194859075748876 2.5024506208783599 0 0.905136104095428 2.367107595633493 0 0.78571428571189661 2.3814104258676352 0 0.87194859075748876 2.5024506208783599 0 0.905136104095428 2.367107595633493 0 1 2.4285714285714279 0 0.7133104372685124 2.2558131098502412 0 0.78571428571189661 2.3814104258676352 0 0.86801764400775483 2.2373912171357588 0 0.905136104095428 2.367107595633493 0 0.78571428571189661 2.3814104258676352 0 0.86801764400775483 2.2373912171357588 0 0.905136104095428 2.367107595633493 0 1 2.2857142857142851 0 0.86801764400775483 2.2373912171357588 0 0.905136104095428 2.367107595633493 0 1 2.2857142857142851 0 1 2.4285714285714279 0 1.1237179148263481 2.4999999999999978 0 1 2.4285714285714279 0 1.124445554570056 2.3535499438421961 0 1 2.2857142857142851 0 1 2.4285714285714279 0 1.124445554570056 2.3535499438421961 0 1 2.2857142857142851 0 1.124445554570056 2.3535499438421961 0 1.1237179148263481 2.2142857142857149 0 1.124445554570056 2.3535499438421961 0 1.2437589323753271 2.2790339186609172 0 1.1237179148263481 2.2142857142857149 0 1.1237179148263481 2.4999999999999978 0 1.124445554570056 2.3535499438421961 0 1.247435829652694 2.4285714285714248 0 1.124445554570056 2.3535499438421961 0 1.247435829652694 2.4285714285714248 0 1.2437589323753271 2.2790339186609172 0 1.247435829652694 2.4285714285714248 0 1.2437589323753271 2.2790339186609172 0 1.367319104369215 2.3469268258187319 0 1.2437589323753271 2.2790339186609172 0 1.367319104369215 2.3469268258187319 0 1.3682878852476059 2.2035940021081579 0 1.4944588869160489 2.2778135148397252 0 1.367319104369215 2.3469268258187319 0 1.3682878852476059 2.2035940021081579 0 1.49336243329776 2.4259573724460979 0 1.367319104369215 2.3469268258187319 0 1.3698831109599341 2.4977991981870939 0 1.4944588869160489 2.2778135148397252 0 1.49336243329776 2.4259573724460979 0 1.367319104369215 2.3469268258187319 0 1.247435829652694 2.4285714285714248 0 1.367319104369215 2.3469268258187319 0 1.3698831109599341 2.4977991981870939 0 1.49336243329776 2.4259573724460979 0 1.3698831109599341 2.4977991981870939 0 1.4946221303562011 2.5709963746106008 0 1.3698831109599341 2.4977991981870939 0 1.4946221303562011 2.5709963746106008 0 1.370927204302999 2.6424647637622658 0 1.3698831109599341 2.4977991981870939 0 1.2473472221155171 2.5712750986722401 0 1.370927204302999 2.6424647637622658 0 1.247435829652694 2.4285714285714248 0 1.3698831109599341 2.4977991981870939 0 1.2473472221155171 2.5712750986722401 0 1.1237179148263481 2.4999999999999978 0 1.247435829652694 2.4285714285714248 0 1.2473472221155171 2.5712750986722401 0 1.1231862696032711 2.6419363063191699 0 1.1237179148263481 2.4999999999999978 0 1.2473472221155171 2.5712750986722401 0 1.1205280434878859 2.780189266486456 0 1.1231862696032711 2.6419363063191699 0 1.2467630522735731 2.713120429682879 0 1.1231862696032711 2.6419363063191699 0 1.2473472221155171 2.5712750986722401 0 1.2467630522735731 2.713120429682879 0 1.1205280434878859 2.780189266486456 0 1.2467630522735731 2.713120429682879 0 1.2323855807482531 2.8681303673999259 0 1.2467630522735731 2.713120429682879 0 1.3691149969664549 2.7838777025796868 0 1.2323855807482531 2.8681303673999259 0 1.2473472221155171 2.5712750986722401 0 1.2467630522735731 2.713120429682879 0 1.370927204302999 2.6424647637622658 0 1.2467630522735731 2.713120429682879 0 1.370927204302999 2.6424647637622658 0 1.3691149969664549 2.7838777025796868 0 1.370927204302999 2.6424647637622658 0 1.4948716593053959 2.7142857142857029 0 1.3691149969664549 2.7838777025796868 0 1.4946221303562011 2.5709963746106008 0 1.370927204302999 2.6424647637622658 0 1.4948716593053959 2.7142857142857029 0 1.4948716593053959 2.7142857142857029 0 1.3691149969664549 2.7838777025796868 0 1.49754937912118 2.871948590758397 0 1.3691149969664549 2.7838777025796868 0 1.3591560776536049 2.904481510101697 0 1.2323855807482531 2.8681303673999259 0 1.3691149969664549 2.7838777025796868 0 1.3591560776536049 2.904481510101697 0 1.49754937912118 2.871948590758397 0 1.3591560776536049 2.904481510101697 0 1.49754937912118 2.871948590758397 0 1.4285714285714279 3 0 1.49754937912118 2.871948590758397 0 1.4285714285714279 3 0 1.571428571428571 3 0 1.3591560776536049 2.904481510101697 0 1.4285714285714279 3 0 1.2857142857142849 3 0 1.3591560776536049 2.904481510101697 0 1.2857142857142849 3 0 1.2323855807482531 2.8681303673999259 0 1.2857142857142849 3 0 1.2323855807482531 2.8681303673999259 0 1.142857142857143 3 0 1.1045786867955549 2.8954213132044448 0 1.1205280434878859 2.780189266486456 0 1.2323855807482531 2.8681303673999259 0 1.1045786867955549 2.8954213132044448 0 1.2323855807482531 2.8681303673999259 0 1.142857142857143 3 0 1 1.714285714285714 0 1 1.857142857142857 0 0.86801764400775172 1.7626087828642401 0 1 1.857142857142857 0 1.1045786867955549 1.895421313204446 0 1.1286816305548799 1.7669740022979501 0 1 1.714285714285714 0 1.0919758494404179 1.6390607956138989 0 1.1286816305548799 1.7669740022979501 0 1 1.714285714285714 0 1 1.857142857142857 0 1.1286816305548799 1.7669740022979501 0 1.0919758494404179 1.6390607956138989 0 1 1.571428571428571 0 1.1265427876294609 1.501822700692834 0 1 1.4285714285714279 0 1 1.571428571428571 0 1.1265427876294609 1.501822700692834 0 1 1.714285714285714 0 1.0919758494404179 1.6390607956138989 0 1 1.571428571428571 0 1 1.714285714285714 0 1 1.571428571428571 0 0.90513610409542911 1.632892404366491 0 0.90513610409542911 1.632892404366491 0 0.78571428571188839 1.618589574132365 0 0.86801764400775172 1.7626087828642401 0 0.87194859075750586 1.497549379121565 0 1 1.571428571428571 0 0.90513610409542911 1.632892404366491 0 0.87194859075750586 1.497549379121565 0 0.90513610409542911 1.632892404366491 0 0.78571428571188839 1.618589574132365 0 0.87194859075750586 1.497549379121565 0 0.71428571428344279 1.494871659305963 0 0.78571428571188839 1.618589574132365 0 0.71331043726850674 1.744186890149759 0 0.78571428571188839 1.618589574132365 0 0.86801764400775172 1.7626087828642401 0 1 1.714285714285714 0 0.90513610409542911 1.632892404366491 0 0.86801764400775172 1.7626087828642401 0 1 1.857142857142857 0 0.86801764400775172 1.7626087828642401 0 0.89542131320410678 1.895421313204209 0 0.86801764400775172 1.7626087828642401 0 0.78018926648514864 1.8744090508059901 0 0.89542131320410678 1.895421313204209 0 0.71331043726850674 1.744186890149759 0 0.86801764400775172 1.7626087828642401 0 0.78018926648514864 1.8744090508059901 0 0.71428571428496201 2 0 0.78018926648514864 1.8744090508059901 0 0.85714285714248095 2 0 0.71428571428496201 2 0 0.85714285714248095 2 0 0.78018926648515108 2.1255909491940099 0 0.85714285714248095 2 0 0.8954213132041059 2.1045786867957932 0 1 2 0 0.78018926648514864 1.8744090508059901 0 0.85714285714248095 2 0 0.89542131320410678 1.895421313204209 0 0.85714285714248095 2 0 0.89542131320410678 1.895421313204209 0 1 2 0 0.7133104372685124 2.2558131098502412 0 0.78018926648515108 2.1255909491940099 0 0.86801764400775483 2.2373912171357588 0 0.78018926648515108 2.1255909491940099 0 0.8954213132041059 2.1045786867957932 0 0.86801764400775483 2.2373912171357588 0 0.85714285714248095 2 0 0.78018926648515108 2.1255909491940099 0 0.8954213132041059 2.1045786867957932 0 0.8954213132041059 2.1045786867957932 0 0.86801764400775483 2.2373912171357588 0 1 2.1428571428571428 0 1 2.2857142857142851 0 0.86801764400775483 2.2373912171357588 0 1 2.1428571428571428 0 0.8954213132041059 2.1045786867957932 0 1 2.1428571428571428 0 1 2 0 1 2.1428571428571428 0 1.1045786867955549 2.1045786867955538 0 1.1237179148263481 2.2142857142857149 0 1 2.1428571428571428 0 1.1045786867955549 2.1045786867955538 0 1 2 0 1 2.2857142857142851 0 1 2.1428571428571428 0 1.1237179148263481 2.2142857142857149 0 1 1.857142857142857 0 0.89542131320410678 1.895421313204209 0 1 2 0 1.1045786867955549 2.1045786867955538 0 1 2 0 1.142857142857143 2 0 1 2 0 1.1045786867955549 1.895421313204446 0 1.142857142857143 2 0 1 1.857142857142857 0 1 2 0 1.1045786867955549 1.895421313204446 0 1.1045786867955549 1.895421313204446 0 1.142857142857143 2 0 1.2202906086958949 1.8808023822399611 0 1.142857142857143 2 0 1.2857142857142849 2 0 1.2202906086958949 1.8808023822399611 0 1.142857142857143 2 0 1.2857142857142849 2 0 1.23134730558604 2.127275597339279 0 1.2857142857142849 2 0 1.2202906086958949 1.8808023822399611 0 1.3583104310875389 1.876956184304913 0 1.2437589323753271 2.2790339186609172 0 1.1237179148263481 2.2142857142857149 0 1.23134730558604 2.127275597339279 0 1.1045786867955549 2.1045786867955538 0 1.1237179148263481 2.2142857142857149 0 1.23134730558604 2.127275597339279 0 1.1045786867955549 2.1045786867955538 0 1.142857142857143 2 0 1.23134730558604 2.127275597339279 0 1.2857142857142849 2 0 1.23134730558604 2.127275597339279 0 1.357142857142857 2.0883857766009042 0 1.2437589323753271 2.2790339186609172 0 1.23134730558604 2.127275597339279 0 1.3682878852476059 2.2035940021081579 0 1.23134730558604 2.127275597339279 0 1.3682878852476059 2.2035940021081579 0 1.357142857142857 2.0883857766009042 0 1.357142857142857 2.0883857766009042 0 1.4981772993071649 2.1265427876294591 0 1.4285714285714279 2 0 1.3682878852476059 2.2035940021081579 0 1.357142857142857 2.0883857766009042 0 1.4981772993071649 2.1265427876294591 0 1.4944588869160489 2.2778135148397252 0 1.3682878852476059 2.2035940021081579 0 1.4981772993071649 2.1265427876294591 0 1.2857142857142849 2 0 1.3583104310875389 1.876956184304913 0 1.4285714285714279 2 0 1.2857142857142849 2 0 1.357142857142857 2.0883857766009042 0 1.4285714285714279 2 0 1.4981772993071649 2.1265427876294591 0 1.4285714285714279 2 0 1.571428571428571 2 0 1.4285714285714279 2 0 1.4999999999999989 1.876282085173651 0 1.571428571428571 2 0 1.3583104310875389 1.876956184304913 0 1.4285714285714279 2 0 1.4999999999999989 1.876282085173651 0 1.3583104310875389 1.876956184304913 0 1.4999999999999989 1.876282085173651 0 1.4287660242288751 1.752676520202513 0 1.4287660242288751 1.752676520202513 0 1.284542510538256 1.7535733272041241 0 1.35657912408646 1.6297632267705111 0 1.3583104310875389 1.876956184304913 0 1.4287660242288751 1.752676520202513 0 1.284542510538256 1.7535733272041241 0 1.2202906086958949 1.8808023822399611 0 1.3583104310875389 1.876956184304913 0 1.284542510538256 1.7535733272041241 0 1.284542510538256 1.7535733272041241 0 1.1286816305548799 1.7669740022979501 0 1.211834974696774 1.6332002948779361 0 1.2202906086958949 1.8808023822399611 0 1.284542510538256 1.7535733272041241 0 1.1286816305548799 1.7669740022979501 0 1.1045786867955549 1.895421313204446 0 1.2202906086958949 1.8808023822399611 0 1.1286816305548799 1.7669740022979501 0 1.0919758494404179 1.6390607956138989 0 1.1265427876294609 1.501822700692834 0 1.211834974696774 1.6332002948779361 0 1.1265427876294609 1.501822700692834 0 1.211834974696774 1.6332002948779361 0 1.285714285714282 1.505128340694609 0 1.0919758494404179 1.6390607956138989 0 1.1286816305548799 1.7669740022979501 0 1.211834974696774 1.6332002948779361 0 1.284542510538256 1.7535733272041241 0 1.211834974696774 1.6332002948779361 0 1.35657912408646 1.6297632267705111 0 1.211834974696774 1.6332002948779361 0 1.285714285714282 1.505128340694609 0 1.35657912408646 1.6297632267705111 0 1.285714285714282 1.505128340694609 0 1.35657912408646 1.6297632267705111 0 1.42857911129607 1.505132776317748 0 1.4287660242288751 1.752676520202513 0 1.35657912408646 1.6297632267705111 0 1.500037838044501 1.628868101326133 0 1.35657912408646 1.6297632267705111 0 1.42857911129607 1.505132776317748 0 1.500037838044501 1.628868101326133 0 1.42857911129607 1.505132776317748 0 1.5714368297319321 1.505133108628274 0 1.500037838044501 1.628868101326133 0 1.5714368297319321 1.505133108628274 0 1.500037838044501 1.628868101326133 0 1.642868854632821 1.6288530173177931 0 1.500037838044501 1.628868101326133 0 1.642868854632821 1.6288530173177931 0 1.571461004038144 1.7525828953231699 0 1.5714368297319321 1.505133108628274 0 1.642868854632821 1.6288530173177931 0 1.7164690164522749 1.505013992076764 0 1.642868854632821 1.6288530173177931 0 1.7164690164522749 1.505013992076764 0 1.7839870186351829 1.630825559243579 0 1.642868854632821 1.6288530173177931 0 1.7839870186351829 1.630825559243579 0 1.713372235145284 1.7531000633658289 0 1.7839870186351829 1.630825559243579 0 1.868181956188198 1.767586372373096 0 1.904493237859993 1.64083754547551 0 1.7839870186351829 1.630825559243579 0 1.871948590758401 1.50245062087882 0 1.904493237859993 1.64083754547551 0 1.7164690164522749 1.505013992076764 0 1.7839870186351829 1.630825559243579 0 1.871948590758401 1.50245062087882 0 1.868181956188198 1.767586372373096 0 1.713372235145284 1.7531000633658289 0 1.7801892664864549 1.879471956512115 0 1.868181956188198 1.767586372373096 0 1.7801892664864549 1.879471956512115 0 1.8954213132044451 1.8954213132044451 0 1.7839870186351829 1.630825559243579 0 1.868181956188198 1.767586372373096 0 1.713372235145284 1.7531000633658289 0 1.713372235145284 1.7531000633658289 0 1.6417894652306939 1.876906166729128 0 1.7801892664864549 1.879471956512115 0 1.713372235145284 1.7531000633658289 0 1.571461004038144 1.7525828953231699 0 1.6417894652306939 1.876906166729128 0 1.642868854632821 1.6288530173177931 0 1.713372235145284 1.7531000633658289 0 1.571461004038144 1.7525828953231699 0 1.4287660242288751 1.752676520202513 0 1.500037838044501 1.628868101326133 0 1.571461004038144 1.7525828953231699 0 1.4999999999999989 1.876282085173651 0 1.571461004038144 1.7525828953231699 0 1.6417894652306939 1.876906166729128 0 1.4999999999999989 1.876282085173651 0 1.4287660242288751 1.752676520202513 0 1.571461004038144 1.7525828953231699 0 1.4999999999999989 1.876282085173651 0 1.571428571428571 2 0 1.6417894652306939 1.876906166729128 0 1.571428571428571 2 0 1.6428571428571419 2.0966122299857219 0 1.714285714285714 2 0 1.571428571428571 2 0 1.6417894652306939 1.876906166729128 0 1.714285714285714 2 0 1.4944588869160489 2.2778135148397252 0 1.4981772993071649 2.1265427876294591 0 1.618589574131738 2.2142857142857051 0 1.4981772993071649 2.1265427876294591 0 1.571428571428571 2 0 1.6428571428571419 2.0966122299857219 0 1.4981772993071649 2.1265427876294591 0 1.6428571428571419 2.0966122299857219 0 1.618589574131738 2.2142857142857051 0 1.6428571428571419 2.0966122299857219 0 1.618589574131738 2.2142857142857051 0 1.764905672277584 2.1309733946265141 0 1.618589574131738 2.2142857142857051 0 1.764905672277584 2.1309733946265141 0 1.7480830732282899 2.2842008379910128 0 1.6428571428571419 2.0966122299857219 0 1.764905672277584 2.1309733946265141 0 1.714285714285714 2 0 1.764905672277584 2.1309733946265141 0 1.8779600310929021 2.2171362933276071 0 1.895421313204446 2.1045786867955552 0 1.764905672277584 2.1309733946265141 0 1.857142857142857 2 0 1.895421313204446 2.1045786867955552 0 1.764905672277584 2.1309733946265141 0 1.8779600310929021 2.2171362933276071 0 1.7480830732282899 2.2842008379910128 0 1.6417894652306939 1.876906166729128 0 1.7801892664864549 1.879471956512115 0 1.714285714285714 2 0 1.764905672277584 2.1309733946265141 0 1.714285714285714 2 0 1.857142857142857 2 0 1.7801892664864549 1.879471956512115 0 1.714285714285714 2 0 1.857142857142857 2 0 1.7801892664864549 1.879471956512115 0 1.857142857142857 2 0 1.8954213132044451 1.8954213132044451 0 1.8954213132044451 1.8954213132044451 0 2 2 0 2 1.857142857142857 0 1.857142857142857 2 0 1.8954213132044451 1.8954213132044451 0 2 2 0 1.857142857142857 2 0 2 2 0 1.895421313204446 2.1045786867955552 0 2 2 0 2.1045786867955552 1.8954213132044451 0 2 1.857142857142857 0 1.8779600310929021 2.2171362933276071 0 2 2.1428571428571428 0 2 2.2857142857142851 0 2 2 0 1.895421313204446 2.1045786867955552 0 2 2.1428571428571428 0 1.8779600310929021 2.2171362933276071 0 1.895421313204446 2.1045786867955552 0 2 2.1428571428571428 0 2 2 0 2 2.1428571428571428 0 2.1045786867955552 2.1045786867955552 0 2 2.1428571428571428 0 2.1237179148263481 2.2142857142857149 0 2 2.2857142857142851 0 2 2.1428571428571428 0 2.1237179148263481 2.2142857142857149 0 2.1045786867955552 2.1045786867955552 0 2.1237179148263481 2.2142857142857149 0 2.1045786867955552 2.1045786867955552 0 2.2313473055860129 2.1272755973392572 0 2.1045786867955552 2.1045786867955552 0 2.2313473055860129 2.1272755973392572 0 2.1428571428571428 2 0 2.1237179148263481 2.2142857142857149 0 2.2313473055860129 2.1272755973392572 0 2.2437590376264152 2.2790339820013181 0 2 2 0 2.1045786867955552 1.8954213132044451 0 2.1428571428571428 2 0 2.1045786867955552 1.8954213132044451 0 2.1428571428571428 2 0 2.2202906086958931 1.880802382239964 0 2 2 0 2.1045786867955552 2.1045786867955552 0 2.1428571428571428 2 0 2.2313473055860129 2.1272755973392572 0 2.1428571428571428 2 0 2.2857142857142851 2 0 2.1428571428571428 2 0 2.2202906086958931 1.880802382239964 0 2.2857142857142851 2 0 2.2202906086958931 1.880802382239964 0 2.1286816305548801 1.7669740022979501 0 2.2845425105382549 1.7535733272041241 0 2.1045786867955552 1.8954213132044451 0 2.2202906086958931 1.880802382239964 0 2.1286816305548801 1.7669740022979501 0 2.1045786867955552 1.8954213132044451 0 2.1286816305548801 1.7669740022979501 0 2 1.857142857142857 0 2.1286816305548801 1.7669740022979501 0 2.0920210771696688 1.6392662971026759 0 2 1.714285714285714 0 2.1286816305548801 1.7669740022979501 0 2.2118802024260251 1.6334057963667139 0 2.2845425105382549 1.7535733272041241 0 2.2118802024260251 1.6334057963667139 0 2.1268141540049612 1.5030557096254999 0 2.2857142857142878 1.505128340694611 0 2.1268141540049612 1.5030557096254999 0 2.0920210771696688 1.6392662971026759 0 2 1.571428571428571 0 2.2118802024260251 1.6334057963667139 0 2.1268141540049612 1.5030557096254999 0 2.0920210771696688 1.6392662971026759 0 2.1286816305548801 1.7669740022979501 0 2.2118802024260251 1.6334057963667139 0 2.0920210771696688 1.6392662971026759 0 2.0920210771696688 1.6392662971026759 0 2 1.571428571428571 0 2 1.714285714285714 0 2.1268141540049612 1.5030557096254999 0 2 1.571428571428571 0 2 1.4285714285714279 0 1.871948590758401 1.50245062087882 0 2 1.571428571428571 0 1.904493237859993 1.64083754547551 0 1.871948590758401 1.50245062087882 0 2 1.571428571428571 0 2 1.4285714285714279 0 2 1.571428571428571 0 1.904493237859993 1.64083754547551 0 2 1.714285714285714 0 1.868181956188198 1.767586372373096 0 2 1.857142857142857 0 2 1.714285714285714 0 1.868181956188198 1.767586372373096 0 1.904493237859993 1.64083754547551 0 2 1.714285714285714 0 1.868181956188198 1.767586372373096 0 1.8954213132044451 1.8954213132044451 0 2 1.857142857142857 0 2.1286816305548801 1.7669740022979501 0 2 1.857142857142857 0 2 1.714285714285714 0 1.857142857142857 3 0 1.7625829828895341 2.8680117993848531 0 1.895421313204446 2.8954213132044462 0 1.7625829828895341 2.8680117993848531 0 1.8744090508054969 2.7801892664864498 0 1.895421313204446 2.8954213132044462 0 1.857142857142857 3 0 1.7625829828895341 2.8680117993848531 0 1.714285714285714 3 0 1.7625829828895341 2.8680117993848531 0 1.714285714285714 3 0 1.6328872443713489 2.905134935171505 0 1.714285714285714 3 0 1.571428571428571 3 0 1.6328872443713489 2.905134935171505 0 1.49754937912118 2.871948590758397 0 1.571428571428571 3 0 1.6328872443713489 2.905134935171505 0 1.49754937912118 2.871948590758397 0 1.6328872443713489 2.905134935171505 0 1.618589574131748 2.7857142857142771 0 1.7625829828895341 2.8680117993848531 0 1.6328872443713489 2.905134935171505 0 1.618589574131748 2.7857142857142771 0 1.4948716593053959 2.7142857142857029 0 1.49754937912118 2.871948590758397 0 1.618589574131748 2.7857142857142771 0 1.4948716593053959 2.7142857142857029 0 1.618589574131748 2.7857142857142771 0 1.618499131669189 2.6427004919168251 0 1.4946221303562011 2.5709963746106008 0 1.4948716593053959 2.7142857142857029 0 1.618499131669189 2.6427004919168251 0 1.618589574131748 2.7857142857142771 0 1.618499131669189 2.6427004919168251 0 1.744006290327982 2.7132695249030081 0 1.618499131669189 2.6427004919168251 0 1.744006290327982 2.7132695249030081 0 1.7438144826910189 2.571013105300513 0 1.7625829828895341 2.8680117993848531 0 1.618589574131748 2.7857142857142771 0 1.744006290327982 2.7132695249030081 0 1.7625829828895341 2.8680117993848531 0 1.744006290327982 2.7132695249030081 0 1.8744090508054969 2.7801892664864498 0 1.744006290327982 2.7132695249030081 0 1.8744090508054969 2.7801892664864498 0 1.869528722044044 2.6422655888827711 0 1.744006290327982 2.7132695249030081 0 1.869528722044044 2.6422655888827711 0 1.7438144826910189 2.571013105300513 0 1.869528722044044 2.6422655888827711 0 1.8728601884303651 2.4999999999999969 0 1.7438144826910189 2.571013105300513 0 1.8728601884303651 2.4999999999999969 0 1.7438144826910189 2.571013105300513 0 1.7445056250705191 2.4267429915673051 0 1.7438144826910189 2.571013105300513 0 1.6182964483056039 2.499492291176109 0 1.7445056250705191 2.4267429915673051 0 1.618499131669189 2.6427004919168251 0 1.7438144826910189 2.571013105300513 0 1.6182964483056039 2.499492291176109 0 1.4946221303562011 2.5709963746106008 0 1.618499131669189 2.6427004919168251 0 1.6182964483056039 2.499492291176109 0 1.49336243329776 2.4259573724460979 0 1.4946221303562011 2.5709963746106008 0 1.6182964483056039 2.499492291176109 0 1.6182964483056039 2.499492291176109 0 1.619225602145042 2.355202188835702 0 1.7445056250705191 2.4267429915673051 0 1.49336243329776 2.4259573724460979 0 1.6182964483056039 2.499492291176109 0 1.619225602145042 2.355202188835702 0 1.4944588869160489 2.2778135148397252 0 1.49336243329776 2.4259573724460979 0 1.619225602145042 2.355202188835702 0 1.4944588869160489 2.2778135148397252 0 1.618589574131738 2.2142857142857051 0 1.619225602145042 2.355202188835702 0 1.618589574131738 2.2142857142857051 0 1.619225602145042 2.355202188835702 0 1.7480830732282899 2.2842008379910128 0 1.619225602145042 2.355202188835702 0 1.7480830732282899 2.2842008379910128 0 1.7445056250705191 2.4267429915673051 0 1.8728601884303651 2.4999999999999969 0 1.7445056250705191 2.4267429915673051 0 1.8702227561605891 2.3565050932945648 0 1.7480830732282899 2.2842008379910128 0 1.7445056250705191 2.4267429915673051 0 1.8702227561605891 2.3565050932945648 0 1.8779600310929021 2.2171362933276071 0 1.7480830732282899 2.2842008379910128 0 1.8702227561605891 2.3565050932945648 0 1.8779600310929021 2.2171362933276071 0 1.8702227561605891 2.3565050932945648 0 2 2.2857142857142851 0 1.8702227561605891 2.3565050932945648 0 2 2.4285714285714279 0 2 2.2857142857142851 0 1.8728601884303651 2.4999999999999969 0 1.8702227561605891 2.3565050932945648 0 2 2.4285714285714279 0 2 2.4285714285714279 0 2 2.2857142857142851 0 2.1244455545700558 2.3535499438421899 0 2.1237179148263481 2.2142857142857149 0 2 2.2857142857142851 0 2.1244455545700558 2.3535499438421899 0 2.1237179148263481 2.2142857142857149 0 2.2437590376264152 2.2790339820013181 0 2.1244455545700558 2.3535499438421899 0 2.2437590376264152 2.2790339820013181 0 2.2474358296526931 2.4285714285714239 0 2.1244455545700558 2.3535499438421899 0 2.2474358296526931 2.4285714285714239 0 2.1244455545700558 2.3535499438421899 0 2.1237179148263481 2.4999999999999978 0 2 2.4285714285714279 0 2.1244455545700558 2.3535499438421899 0 2.1237179148263481 2.4999999999999978 0 2.2474358296526931 2.4285714285714239 0 2.1237179148263481 2.4999999999999978 0 2.2473472221155188 2.571275098672237 0 2.1237179148263481 2.4999999999999978 0 2.2473472221155188 2.571275098672237 0 2.1231862696032739 2.641936306319169 0 2.1237179148263481 2.4999999999999978 0 2 2.5714285714285712 0 2.1231862696032739 2.641936306319169 0 2 2.4285714285714279 0 2.1237179148263481 2.4999999999999978 0 2 2.5714285714285712 0 1.8728601884303651 2.4999999999999969 0 2 2.4285714285714279 0 2 2.5714285714285712 0 1.869528722044044 2.6422655888827711 0 1.8728601884303651 2.4999999999999969 0 2 2.5714285714285712 0 1.8744090508054969 2.7801892664864498 0 1.869528722044044 2.6422655888827711 0 2 2.714285714285714 0 1.869528722044044 2.6422655888827711 0 2 2.5714285714285712 0 2 2.714285714285714 0 1.8744090508054969 2.7801892664864498 0 2 2.714285714285714 0 2 2.8571428571428572 0 2 2.714285714285714 0 2.1205280434878868 2.7801892664864529 0 2 2.8571428571428572 0 2 2.5714285714285712 0 2 2.714285714285714 0 2.1231862696032739 2.641936306319169 0 2 2.714285714285714 0 2.1231862696032739 2.641936306319169 0 2.1205280434878868 2.7801892664864529 0 2.1231862696032739 2.641936306319169 0 2.2467630522735749 2.713120429682875 0 2.1205280434878868 2.7801892664864529 0 2.2473472221155188 2.571275098672237 0 2.1231862696032739 2.641936306319169 0 2.2467630522735749 2.713120429682875 0 2.2467630522735749 2.713120429682875 0 2.1205280434878868 2.7801892664864529 0 2.232409009442776 2.8681560935612769 0 2.1205280434878868 2.7801892664864529 0 2.1045786867955552 2.8954213132044448 0 2.232409009442776 2.8681560935612769 0 2.1205280434878868 2.7801892664864529 0 2.1045786867955552 2.8954213132044448 0 2 2.8571428571428572 0 2.232409009442776 2.8681560935612769 0 2.1428571428571428 3 0 2.2857142857142851 3 0 2.1045786867955552 2.8954213132044448 0 2.232409009442776 2.8681560935612769 0 2.1428571428571428 3 0 2.1045786867955552 2.8954213132044448 0 2.1428571428571428 3 0 2 3 0 2.1045786867955552 2.8954213132044448 0 2 3 0 2 2.8571428571428572 0 1.8744090508054969 2.7801892664864498 0 2 2.8571428571428572 0 1.895421313204446 2.8954213132044462 0 2 3 0 2 2.8571428571428572 0 1.895421313204446 2.8954213132044462 0 1.857142857142857 3 0 2 3 0 1.895421313204446 2.8954213132044462 0 2.5714285714285712 3 0 2.498533384291155 2.8730290895352302 0 2.6413671075336191 2.906422072834058 0 2.498533384291155 2.8730290895352302 0 2.624345486027623 2.7856888613712472 0 2.6413671075336191 2.906422072834058 0 2.5714285714285712 3 0 2.498533384291155 2.8730290895352302 0 2.4285714285714279 3 0 2.4285714285714279 3 0 2.2857142857142851 3 0 2.3612561171619291 2.9048358126425291 0 2.498533384291155 2.8730290895352302 0 2.4285714285714279 3 0 2.3612561171619291 2.9048358126425291 0 2.232409009442776 2.8681560935612769 0 2.2857142857142851 3 0 2.3612561171619291 2.9048358126425291 0 2.232409009442776 2.8681560935612769 0 2.3612561171619291 2.9048358126425291 0 2.369278997828121 2.784057785709154 0 2.498533384291155 2.8730290895352302 0 2.3612561171619291 2.9048358126425291 0 2.369278997828121 2.784057785709154 0 2.2467630522735749 2.713120429682875 0 2.232409009442776 2.8681560935612769 0 2.369278997828121 2.784057785709154 0 2.2467630522735749 2.713120429682875 0 2.369278997828121 2.784057785709154 0 2.370927204303003 2.64246476376226 0 2.2473472221155188 2.571275098672237 0 2.2467630522735749 2.713120429682875 0 2.370927204303003 2.64246476376226 0 2.369278997828121 2.784057785709154 0 2.370927204303003 2.64246476376226 0 2.495616516317638 2.717626453377767 0 2.370927204303003 2.64246476376226 0 2.495616516317638 2.717626453377767 0 2.4946221303562042 2.5709963746105879 0 2.498533384291155 2.8730290895352302 0 2.369278997828121 2.784057785709154 0 2.495616516317638 2.717626453377767 0 2.498533384291155 2.8730290895352302 0 2.495616516317638 2.717626453377767 0 2.624345486027623 2.7856888613712472 0 2.495616516317638 2.717626453377767 0 2.624345486027623 2.7856888613712472 0 2.6192455835349819 2.6438414003703889 0 2.495616516317638 2.717626453377767 0 2.6192455835349819 2.6438414003703889 0 2.4946221303562042 2.5709963746105879 0 2.6192455835349819 2.6438414003703889 0 2.618402581522377 2.4995561624500251 0 2.4946221303562042 2.5709963746105879 0 2.618402581522377 2.4995561624500251 0 2.4946221303562042 2.5709963746105879 0 2.4933624332977531 2.4259573724460828 0 2.4946221303562042 2.5709963746105879 0 2.3698831109599312 2.497799198187086 0 2.4933624332977531 2.4259573724460828 0 2.370927204303003 2.64246476376226 0 2.4946221303562042 2.5709963746105879 0 2.3698831109599312 2.497799198187086 0 2.2473472221155188 2.571275098672237 0 2.370927204303003 2.64246476376226 0 2.3698831109599312 2.497799198187086 0 2.2474358296526931 2.4285714285714239 0 2.2473472221155188 2.571275098672237 0 2.3698831109599312 2.497799198187086 0 2.3698831109599312 2.497799198187086 0 2.3673193849061538 2.3469269946466551 0 2.4933624332977531 2.4259573724460828 0 2.2474358296526931 2.4285714285714239 0 2.3698831109599312 2.497799198187086 0 2.3673193849061538 2.3469269946466551 0 2.2437590376264152 2.2790339820013181 0 2.2474358296526931 2.4285714285714239 0 2.3673193849061538 2.3469269946466551 0 2.2437590376264152 2.2790339820013181 0 2.3673193849061538 2.3469269946466551 0 2.3682882362172282 2.20359421332267 0 2.3673193849061538 2.3469269946466551 0 2.4944618350609482 2.277815289041762 0 2.3682882362172282 2.20359421332267 0 2.3673193849061538 2.3469269946466551 0 2.4944618350609482 2.277815289041762 0 2.4933624332977531 2.4259573724460828 0 2.618402581522377 2.4995561624500251 0 2.4933624332977531 2.4259573724460828 0 2.619243291014496 2.3552128340480101 0 2.4944618350609482 2.277815289041762 0 2.4933624332977531 2.4259573724460828 0 2.619243291014496 2.3552128340480101 0 2.4944618350609482 2.277815289041762 0 2.619243291014496 2.3552128340480101 0 2.6185895741317191 2.2142857142856851 0 2.619243291014496 2.3552128340480101 0 2.7479931719733139 2.2843081023179281 0 2.6185895741317191 2.2142857142856851 0 2.618402581522377 2.4995561624500251 0 2.619243291014496 2.3552128340480101 0 2.7439826402435501 2.4273237749392429 0 2.619243291014496 2.3552128340480101 0 2.7439826402435501 2.4273237749392429 0 2.7479931719733139 2.2843081023179281 0 2.7439826402435501 2.4273237749392429 0 2.7479931719733139 2.2843081023179281 0 2.8701886445882661 2.3565572506718269 0 2.7479931719733139 2.2843081023179281 0 2.8701886445882661 2.3565572506718269 0 2.8779600310929019 2.217136293327608 0 3 2.2857142857142851 0 2.8701886445882661 2.3565572506718269 0 2.8779600310929019 2.217136293327608 0 3 2.4285714285714279 0 2.8701886445882661 2.3565572506718269 0 2.872982021166786 2.5000325873846538 0 3 2.2857142857142851 0 3 2.4285714285714279 0 2.8701886445882661 2.3565572506718269 0 2.7439826402435501 2.4273237749392429 0 2.8701886445882661 2.3565572506718269 0 2.872982021166786 2.5000325873846538 0 3 2.4285714285714279 0 2.872982021166786 2.5000325873846538 0 3 2.5714285714285712 0 2.872982021166786 2.5000325873846538 0 3 2.5714285714285712 0 2.8702940969356949 2.6423588347380189 0 2.872982021166786 2.5000325873846538 0 2.7446704713759029 2.571237155042541 0 2.8702940969356949 2.6423588347380189 0 2.7439826402435501 2.4273237749392429 0 2.872982021166786 2.5000325873846538 0 2.7446704713759029 2.571237155042541 0 2.618402581522377 2.4995561624500251 0 2.7439826402435501 2.4273237749392429 0 2.7446704713759029 2.571237155042541 0 2.6192455835349819 2.6438414003703889 0 2.618402581522377 2.4995561624500251 0 2.7446704713759029 2.571237155042541 0 2.6192455835349819 2.6438414003703889 0 2.7446704713759029 2.571237155042541 0 2.7461960343957288 2.7138118622537939 0 2.624345486027623 2.7856888613712472 0 2.6192455835349819 2.6438414003703889 0 2.7461960343957288 2.7138118622537939 0 2.624345486027623 2.7856888613712472 0 2.7461960343957288 2.7138118622537939 0 2.764916587633921 2.868832996132892 0 2.7461960343957288 2.7138118622537939 0 2.8756576008474641 2.7804868632666988 0 2.764916587633921 2.868832996132892 0 2.7446704713759029 2.571237155042541 0 2.7461960343957288 2.7138118622537939 0 2.8702940969356949 2.6423588347380189 0 2.7461960343957288 2.7138118622537939 0 2.8702940969356949 2.6423588347380189 0 2.8756576008474641 2.7804868632666988 0 3 2.5714285714285712 0 2.8702940969356949 2.6423588347380189 0 3 2.714285714285714 0 2.8702940969356949 2.6423588347380189 0 3 2.714285714285714 0 2.8756576008474641 2.7804868632666988 0 3 2.714285714285714 0 2.8756576008474641 2.7804868632666988 0 3 2.8571428571428572 0 2.8756576008474641 2.7804868632666988 0 2.895421313204448 2.895421313204448 0 2.764916587633921 2.868832996132892 0 2.8756576008474641 2.7804868632666988 0 2.895421313204448 2.895421313204448 0 3 2.8571428571428572 0 2.895421313204448 2.895421313204448 0 3 3 0 2.8571428571428572 3 0 2.895421313204448 2.895421313204448 0 3 2.8571428571428572 0 3 3 0 2.895421313204448 2.895421313204448 0 2.8571428571428572 3 0 2.764916587633921 2.868832996132892 0 2.8571428571428572 3 0 2.764916587633921 2.868832996132892 0 2.714285714285714 3 0 2.624345486027623 2.7856888613712472 0 2.764916587633921 2.868832996132892 0 2.6413671075336191 2.906422072834058 0 2.5714285714285712 3 0 2.6413671075336191 2.906422072834058 0 2.714285714285714 3 0 2.764916587633921 2.868832996132892 0 2.6413671075336191 2.906422072834058 0 2.714285714285714 3 0 2.5714610040381438 1.7525828953231719 0 2.5000378380445039 1.6288681013261359 0 2.4287660242288749 1.752676520202513 0 2.5714610040381438 1.7525828953231719 0 2.4287660242288749 1.752676520202513 0 2.4999999999999978 1.876282085173651 0 2.5714610040381438 1.7525828953231719 0 2.4999999999999978 1.876282085173651 0 2.6428571428571388 1.876282085173651 0 2.5714610040381438 1.7525828953231719 0 2.5000378380445039 1.6288681013261359 0 2.6427234372420072 1.628936974087531 0 2.5712671761093171 1.5052310581929651 0 2.5000378380445039 1.6288681013261359 0 2.6427234372420072 1.628936974087531 0 2.5712671761093171 1.5052310581929651 0 2.5000378380445039 1.6288681013261359 0 2.4285508356923038 1.5051491012451981 0 2.5000378380445039 1.6288681013261359 0 2.356581949440709 1.6298001978398831 0 2.4287660242288749 1.752676520202513 0 2.5000378380445039 1.6288681013261359 0 2.356581949440709 1.6298001978398831 0 2.4285508356923038 1.5051491012451981 0 2.356581949440709 1.6298001978398831 0 2.4285508356923038 1.5051491012451981 0 2.2857142857142878 1.505128340694611 0 2.2118802024260251 1.6334057963667139 0 2.356581949440709 1.6298001978398831 0 2.2857142857142878 1.505128340694611 0 2.2118802024260251 1.6334057963667139 0 2.356581949440709 1.6298001978398831 0 2.2845425105382549 1.7535733272041241 0 2.356581949440709 1.6298001978398831 0 2.2845425105382549 1.7535733272041241 0 2.4287660242288749 1.752676520202513 0 2.2845425105382549 1.7535733272041241 0 2.4287660242288749 1.752676520202513 0 2.358310431087538 1.876956184304913 0 2.4287660242288749 1.752676520202513 0 2.358310431087538 1.876956184304913 0 2.4999999999999978 1.876282085173651 0 2.2202906086958931 1.880802382239964 0 2.2845425105382549 1.7535733272041241 0 2.358310431087538 1.876956184304913 0 2.2202906086958931 1.880802382239964 0 2.2857142857142851 2 0 2.358310431087538 1.876956184304913 0 2.2857142857142851 2 0 2.4285714285714279 2 0 2.3571428571428541 2.088385776600894 0 2.4285714285714279 2 0 2.358310431087538 1.876956184304913 0 2.4999999999999978 1.876282085173651 0 2.2857142857142851 2 0 2.4285714285714279 2 0 2.358310431087538 1.876956184304913 0 2.2313473055860129 2.1272755973392572 0 2.2437590376264152 2.2790339820013181 0 2.3682882362172282 2.20359421332267 0 2.2313473055860129 2.1272755973392572 0 2.2857142857142851 2 0 2.3571428571428541 2.088385776600894 0 2.2313473055860129 2.1272755973392572 0 2.3571428571428541 2.088385776600894 0 2.3682882362172282 2.20359421332267 0 2.4285714285714279 2 0 2.3571428571428541 2.088385776600894 0 2.4981772993071591 2.1265427876294498 0 2.3571428571428541 2.088385776600894 0 2.3682882362172282 2.20359421332267 0 2.4981772993071591 2.1265427876294498 0 2.4944618350609482 2.277815289041762 0 2.3682882362172282 2.20359421332267 0 2.4981772993071591 2.1265427876294498 0 2.4981772993071591 2.1265427876294498 0 2.5714285714285712 2 0 2.6428571428571428 2.0966122299857148 0 2.4981772993071591 2.1265427876294498 0 2.6185895741317191 2.2142857142856851 0 2.6428571428571428 2.0966122299857148 0 2.4944618350609482 2.277815289041762 0 2.4981772993071591 2.1265427876294498 0 2.6185895741317191 2.2142857142856851 0 2.4285714285714279 2 0 2.4999999999999978 1.876282085173651 0 2.5714285714285712 2 0 2.4285714285714279 2 0 2.4981772993071591 2.1265427876294498 0 2.5714285714285712 2 0 2.4999999999999978 1.876282085173651 0 2.5714285714285712 2 0 2.6428571428571388 1.876282085173651 0 2.5714285714285712 2 0 2.6428571428571388 1.876282085173651 0 2.714285714285714 2 0 2.6428571428571388 1.876282085173651 0 2.714285714285714 2 0 2.7814963681520442 1.882580830411096 0 2.5714285714285712 2 0 2.714285714285714 2 0 2.6428571428571428 2.0966122299857148 0 2.714285714285714 2 0 2.7648928292411559 2.1309887181017841 0 2.8571428571428572 2 0 2.714285714285714 2 0 2.7814963681520442 1.882580830411096 0 2.8571428571428572 2 0 2.7479931719733139 2.2843081023179281 0 2.6185895741317191 2.2142857142856851 0 2.7648928292411559 2.1309887181017841 0 2.714285714285714 2 0 2.6428571428571428 2.0966122299857148 0 2.7648928292411559 2.1309887181017841 0 2.6185895741317191 2.2142857142856851 0 2.6428571428571428 2.0966122299857148 0 2.7648928292411559 2.1309887181017841 0 2.7479931719733139 2.2843081023179281 0 2.7648928292411559 2.1309887181017841 0 2.8779600310929019 2.217136293327608 0 2.7648928292411559 2.1309887181017841 0 2.8954213132044448 2.1045786867955552 0 2.8571428571428572 2 0 2.7648928292411559 2.1309887181017841 0 2.8779600310929019 2.217136293327608 0 2.8954213132044448 2.1045786867955552 0 2.8954213132044448 2.1045786867955552 0 3 2.1428571428571428 0 3 2 0 2.8779600310929019 2.217136293327608 0 2.8954213132044448 2.1045786867955552 0 3 2.1428571428571428 0 3 2.2857142857142851 0 2.8779600310929019 2.217136293327608 0 3 2.1428571428571428 0 2.7814963681520442 1.882580830411096 0 2.895421313204448 1.895421313204448 0 2.8571428571428572 2 0 2.8954213132044448 2.1045786867955552 0 2.8571428571428572 2 0 3 2 0 2.895421313204448 1.895421313204448 0 2.8571428571428572 2 0 3 2 0 2.895421313204448 1.895421313204448 0 3 2 0 3 1.857142857142857 0 2.895421313204448 1.895421313204448 0 3 1.857142857142857 0 2.870614678937029 1.7725963401346581 0 3 1.857142857142857 0 3 1.714285714285714 0 2.870614678937029 1.7725963401346581 0 3 1.714285714285714 0 2.870614678937029 1.7725963401346581 0 2.905423741759479 1.6391988482369699 0 2.7814963681520442 1.882580830411096 0 2.895421313204448 1.895421313204448 0 2.870614678937029 1.7725963401346581 0 2.7814963681520442 1.882580830411096 0 2.870614678937029 1.7725963401346581 0 2.7153465651391322 1.7565952050335309 0 2.870614678937029 1.7725963401346581 0 2.7153465651391322 1.7565952050335309 0 2.786129397280769 1.6349001941088239 0 2.5714610040381438 1.7525828953231719 0 2.7153465651391322 1.7565952050335309 0 2.6427234372420072 1.628936974087531 0 2.5714610040381438 1.7525828953231719 0 2.6428571428571388 1.876282085173651 0 2.7153465651391322 1.7565952050335309 0 2.6428571428571388 1.876282085173651 0 2.7814963681520442 1.882580830411096 0 2.7153465651391322 1.7565952050335309 0 2.5712671761093171 1.5052310581929651 0 2.7167234160060199 1.5059542429009301 0 2.6427234372420072 1.628936974087531 0 2.7167234160060199 1.5059542429009301 0 2.6427234372420072 1.628936974087531 0 2.786129397280769 1.6349001941088239 0 2.7153465651391322 1.7565952050335309 0 2.6427234372420072 1.628936974087531 0 2.786129397280769 1.6349001941088239 0 2.7167234160060199 1.5059542429009301 0 2.786129397280769 1.6349001941088239 0 2.870374632579594 1.502783421227085 0 2.786129397280769 1.6349001941088239 0 2.870374632579594 1.502783421227085 0 2.905423741759479 1.6391988482369699 0 2.870614678937029 1.7725963401346581 0 2.786129397280769 1.6349001941088239 0 2.905423741759479 1.6391988482369699 0 3 1.714285714285714 0 2.905423741759479 1.6391988482369699 0 3 1.571428571428571 0 2.870374632579594 1.502783421227085 0 3 1.571428571428571 0 3 1.4285714285714279 0 2.870374632579594 1.502783421227085 0 2.905423741759479 1.6391988482369699 0 3 1.571428571428571 0 2.870374632579594 1.502783421227085 0 3 1.4285714285714279 0 2.9030656089791811 1.3584705572527791 0 3 1.4285714285714279 0 2.9030656089791811 1.3584705572527791 0 3 1.2857142857142849 0 2.9030656089791811 1.3584705572527791 0 2.868688836155401 1.2355313237831811 0 2.786125463576842 1.383677911645713 0 2.870374632579594 1.502783421227085 0 2.9030656089791811 1.3584705572527791 0 2.786125463576842 1.383677911645713 0 3 1.142857142857143 0 2.868688836155401 1.2355313237831811 0 2.8954213132044462 1.104578686795556 0 3 1.142857142857143 0 3 1.2857142857142849 0 2.868688836155401 1.2355313237831811 0 2.9030656089791811 1.3584705572527791 0 3 1.2857142857142849 0 2.868688836155401 1.2355313237831811 0 2.868688836155401 1.2355313237831811 0 2.7814750862709881 1.1221194143447999 0 2.8954213132044462 1.104578686795556 0 2.868688836155401 1.2355313237831811 0 2.7147343810563518 1.251301267871989 0 2.7814750862709881 1.1221194143447999 0 2.868688836155401 1.2355313237831811 0 2.7147343810563518 1.251301267871989 0 2.786125463576842 1.383677911645713 0 2.7147343810563518 1.251301267871989 0 2.6437203892475911 1.3801958981434661 0 2.5728365947067089 1.2514338603666431 0 2.7147343810563518 1.251301267871989 0 2.642474724251239 1.124923408518995 0 2.7814750862709881 1.1221194143447999 0 2.7147343810563518 1.251301267871989 0 2.5728365947067089 1.2514338603666431 0 2.642474724251239 1.124923408518995 0 2.7167234160060199 1.5059542429009301 0 2.870374632579594 1.502783421227085 0 2.786125463576842 1.383677911645713 0 2.7147343810563518 1.251301267871989 0 2.786125463576842 1.383677911645713 0 2.6437203892475911 1.3801958981434661 0 2.5712671761093171 1.5052310581929651 0 2.7167234160060199 1.5059542429009301 0 2.6437203892475911 1.3801958981434661 0 2.7167234160060199 1.5059542429009301 0 2.786125463576842 1.383677911645713 0 2.6437203892475911 1.3801958981434661 0 2.5712671761093171 1.5052310581929651 0 2.6437203892475911 1.3801958981434661 0 2.5003077208249551 1.3799672261976821 0 2.5712671761093171 1.5052310581929651 0 2.4285508356923038 1.5051491012451981 0 2.5003077208249551 1.3799672261976821 0 2.6437203892475911 1.3801958981434661 0 2.5003077208249551 1.3799672261976821 0 2.5728365947067089 1.2514338603666431 0 2.5728365947067089 1.2514338603666431 0 2.5000879977590982 1.1246859085305361 0 2.642474724251239 1.124923408518995 0 2.5728365947067089 1.2514338603666431 0 2.428721567443501 1.25649282465861 0 2.5000879977590982 1.1246859085305361 0 2.5003077208249551 1.3799672261976821 0 2.5728365947067089 1.2514338603666431 0 2.428721567443501 1.25649282465861 0 2.428721567443501 1.25649282465861 0 2.2866681211738742 1.256066682441406 0 2.3571907118004951 1.3811733526815959 0 2.428721567443501 1.25649282465861 0 2.3577140298740269 1.130492812416215 0 2.2866681211738742 1.256066682441406 0 2.428721567443501 1.25649282465861 0 2.3577140298740269 1.130492812416215 0 2.5000879977590982 1.1246859085305361 0 2.3577140298740269 1.130492812416215 0 2.2866681211738742 1.256066682441406 0 2.2198107335135431 1.1256563841824909 0 2.2866681211738742 1.256066682441406 0 2.3571907118004951 1.3811733526815959 0 2.214285714285714 1.3814104258682629 0 2.2857142857142878 1.505128340694611 0 2.3571907118004951 1.3811733526815959 0 2.214285714285714 1.3814104258682629 0 2.4285508356923038 1.5051491012451981 0 2.2857142857142878 1.505128340694611 0 2.3571907118004951 1.3811733526815959 0 2.4285508356923038 1.5051491012451981 0 2.5003077208249551 1.3799672261976821 0 2.3571907118004951 1.3811733526815959 0 2.5003077208249551 1.3799672261976821 0 2.428721567443501 1.25649282465861 0 2.3571907118004951 1.3811733526815959 0 2.3591525644097571 0.90448333979383388 0 2.3690804396265648 0.78389141510404292 0 2.497549379121645 0.87194859075748421 0 2.3591525644097571 0.90448333979383388 0 2.4285714285714279 1 0 2.497549379121645 0.87194859075748421 0 2.3690804396265648 0.78389141510404292 0 2.2467020989286488 0.71318645322081209 0 2.2323719363650798 0.86814175826561746 0 2.3591525644097571 0.90448333979383388 0 2.3690804396265648 0.78389141510404292 0 2.2323719363650798 0.86814175826561746 0 2.3591525644097571 0.90448333979383388 0 2.2857142857142851 1 0 2.2323719363650798 0.86814175826561746 0 2.3577140298740269 1.130492812416215 0 2.2857142857142851 1 0 2.2198107335135431 1.1256563841824909 0 2.3577140298740269 1.130492812416215 0 2.2857142857142851 1 0 2.4285714285714279 1 0 2.3577140298740269 1.130492812416215 0 2.4285714285714279 1 0 2.5000879977590982 1.1246859085305361 0 2.3591525644097571 0.90448333979383388 0 2.2857142857142851 1 0 2.4285714285714279 1 0 2.4285714285714279 1 0 2.5714285714285712 1 0 2.497549379121645 0.87194859075748421 0 2.4285714285714279 1 0 2.5000879977590982 1.1246859085305361 0 2.5714285714285712 1 0 2.5000879977590982 1.1246859085305361 0 2.5714285714285712 1 0 2.642474724251239 1.124923408518995 0 2.497549379121645 0.87194859075748421 0 2.618589574132375 0.78571428571188628 0 2.6328924043665101 0.90513610409542433 0 2.5714285714285712 1 0 2.497549379121645 0.87194859075748421 0 2.6328924043665101 0.90513610409542433 0 2.3690804396265648 0.78389141510404292 0 2.497549379121645 0.87194859075748421 0 2.4948716593059621 0.71428571428343679 0 2.497549379121645 0.87194859075748421 0 2.618589574132375 0.78571428571188628 0 2.4948716593059621 0.71428571428343679 0 2.618589574132375 0.78571428571188628 0 2.7626087828642452 0.86801764400775083 0 2.744186890149765 0.71331043726850263 0 2.618589574132375 0.78571428571188628 0 2.6328924043665101 0.90513610409542433 0 2.7626087828642452 0.86801764400775083 0 2.6328924043665101 0.90513610409542433 0 2.7626087828642452 0.86801764400775083 0 2.714285714285714 1 0 2.7626087828642452 0.86801764400775083 0 2.874409050805995 0.78018926648514575 0 2.744186890149765 0.71331043726850263 0 2.5714285714285712 1 0 2.642474724251239 1.124923408518995 0 2.714285714285714 1 0 2.642474724251239 1.124923408518995 0 2.714285714285714 1 0 2.7814750862709881 1.1221194143447999 0 2.5714285714285712 1 0 2.6328924043665101 0.90513610409542433 0 2.714285714285714 1 0 2.7626087828642452 0.86801764400775083 0 2.714285714285714 1 0 2.8571428571428572 1 0 2.714285714285714 1 0 2.7814750862709881 1.1221194143447999 0 2.8571428571428572 1 0 2.7814750862709881 1.1221194143447999 0 2.8954213132044462 1.104578686795556 0 2.8571428571428572 1 0 2.8571428571428572 1 0 3 1 0 2.8954213132042099 0.895421313204108 0 2.8954213132044462 1.104578686795556 0 2.8571428571428572 1 0 3 1 0 3 1.142857142857143 0 2.8954213132044462 1.104578686795556 0 3 1 0 2.7626087828642452 0.86801764400775083 0 2.874409050805995 0.78018926648514575 0 2.8954213132042099 0.895421313204108 0 2.7626087828642452 0.86801764400775083 0 2.8571428571428572 1 0 2.8954213132042099 0.895421313204108 0 3 1 0 2.8954213132042099 0.895421313204108 0 3 0.85714285714248095 0 2.874409050805995 0.78018926648514575 0 2.8954213132042099 0.895421313204108 0 3 0.85714285714248095 0 2.874409050805995 0.78018926648514575 0 3 0.85714285714248095 0 3 0.71428571428496201 0 2.874409050805995 0.78018926648514575 0 3 0.71428571428496201 0 2.869717803296802 0.64222861727828529 0 2.874409050805995 0.78018926648514575 0 2.869717803296802 0.64222861727828529 0 2.744186890149765 0.71331043726850263 0 2.869717803296802 0.64222861727828529 0 2.8740599863056251 0.49927531931007729 0 2.7446576805156062 0.57126208756431218 0 2.869717803296802 0.64222861727828529 0 3 0.57142857142744297 0 2.8740599863056251 0.49927531931007729 0 3 0.71428571428496201 0 2.869717803296802 0.64222861727828529 0 3 0.57142857142744297 0 3 0.57142857142744297 0 3 0.42857142857032021 0 2.8740599863056251 0.49927531931007729 0 3 0.42857142857032021 0 2.8740599863056251 0.49927531931007729 0 2.875698076300893 0.35415439180319042 0 2.8740599863056251 0.49927531931007729 0 2.752171560420507 0.42857142856854402 0 2.875698076300893 0.35415439180319042 0 2.8740599863056251 0.49927531931007729 0 2.752171560420507 0.42857142856854402 0 2.7446576805156062 0.57126208756431218 0 2.752171560420507 0.42857142856854402 0 2.6201734641978431 0.35661818314175592 0 2.6198899606611801 0.49948637524748601 0 2.752171560420507 0.42857142856854402 0 2.7446576805156062 0.57126208756431218 0 2.6198899606611801 0.49948637524748601 0 2.7446576805156062 0.57126208756431218 0 2.6187395327714542 0.64269698385323981 0 2.6198899606611801 0.49948637524748601 0 2.744186890149765 0.71331043726850263 0 2.7446576805156062 0.57126208756431218 0 2.6187395327714542 0.64269698385323981 0 2.618589574132375 0.78571428571188628 0 2.744186890149765 0.71331043726850263 0 2.6187395327714542 0.64269698385323981 0 2.869717803296802 0.64222861727828529 0 2.744186890149765 0.71331043726850263 0 2.7446576805156062 0.57126208756431218 0 2.8571428571428572 0 0 2.895979424212793 0.1040205757871324 0 2.7710799917251951 0.12873413335171449 0 2.8571428571428572 0 0 3 0 0 2.895979424212793 0.1040205757871324 0 3 0 0 3 0.14285714285686729 0 2.895979424212793 0.1040205757871324 0 3 0.14285714285686729 0 2.895979424212793 0.1040205757871324 0 2.8828959187492971 0.2161673249238161 0 2.895979424212793 0.1040205757871324 0 2.8828959187492971 0.2161673249238161 0 2.7710799917251951 0.12873413335171449 0 3 0.14285714285686729 0 2.8828959187492971 0.2161673249238161 0 3 0.28571428571359381 0 2.8828959187492971 0.2161673249238161 0 3 0.28571428571359381 0 2.875698076300893 0.35415439180319042 0 3 0.42857142857032021 0 3 0.28571428571359381 0 2.875698076300893 0.35415439180319042 0 2.8828959187492971 0.2161673249238161 0 2.875698076300893 0.35415439180319042 0 2.7546180202569031 0.2815234200303981 0 2.752171560420507 0.42857142856854402 0 2.875698076300893 0.35415439180319042 0 2.7546180202569031 0.2815234200303981 0 2.752171560420507 0.42857142856854402 0 2.7546180202569031 0.2815234200303981 0 2.6201734641978431 0.35661818314175592 0 2.7546180202569031 0.2815234200303981 0 2.6281978226174312 0.2120446233090226 0 2.6201734641978431 0.35661818314175592 0 2.7546180202569031 0.2815234200303981 0 2.6281978226174312 0.2120446233090226 0 2.7710799917251951 0.12873413335171449 0 2.8828959187492971 0.2161673249238161 0 2.7546180202569031 0.2815234200303981 0 2.7710799917251951 0.12873413335171449 0 2.6281978226174312 0.2120446233090226 0 2.7710799917251951 0.12873413335171449 0 2.6366338798727531 0.093464308857798578 0 2.7710799917251951 0.12873413335171449 0 2.714285714285714 0 0 2.6366338798727531 0.093464308857798578 0 2.714285714285714 0 0 2.6366338798727531 0.093464308857798578 0 2.5714285714285712 0 0 2.8571428571428572 0 0 2.7710799917251951 0.12873413335171449 0 2.714285714285714 0 0 2.5714285714285712 0 0 2.4981772993068532 0.12654278762825569 0 2.4285714285714279 0 0 2.6366338798727531 0.093464308857798578 0 2.5714285714285712 0 0 2.4981772993068532 0.12654278762825569 0 2.6281978226174312 0.2120446233090226 0 2.6366338798727531 0.093464308857798578 0 2.4981772993068532 0.12654278762825569 0 2.4981772993068532 0.12654278762825569 0 2.4945915486603032 0.27804612003647211 0 2.3627973047133688 0.2085843731968646 0 2.6281978226174312 0.2120446233090226 0 2.4981772993068532 0.12654278762825569 0 2.4945915486603032 0.27804612003647211 0 2.6281978226174312 0.2120446233090226 0 2.4945915486603032 0.27804612003647211 0 2.6201734641978431 0.35661818314175592 0 2.4945915486603032 0.27804612003647211 0 2.6201734641978431 0.35661818314175592 0 2.4932105417127999 0.42593700932760742 0 2.4945915486603032 0.27804612003647211 0 2.3659139839396568 0.35404229584496971 0 2.4932105417127999 0.42593700932760742 0 2.3659139839396568 0.35404229584496971 0 2.2429924675022042 0.42772459507389499 0 2.239801768054869 0.28318912013054048 0 2.3659139839396568 0.35404229584496971 0 2.3627973047133688 0.2085843731968646 0 2.239801768054869 0.28318912013054048 0 2.3627973047133688 0.2085843731968646 0 2.2304843984160652 0.12817051038898469 0 2.239801768054869 0.28318912013054048 0 2.4945915486603032 0.27804612003647211 0 2.3659139839396568 0.35404229584496971 0 2.3627973047133688 0.2085843731968646 0 2.4981772993068532 0.12654278762825569 0 2.3627973047133688 0.2085843731968646 0 2.3571428571428541 0.088385776599927482 0 2.3627973047133688 0.2085843731968646 0 2.3571428571428541 0.088385776599927482 0 2.2304843984160652 0.12817051038898469 0 2.2857142857142851 0 0 2.3571428571428541 0.088385776599927482 0 2.2304843984160652 0.12817051038898469 0 2.2857142857142851 0 0 2.3571428571428541 0.088385776599927482 0 2.4285714285714279 0 0 2.4981772993068532 0.12654278762825569 0 2.3571428571428541 0.088385776599927482 0 2.4285714285714279 0 0 2.4944710246124502 0.57098124216803003 0 2.4948716593059621 0.71428571428343679 0 2.3707808136040498 0.64248101537579039 0 2.618589574132375 0.78571428571188628 0 2.4948716593059621 0.71428571428343679 0 2.6187395327714542 0.64269698385323981 0 2.4944710246124502 0.57098124216803003 0 2.6187395327714542 0.64269698385323981 0 2.6198899606611801 0.49948637524748601 0 2.4944710246124502 0.57098124216803003 0 2.4948716593059621 0.71428571428343679 0 2.6187395327714542 0.64269698385323981 0 2.4944710246124502 0.57098124216803003 0 2.6198899606611801 0.49948637524748601 0 2.4932105417127999 0.42593700932760742 0 2.6201734641978431 0.35661818314175592 0 2.6198899606611801 0.49948637524748601 0 2.4932105417127999 0.42593700932760742 0 2.4944710246124502 0.57098124216803003 0 2.4932105417127999 0.42593700932760742 0 2.3691228671960749 0.4976921519274754 0 2.3659139839396568 0.35404229584496971 0 2.4932105417127999 0.42593700932760742 0 2.3691228671960749 0.4976921519274754 0 2.3659139839396568 0.35404229584496971 0 2.3691228671960749 0.4976921519274754 0 2.2429924675022042 0.42772459507389499 0 2.3691228671960749 0.4976921519274754 0 2.247229121683481 0.57147965461975947 0 2.2429924675022042 0.42772459507389499 0 2.3707808136040498 0.64248101537579039 0 2.2467020989286488 0.71318645322081209 0 2.247229121683481 0.57147965461975947 0 2.3691228671960749 0.4976921519274754 0 2.3707808136040498 0.64248101537579039 0 2.247229121683481 0.57147965461975947 0 2.4944710246124502 0.57098124216803003 0 2.3691228671960749 0.4976921519274754 0 2.3707808136040498 0.64248101537579039 0 2.3690804396265648 0.78389141510404292 0 2.4948716593059621 0.71428571428343679 0 2.3707808136040498 0.64248101537579039 0 2.3690804396265648 0.78389141510404292 0 2.3707808136040498 0.64248101537579039 0 2.2467020989286488 0.71318645322081209 0 2.2467020989286488 0.71318645322081209 0 2.1230850406616231 0.64211163998861709 0 2.120528043488306 0.78018926648583753 0 2.1230850406616231 0.64211163998861709 0 2 0.71428571428496201 0 2.120528043488306 0.78018926648583753 0 2.1230850406616231 0.64211163998861709 0 2.1231105411754938 0.50105200202130029 0 2 0.57142857142744297 0 2.2467020989286488 0.71318645322081209 0 2.1230850406616231 0.64211163998861709 0 2.247229121683481 0.57147965461975947 0 2.1230850406616231 0.64211163998861709 0 2.247229121683481 0.57147965461975947 0 2.1231105411754938 0.50105200202130029 0 2.247229121683481 0.57147965461975947 0 2.2429924675022042 0.42772459507389499 0 2.1231105411754938 0.50105200202130029 0 2.2429924675022042 0.42772459507389499 0 2.1231105411754938 0.50105200202130029 0 2.1204089262615469 0.35723491808527857 0 2.1231105411754938 0.50105200202130029 0 2 0.42857142857032021 0 2.1204089262615469 0.35723491808527857 0 2.1231105411754938 0.50105200202130029 0 2 0.42857142857032021 0 2 0.57142857142744297 0 2 0.42857142857032021 0 1.8756980763008939 0.35415439180319208 0 1.8740599863056251 0.49927531931007818 0 2 0.42857142857032021 0 2 0.57142857142744297 0 1.8740599863056251 0.49927531931007818 0 2 0.71428571428496201 0 2 0.57142857142744297 0 1.8697178032968009 0.64222861727828584 0 2 0.57142857142744297 0 1.8697178032968009 0.64222861727828584 0 1.8740599863056251 0.49927531931007818 0 2 0.71428571428496201 0 1.8697178032968009 0.64222861727828584 0 1.8744090508059921 0.78018926648514741 0 2.1230850406616231 0.64211163998861709 0 2 0.71428571428496201 0 2 0.57142857142744297 0 2.1428571428571428 0 0 2.1045786867956009 0.1045786867955279 0 2 0 0 2.1428571428571428 0 0 2.2304843984160652 0.12817051038898469 0 2.1045786867956009 0.1045786867955279 0 2.2857142857142851 0 0 2.1428571428571428 0 0 2.2304843984160652 0.12817051038898469 0 2.1045786867956009 0.1045786867955279 0 2.1165487808367178 0.2171580770020218 0 2 0.14285714285686729 0 2.2304843984160652 0.12817051038898469 0 2.1045786867956009 0.1045786867955279 0 2.1165487808367178 0.2171580770020218 0 2.2304843984160652 0.12817051038898469 0 2.1165487808367178 0.2171580770020218 0 2.239801768054869 0.28318912013054048 0 2.2429924675022042 0.42772459507389499 0 2.239801768054869 0.28318912013054048 0 2.1204089262615469 0.35723491808527857 0 2.1165487808367178 0.2171580770020218 0 2.239801768054869 0.28318912013054048 0 2.1204089262615469 0.35723491808527857 0 2.1165487808367178 0.2171580770020218 0 2.1204089262615469 0.35723491808527857 0 2 0.28571428571359381 0 2 0.42857142857032021 0 2.1204089262615469 0.35723491808527857 0 2 0.28571428571359381 0 2 0.28571428571359381 0 1.8756980763008939 0.35415439180319208 0 1.882895918749298 0.21616732492381721 0 2 0.42857142857032021 0 2 0.28571428571359381 0 1.8756980763008939 0.35415439180319208 0 2 0.28571428571359381 0 1.882895918749298 0.21616732492381721 0 2 0.14285714285686729 0 2.1165487808367178 0.2171580770020218 0 2 0.28571428571359381 0 2 0.14285714285686729 0 1.882895918749298 0.21616732492381721 0 2 0.14285714285686729 0 1.8959794242127921 0.10402057578713381 0 2 0.14285714285686729 0 1.8959794242127921 0.10402057578713381 0 2 0 0 1.8959794242127921 0.10402057578713381 0 2 0 0 1.857142857142857 0 0 2.1045786867956009 0.1045786867955279 0 2 0.14285714285686729 0 2 0 0 1.714285714285714 0 0 1.857142857142857 0 0 1.7710799917251949 0.1287341333517158 0 1.714285714285714 0 0 1.7710799917251949 0.1287341333517158 0 1.6366338798727531 0.093464308857799619 0 1.8959794242127921 0.10402057578713381 0 1.857142857142857 0 0 1.7710799917251949 0.1287341333517158 0 1.882895918749298 0.21616732492381721 0 1.8959794242127921 0.10402057578713381 0 1.7710799917251949 0.1287341333517158 0 1.7710799917251949 0.1287341333517158 0 1.7546180202569051 0.28152342003040048 0 1.6281978226174321 0.21204462330902529 0 1.882895918749298 0.21616732492381721 0 1.7710799917251949 0.1287341333517158 0 1.7546180202569051 0.28152342003040048 0 1.8756980763008939 0.35415439180319208 0 1.882895918749298 0.21616732492381721 0 1.7546180202569051 0.28152342003040048 0 1.8756980763008939 0.35415439180319208 0 1.7546180202569051 0.28152342003040048 0 1.752171560420509 0.42857142856854807 0 1.7546180202569051 0.28152342003040048 0 1.620173464197844 0.35661818314175942 0 1.752171560420509 0.42857142856854807 0 1.7546180202569051 0.28152342003040048 0 1.620173464197844 0.35661818314175942 0 1.6281978226174321 0.21204462330902529 0 1.493210541712801 0.42593700932760992 0 1.4945915486603041 0.278046120036475 0 1.620173464197844 0.35661818314175942 0 1.4945915486603041 0.278046120036475 0 1.620173464197844 0.35661818314175942 0 1.6281978226174321 0.21204462330902529 0 1.4945915486603041 0.278046120036475 0 1.4981772993068541 0.1265427876282571 0 1.6281978226174321 0.21204462330902529 0 1.7710799917251949 0.1287341333517158 0 1.6281978226174321 0.21204462330902529 0 1.6366338798727531 0.093464308857799619 0 1.4981772993068541 0.1265427876282571 0 1.6281978226174321 0.21204462330902529 0 1.6366338798727531 0.093464308857799619 0 1.4981772993068541 0.1265427876282571 0 1.571428571428571 0 0 1.6366338798727531 0.093464308857799619 0 1.714285714285714 0 0 1.571428571428571 0 0 1.6366338798727531 0.093464308857799619 0 1.744657680515606 0.57126208756431485 0 1.744186890149763 0.71331043726850496 0 1.618739532771454 0.64269698385324336 0 1.744186890149763 0.71331043726850496 0 1.8697178032968009 0.64222861727828584 0 1.8744090508059921 0.78018926648514741 0 1.744657680515606 0.57126208756431485 0 1.744186890149763 0.71331043726850496 0 1.8697178032968009 0.64222861727828584 0 1.744657680515606 0.57126208756431485 0 1.8697178032968009 0.64222861727828584 0 1.8740599863056251 0.49927531931007818 0 1.744657680515606 0.57126208756431485 0 1.8740599863056251 0.49927531931007818 0 1.752171560420509 0.42857142856854807 0 1.8756980763008939 0.35415439180319208 0 1.8740599863056251 0.49927531931007818 0 1.752171560420509 0.42857142856854807 0 1.744657680515606 0.57126208756431485 0 1.752171560420509 0.42857142856854807 0 1.619889960661181 0.49948637524748901 0 1.620173464197844 0.35661818314175942 0 1.752171560420509 0.42857142856854807 0 1.619889960661181 0.49948637524748901 0 1.493210541712801 0.42593700932760992 0 1.620173464197844 0.35661818314175942 0 1.619889960661181 0.49948637524748901 0 1.49447102461245 0.57098124216803303 0 1.493210541712801 0.42593700932760992 0 1.619889960661181 0.49948637524748901 0 1.49447102461245 0.57098124216803303 0 1.619889960661181 0.49948637524748901 0 1.618739532771454 0.64269698385324336 0 1.49447102461245 0.57098124216803303 0 1.4948716593059641 0.71428571428344279 0 1.618739532771454 0.64269698385324336 0 1.744657680515606 0.57126208756431485 0 1.619889960661181 0.49948637524748901 0 1.618739532771454 0.64269698385324336 0 1.744186890149763 0.71331043726850496 0 1.618739532771454 0.64269698385324336 0 1.618589574132369 0.78571428571188717 0 1.4948716593059641 0.71428571428344279 0 1.618739532771454 0.64269698385324336 0 1.618589574132369 0.78571428571188717 0 1.4948716593059641 0.71428571428344279 0 1.497549379121643 0.87194859075748521 0 1.618589574132369 0.78571428571188717 0 1.497549379121643 0.87194859075748521 0 1.6328924043665081 0.90513610409542489 0 1.618589574132369 0.78571428571188717 0 1.497549379121643 0.87194859075748521 0 1.6328924043665081 0.90513610409542489 0 1.571428571428571 1 0 1.6328924043665081 0.90513610409542489 0 1.618589574132369 0.78571428571188717 0 1.7626087828642421 0.86801764400775128 0 1.744186890149763 0.71331043726850496 0 1.618589574132369 0.78571428571188717 0 1.7626087828642421 0.86801764400775128 0 1.6328924043665081 0.90513610409542489 0 1.7626087828642421 0.86801764400775128 0 1.714285714285714 1 0 1.7626087828642421 0.86801764400775128 0 1.857142857142857 1 0 1.895421313204209 0.89542131320410689 0 1.7626087828642421 0.86801764400775128 0 1.8744090508059921 0.78018926648514741 0 1.895421313204209 0.89542131320410689 0 1.744186890149763 0.71331043726850496 0 1.7626087828642421 0.86801764400775128 0 1.8744090508059921 0.78018926648514741 0 1.857142857142857 1 0 1.780189266486452 1.1255909491945031 0 1.895421313204446 1.104578686795554 0 1.857142857142857 1 0 1.714285714285714 1 0 1.780189266486452 1.1255909491945031 0 1.7626087828642421 0.86801764400775128 0 1.857142857142857 1 0 1.714285714285714 1 0 1.714285714285714 1 0 1.6422816724703979 1.1304620449693199 0 1.780189266486452 1.1255909491945031 0 1.714285714285714 1 0 1.571428571428571 1 0 1.6422816724703979 1.1304620449693199 0 1.6328924043665081 0.90513610409542489 0 1.714285714285714 1 0 1.571428571428571 1 0 1.499999999999998 1.1271398115696349 0 1.571428571428571 1 0 1.6422816724703979 1.1304620449693199 0 1.499999999999998 1.1271398115696349 0 1.571152652531757 1.256105255633247 0 1.6422816724703979 1.1304620449693199 0 1.571152652531757 1.256105255633247 0 1.6428585192410321 1.381411220523866 0 1.713319120662252 1.255965391424904 0 1.571152652531757 1.256105255633247 0 1.6422816724703979 1.1304620449693199 0 1.713319120662252 1.255965391424904 0 1.4999999999999949 1.3814104258682569 0 1.42857911129607 1.505132776317748 0 1.5714368297319321 1.505133108628274 0 1.4999999999999949 1.3814104258682569 0 1.5714368297319321 1.505133108628274 0 1.6428585192410321 1.381411220523866 0 1.4999999999999949 1.3814104258682569 0 1.571152652531757 1.256105255633247 0 1.6428585192410321 1.381411220523866 0 1.5714368297319321 1.505133108628274 0 1.7164690164522749 1.505013992076764 0 1.6428585192410321 1.381411220523866 0 1.7164690164522749 1.505013992076764 0 1.6428585192410321 1.381411220523866 0 1.785714285714282 1.38141042586825 0 1.6428585192410321 1.381411220523866 0 1.785714285714282 1.38141042586825 0 1.713319120662252 1.255965391424904 0 1.785714285714282 1.38141042586825 0 1.8680188844933181 1.2374129716465909 0 1.9051363521932001 1.367111946535875 0 1.871948590758401 1.50245062087882 0 1.785714285714282 1.38141042586825 0 1.9051363521932001 1.367111946535875 0 1.7164690164522749 1.505013992076764 0 1.871948590758401 1.50245062087882 0 1.785714285714282 1.38141042586825 0 1.6422816724703979 1.1304620449693199 0 1.780189266486452 1.1255909491945031 0 1.713319120662252 1.255965391424904 0 1.785714285714282 1.38141042586825 0 1.713319120662252 1.255965391424904 0 1.8680188844933181 1.2374129716465909 0 1.780189266486452 1.1255909491945031 0 1.713319120662252 1.255965391424904 0 1.8680188844933181 1.2374129716465909 0 1.780189266486452 1.1255909491945031 0 1.8680188844933181 1.2374129716465909 0 1.895421313204446 1.104578686795554 0 1.8680188844933181 1.2374129716465909 0 2 1.142857142857143 0 1.895421313204446 1.104578686795554 0 1.8680188844933181 1.2374129716465909 0 2 1.2857142857142849 0 1.9051363521932001 1.367111946535875 0 1.8680188844933181 1.2374129716465909 0 2 1.2857142857142849 0 2 1.142857142857143 0 2 1.2857142857142849 0 2 1.142857142857143 0 2.1319792929118409 1.2374367896472369 0 1.871948590758401 1.50245062087882 0 1.9051363521932001 1.367111946535875 0 2 1.4285714285714279 0 2 1.2857142857142849 0 1.9051363521932001 1.367111946535875 0 2 1.4285714285714279 0 2 1.2857142857142849 0 2 1.4285714285714279 0 2.0946158322405029 1.367237727885342 0 2.1268141540049612 1.5030557096254999 0 2.0946158322405029 1.367237727885342 0 2.214285714285714 1.3814104258682629 0 2.1268141540049612 1.5030557096254999 0 2 1.4285714285714279 0 2.0946158322405029 1.367237727885342 0 2.0946158322405029 1.367237727885342 0 2.214285714285714 1.3814104258682629 0 2.1319792929118409 1.2374367896472369 0 2.1268141540049612 1.5030557096254999 0 2.2857142857142878 1.505128340694611 0 2.214285714285714 1.3814104258682629 0 2 1.142857142857143 0 2.1319792929118409 1.2374367896472369 0 2.1045786867955538 1.1045786867955549 0 2.1319792929118409 1.2374367896472369 0 2.2198107335135431 1.1256563841824909 0 2.1045786867955538 1.1045786867955549 0 2 1.2857142857142849 0 2.0946158322405029 1.367237727885342 0 2.1319792929118409 1.2374367896472369 0 2.2866681211738742 1.256066682441406 0 2.214285714285714 1.3814104258682629 0 2.1319792929118409 1.2374367896472369 0 2.2866681211738742 1.256066682441406 0 2.1319792929118409 1.2374367896472369 0 2.2198107335135431 1.1256563841824909 0 2.2857142857142851 1 0 2.2198107335135431 1.1256563841824909 0 2.1428571428571428 1 0 2.1045786867955538 1.1045786867955549 0 2.1428571428571428 1 0 2 1 0 2.2198107335135431 1.1256563841824909 0 2.1045786867955538 1.1045786867955549 0 2.1428571428571428 1 0 2.1428571428571428 1 0 2.1045786867957932 0.89542131320410567 0 2 1 0 2.2857142857142851 1 0 2.1428571428571428 1 0 2.2323719363650798 0.86814175826561746 0 2.1428571428571428 1 0 2.2323719363650798 0.86814175826561746 0 2.1045786867957932 0.89542131320410567 0 2.2467020989286488 0.71318645322081209 0 2.2323719363650798 0.86814175826561746 0 2.120528043488306 0.78018926648583753 0 2.2323719363650798 0.86814175826561746 0 2.120528043488306 0.78018926648583753 0 2.1045786867957932 0.89542131320410567 0 2.120528043488306 0.78018926648583753 0 2.1045786867957932 0.89542131320410567 0 2 0.85714285714248095 0 2.1045786867957932 0.89542131320410567 0 2 0.85714285714248095 0 2 1 0 2 0.71428571428496201 0 2.120528043488306 0.78018926648583753 0 2 0.85714285714248095 0 2 0.71428571428496201 0 1.8744090508059921 0.78018926648514741 0 2 0.85714285714248095 0 1.8744090508059921 0.78018926648514741 0 2 0.85714285714248095 0 1.895421313204209 0.89542131320410689 0 2 0.85714285714248095 0 1.895421313204209 0.89542131320410689 0 2 1 0 1.857142857142857 1 0 1.895421313204209 0.89542131320410689 0 2 1 0 2 1.142857142857143 0 1.895421313204446 1.104578686795554 0 2 1 0 1.857142857142857 1 0 1.895421313204446 1.104578686795554 0 2 1 0 2 1.142857142857143 0 2.1045786867955538 1.1045786867955549 0 2 1 0 
</DataArray>
</Points>
<Cells>
<DataArray type="UInt32" Name="connectivity" format="ascii">
0 1 2 3 4 5 6 7 8 9 10 11 12 13 14 15 16 17 18 19 20 21 22 23 24 25 26 27 28 29 30 31 32 33 34 35 36 37 38 39 40 41 42 43 44 45 46 47 48 49 50 51 52 53 54 55 56 57 58 59 60 61 62 63 64 65 66 67 68 69 70 71 72 73 74 75 76 77 78 79 80 81 82 83 84 85 86 87 88 89 90 91 92 93 94 95 96 97 98 99 100 101 102 103 104 105 106 107 108 109 110 111 112 113 114 115 116 117 118 119 120 121 122 123 124 125 126 127 128 129 130 131 132 133 134 135 136 137 138 139 140 141 142 143 144 145 146 147 148 149 150 151 152 153 154 155 156 157 158 159 160 161 162 163 164 165 166 167 168 169 170 171 172 173 174 175 176 177 178 179 180 181 182 183 184 185 186 187 188 189 190 191 192 193 194 195 196 197 198 199 200 201 202 203 204 205 206 207 208 209 210 211 212 213 214 215 216 217 218 219 220 221 222 223 224 225 226 227 228 229 230 231 232 233 234 235 236 237 238 239 240 241 242 243 244 245 246 247 248 249 250 251 252 253 254 255 256 257 258 259 260 261 262 263 264 265 266 267 268 269 270 271 272 273 274 275 276 277 278 279 280 281 282 283 284 285 286 287 288 289 290 291 292 293 294 295 296 297 298 299 300 301 302 303 304 305 306 307 308 309 310 311 312 313 314 315 316 317 318 319 320 321 322 323 324 325 326 327 328 329 330 331 332 333 334 335 336 337 338 339 340 341 342 343 344 345 346 347 348 349 350 351 352 353 354 355 356 357 358 359 360 361 362 363 364 365 366 367 368 369 370 371 372 373 374 375 376 377 378 379 380 381 382 383 384 385 386 387 388 389 390 391 392 393 394 395 396 397 398 399 400 401 402 403 404 405 406 407 408 409 410 411 412 413 414 415 416 417 418 419 420 421 422 423 424 425 426 427 428 429 430 431 432 433 434 435 436 437 438 439 440 441 442 443 444 445 446 447 448 449 450 451 452 453 454 455 456 457 458 459 460 461 462 463 464 465 466 467 468 469 470 471 472 473 474 475 476 477 478 479 480 481 482 483 484 485 486 487 488 489 490 491 492 493 494 495 496 497 498 499 500 501 502 503 504 505 506 507 508 509 510 511 512 513 514 515 516 517 518 519 520 521 522 523 524 525 526 527 528 529 530 531 532 533 534 535 536 537 538 539 540 541 542 543 544 545 546 547 548 549 550 551 552 553 554 555 556 557 558 559 560 561 562 563 564 565 566 567 568 569 570 571 572 573 574 575 576 577 578 579 580 581 582 583 584 585 586 587 588 589 590 591 592 593 594 595 596 597 598 599 600 601 602 603 604 605 606 607 608 609 610 611 612 613 614 615 616 617 618 619 620 621 622 623 624 625 626 627 628 629 630 631 632 633 634 635 636 637 638 639 640 641 642 643 644 645 646 647 648 649 650 651 652 653 654 655 656 657 658 659 660 661 662 663 664 665 666 667 668 669 670 671 672 673 674 675 676 677 678 679 680 681 682 683 684 685 686 687 688 689 690 691 692 693 694 695 696 697 698 699 700 701 702 703 704 705 706 707 708 709 710 711 712 713 714 715 716 717 718 719 720 721 722 723 724 725 726 727 728 729 730 731 732 733 734 735 736 737 738 739 740 741 742 743 744 745 746 747 748 749 750 751 752 753 754 755 756 757 758 759 760 761 762 763 764 765 766 767 768 769 770 771 772 773 774 775 776 777 778 779 780 781 782 783 784 785 786 787 788 789 790 791 792 793 794 795 796 797 798 799 800 801 802 803 804 805 806 807 808 809 810 811 812 813 814 815 816 817 818 819 820 821 822 823 824 825 826 827 828 829 830 831 832 833 834 835 836 837 838 839 840 841 842 843 844 845 846 847 848 849 850 851 852 853 854 855 856 857 858 859 860 861 862 863 864 865 866 867 868 869 870 871 872 873 874 875 876 877 878 879 880 881 882 883 884 885 886 887 888 889 890 891 892 893 894 895 896 897 898 899 900 901 902 903 904 905 906 907 908 909 910 911 912 913 914 915 916 917 918 919 920 921 922 923 924 925 926 927 928 929 930 931 932 933 934 935 936 937 938 939 940 941 942 943 944 945 946 947 948 949 950 951 952 953 954 955 956 957 958 959 960 961 962 963 964 965 966 967 968 969 970 971 972 973 974 975 976 977 978 979 980 981 982 983 984 985 986 987 988 989 990 991 992 993 994 995 996 997 998 999 1000 1001 1002 1003 1004 1005 1006 1007 1008 1009 1010 1011 1012 1013 1014 1015 1016 1017 1018 1019 1020 1021 1022 1023 1024 1025 1026 1027 1028 1029 1030 1031 1032 1033 1034 1035 1036 1037 1038 1039 1040 1041 1042 1043 1044 1045 1046 1047 1048 1049 1050 1051 1052 1053 1054 1055 1056 1057 1058 1059 1060 1061 1062 1063 1064 1065 1066 1067 1068 1069 1070 1071 1072 1073 1074 1075 1076 1077 1078 1079 1080 1081 1082 1083 1084 1085 1086 1087 1088 1089 1090 1091 1092 1093 1094 1095 1096 1097 1098 1099 1100 1101 1102 1103 1104 1105 1106 1107 1108 1109 1110 1111 1112 1113 1114 1115 1116 1117 1118 1119 1120 1121 1122 1123 1124 1125 1126 1127 1128 1129 1130 1131 1132 1133 1134 1135 1136 1137 1138 1139 1140 1141 1142 1143 1144 1145 1146 1147 1148 1149 1150 1151 1152 1153 1154 1155 1156 1157 1158 1159 1160 1161 1162 1163 1164 1165 1166 1167 1168 1169 1170 1171 1172 1173 1174 1175 1176 1177 1178 1179 1180 1181 1182 1183 1184 1185 1186 1187 1188 1189 1190 1191 1192 1193 1194 1195 1196 1197 1198 1199 1200 1201 1202 1203 1204 1205 1206 1207 1208 1209 1210 1211 1212 1213 1214 1215 1216 1217 1218 1219 1220 1221 1222 1223 1224 1225 1226 1227 1228 1229 1230 1231 1232 1233 1234 1235 1236 1237 1238 1239 1240 1241 1242 1243 1244 1245 1246 1247 1248 1249 1250 1251 1252 1253 1254 1255 1256 1257 1258 1259 1260 1261 1262 1263 1264 1265 1266 1267 1268 1269 1270 1271 1272 1273 1274 1275 1276 1277 1278 1279 1280 1281 1282 1283 1284 1285 1286 1287 1288 1289 1290 1291 1292 1293 1294 1295 1296 1297 1298 1299 1300 1301 1302 1303 1304 1305 1306 1307 1308 1309 1310 1311 1312 1313 1314 1315 1316 1317 1318 1319 1320 1321 1322 1323 1324 1325 1326 1327 1328 1329 1330 1331 1332 1333 1334 1335 1336 1337 1338 1339 1340 1341 1342 1343 1344 1345 1346 1347 1348 1349 1350 1351 1352 1353 1354 1355 1356 1357 1358 1359 1360 1361 1362 1363 1364 1365 1366 1367 1368 1369 1370 1371 1372 1373 1374 1375 1376 1377 1378 1379 1380 1381 1382 1383 1384 1385 1386 1387 1388 1389 1390 1391 1392 1393 1394 1395 1396 1397 1398 1399 1400 1401 1402 1403 1404 1405 1406 1407 1408 1409 1410 1411 1412 1413 1414 1415 1416 1417 1418 1419 1420 1421 1422 1423 1424 1425 1426 1427 1428 1429 1430 1431 1432 1433 1434 1435 1436 1437 1438 1439 1440 1441 1442 1443 1444 1445 1446 1447 1448 1449 1450 1451 1452 1453 1454 1455 1456 1457 1458 1459 1460 1461 1462 1463 1464 1465 1466 1467 1468 1469 1470 1471 1472 1473 1474 1475 1476 1477 1478 1479 1480 1481 1482 1483 1484 1485 1486 1487 1488 1489 1490 1491 1492 1493 1494 1495 1496 1497 1498 1499 1500 1501 1502 1503 1504 1505 1506 1507 1508 1509 1510 1511 1512 1513 1514 1515 1516 1517 1518 1519 1520 1521 1522 1523 1524 1525 1526 1527 1528 1529 1530 1531 1532 1533 1534 1535 1536 1537 1538 1539 1540 1541 1542 1543 1544 1545 1546 1547 1548 1549 1550 1551 1552 1553 1554 1555 1556 1557 1558 1559 1560 1561 1562 1563 1564 1565 1566 1567 1568 1569 1570 1571 1572 1573 1574 1575 1576 1577 1578 1579 1580 1581 1582 1583 1584 1585 1586 1587 1588 1589 1590 1591 1592 1593 1594 1595 1596 1597 1598 1599 1600 1601 1602 1603 1604 1605 1606 1607 1608 1609 1610 1611 1612 1613 1614 1615 1616 1617 1618 1619 1620 1621 1622 1623 1624 1625 1626 1627 1628 1629 1630 1631 1632 1633 1634 1635 1636 1637 1638 1639 1640 1641 1642 1643 1644 1645 1646 1647 1648 1649 1650 1651 1652 1653 1654 1655 1656 1657 1658 1659 1660 1661 1662 1663 1664 1665 1666 1667 1668 1669 1670 1671 1672 1673 1674 1675 1676 1677 1678 1679 1680 1681 1682 1683 1684 1685 1686 1687 1688 1689 1690 1691 1692 1693 1694 1695 1696 1697 1698 1699 1700 1701 1702 1703 1704 1705 1706 1707 1708 1709 1710 1711 1712 1713 1714 1715 1716 1717 1718 1719 1720 1721 1722 1723 1724 1725 1726 1727 1728 1729 1730 1731 1732 1733 1734 1735 1736 1737 1738 1739 1740 1741 1742 1743 1744 1745 1746 1747 1748 1749 1750 1751 1752 1753 1754 1755 1756 1757 1758 1759 1760 1761 1762 1763 1764 1765 1766 1767 1768 1769 1770 1771 1772 1773 1774 1775 1776 1777 1778 1779 1780 1781 1782 1783 1784 1785 1786 1787 1788 1789 1790 1791 1792 1793 1794 1795 1796 1797 1798 1799 1800 1801 1802 1803 1804 1805 1806 1807 1808 1809 1810 1811 1812 1813 1814 1815 1816 1817 1818 1819 1820 1821 1822 1823 1824 1825 1826 1827 1828 1829 1830 1831 1832 1833 1834 1835 1836 1837 1838 1839 1840 1841 1842 1843 1844 1845 1846 1847 1848 1849 1850 1851 1852 1853 1854 1855 1856 1857 1858 1859 1860 1861 1862 1863 1864 1865 1866 1867 1868 1869 1870 1871 1872 1873 1874 1875 1876 1877 1878 1879 1880 1881 1882 1883 1884 1885 1886 1887 1888 1889 1890 1891 1892 1893 1894 1895 1896 1897 1898 1899 1900 1901 1902 1903 1904 1905 1906 1907 1908 1909 1910 1911 1912 1913 1914 1915 1916 1917 1918 1919 1920 1921 1922 1923 1924 1925 1926 1927 1928 1929 1930 1931 1932 1933 1934 1935 1936 1937 1938 1939 1940 1941 1942 1943 1944 1945 1946 1947 1948 1949 1950 1951 1952 1953 1954 1955 1956 1957 1958 1959 1960 1961 1962 1963 1964 1965 1966 1967 1968 1969 1970 1971 1972 1973 1974 1975 1976 1977 1978 1979 1980 1981 1982 1983 1984 1985 1986 1987 1988 1989 1990 1991 1992 1993 1994 1995 1996 1997 1998 1999 2000 2001 2002 2003 2004 2005 2006 2007 2008 2009 2010 2011 2012 2013 2014 2015 2016 2017 2018 2019 2020 2021 2022 2023 2024 2025 2026 2027 2028 2029 2030 2031 2032 2033 2034 2035 2036 2037 2038 2039 2040 2041 2042 2043 2044 2045 2046 2047 2048 2049 2050 2051 2052 2053 2054 2055 2056 2057 2058 2059 2060 2061 2062 2063 2064 2065 2066 2067 2068 2069 2070 2071 2072 2073 2074 2075 2076 2077 2078 2079 2080 2081 2082 2083 2084 2085 2086 2087 2088 2089 2090 2091 2092 2093 2094 2095 2096 2097 2098 2099 2100 2101 2102 2103 2104 2105 2106 2107 2108 2109 2110 2111 2112 2113 2114 2115 2116 2117 2118 2119 2120 2121 2122 2123 2124 2125 2126 2127 2128 2129 2130 2131 2132 2133 2134 2135 2136 2137 2138 2139 2140 2141 2142 2143 2144 2145 2146 2147 2148 2149 2150 2151 2152 2153 2154 2155 2156 2157 2158 2159 2160 2161 2162 2163 2164 2165 2166 2167 2168 2169 2170 2171 2172 2173 2174 2175 2176 2177 2178 2179 2180 2181 2182 2183 2184 2185 2186 2187 2188 2189 2190 2191 2192 2193 2194 2195 2196 2197 2198 2199 2200 2201 2202 2203 2204 2205 2206 2207 2208 2209 2210 2211 2212 2213 2214 2215 2216 2217 2218 2219 2220 2221 2222 2223 2224 2225 2226 2227 2228 2229 2230 2231 2232 2233 2234 2235 2236 2237 2238 2239 2240 2241 2242 2243 2244 2245 2246 2247 2248 2249 2250 2251 2252 2253 2254 2255 2256 2257 2258 2259 2260 2261 2262 2263 2264 2265 2266 2267 2268 2269 2270 2271 2272 2273 2274 2275 2276 2277 2278 2279 2280 2281 2282 2283 2284 2285 2286 2287 2288 2289 2290 2291 2292 2293 2294 2295 2296 2297 2298 2299 2300 2301 2302 2303 2304 2305 2306 2307 2308 2309 2310 2311 2312 2313 2314 2315 2316 2317 2318 2319 2320 2321 2322 2323 2324 2325 2326 2327 2328 2329 2330 2331 2332 2333 2334 2335 2336 2337 2338 2339 2340 2341 2342 2343 2344 2345 2346 2347 2348 2349 2350 2351 2352 2353 2354 2355 2356 2357 2358 2359 2360 2361 2362 2363 2364 2365 2366 2367 2368 2369 2370 2371 2372 2373 2374 2375 2376 2377 2378 2379 2380 2381 2382 2383 2384 2385 2386 2387 2388 2389 2390 2391 2392 2393 2394 2395 2396 2397 2398 2399 2400 2401 2402 2403 2404 2405 2406 2407 2408 2409 2410 2411 2412 2413 2414 2415 2416 2417 2418 2419 2420 2421 2422 2423 2424 2425 2426 2427 2428 2429 2430 2431 2432 2433 2434 2435 2436 2437 2438 2439 2440 2441 2442 2443 2444 2445 2446 2447 2448 2449 2450 2451 2452 2453 2454 2455 2456 2457 2458 2459 2460 2461 2462 2463 2464 2465 2466 2467 2468 2469 2470 2471 2472 2473 2474 2475 2476 2477 2478 2479 2480 2481 2482 2483 2484 2485 2486 2487 2488 2489 2490 2491 2492 2493 2494 2495 2496 2497 2498 2499 2500 2501 2502 2503 2504 2505 2506 2507 2508 2509 2510 2511 2512 2513 2514 2515 2516 2517 2518 2519 2520 2521 2522 2523 2524 2525 2526 2527 2528 2529 2530 2531 2532 2533 2534 2535 2536 2537 2538 2539 2540 2541 2542 2543 2544 2545 2546 2547 2548 2549 2550 2551 2552 2553 2554 2555 2556 2557 2558 2559 2560 2561 2562 2563 2564 2565 2566 2567 2568 2569 2570 2571 2572 2573 2574 2575 2576 2577 2578 2579 2580 2581 2582 2583 2584 2585 2586 2587 2588 2589 2590 2591 2592 2593 2594 2595 2596 2597 2598 2599 2600 2601 2602 2603 2604 2605 2606 2607 2608 2609 2610 2611 2612 2613 2614 2615 2616 2617 2618 2619 2620 2621 2622 2623 2624 2625 2626 2627 2628 2629 2630 2631 2632 2633 2634 2635 2636 2637 2638 2639 2640 2641 2642 2643 2644 2645 2646 2647 2648 2649 2650 2651 2652 2653 2654 2655 2656 2657 2658 2659 2660 2661 2662 2663 2664 2665 2666 2667 2668 2669 2670 2671 2672 2673 2674 2675 2676 2677 2678 2679 2680 2681 2682 2683 2684 2685 2686 2687 2688 2689 2690 2691 2692 2693 2694 2695 2696 2697 2698 2699 2700 2701 2702 2703 2704 2705 2706 2707 2708 2709 2710 2711 2712 2713 2714 2715 2716 2717 2718 2719 2720 2721 2722 2723 2724 2725 2726 2727 2728 2729 2730 2731 2732 2733 2734 2735 2736 2737 2738 2739 2740 2741 2742 2743 2744 2745 2746 2747 2748 2749 2750 2751 2752 2753 2754 2755 2756 2757 2758 2759 2760 2761 2762 2763 2764 2765 2766 2767 2768 2769 2770 2771 2772 2773 2774 2775 2776 2777 2778 2779 2780 2781 2782 2783 2784 2785 2786 2787 2788 2789 2790 2791 2792 2793 2794 2795 2796 2797 2798 2799 2800 2801 2802 2803 2804 2805 2806 2807 2808 2809 2810 2811 2812 2813 2814 2815 2816 2817 2818 2819 2820 2821 2822 2823 2824 2825 2826 2827 2828 2829 2830 2831 2832 2833 2834 2835 2836 2837 2838 2839 2840 2841 2842 2843 2844 2845 2846 2847 2848 2849 2850 2851 2852 2853 2854 2855 2856 2857 2858 2859 2860 2861 2862 2863 2864 2865 2866 2867 2868 2869 2870 2871 2872 2873 2874 2875 2876 2877 2878 2879 2880 2881 2882 2883 2884 2885 2886 2887 2888 2889 2890 2891 2892 2893 2894 2895 2896 2897 2898 2899 2900 2901 2902 2903 2904 2905 2906 2907 2908 2909 2910 2911 2912 2913 2914 2915 2916 2917 2918 2919 2920 2921 2922 2923 2924 2925 2926 2927 2928 2929 2930 2931 2932 2933 2934 2935 2936 2937 2938 2939 2940 2941 2942 2943 2944 2945 2946 2947 2948 2949 2950 2951 2952 2953 2954 2955 2956 2957 2958 2959 2960 2961 2962 2963 2964 2965 2966 2967 2968 2969 2970 2971 2972 2973 2974 2975 2976 2977 2978 2979 2980 2981 2982 2983 2984 2985 2986 2987 2988 2989 2990 2991 2992 2993 2994 2995 2996 2997 2998 2999 3000 3001 3002 3003 3004 3005 3006 3007 3008 3009 3010 3011 3012 3013 3014 3015 3016 3017 3018 3019 3020 3021 3022 3023 3024 3025 3026 3027 3028 3029 3030 3031 3032 3033 3034 3035 3036 3037 3038 3039 3040 3041 3042 3043 3044 3045 3046 3047 3048 3049 3050 3051 3052 3053 3054 3055 3056 3057 3058 3059 3060 3061 3062 3063 3064 3065 3066 3067 3068 3069 3070 3071 3072 3073 3074 3075 3076 3077 3078 3079 3080 3081 3082 3083 3084 3085 3086 3087 3088 3089 3090 3091 3092 3093 3094 3095 3096 3097 3098 3099 3100 3101 3102 3103 3104 3105 3106 3107 3108 3109 3110 3111 3112 3113 3114 3115 3116 3117 3118 3119 3120 3121 3122 3123 3124 3125 3126 3127 3128 3129 3130 3131 3132 3133 3134 3135 3136 3137 3138 3139 3140 3141 3142 3143 3144 3145 3146 3147 3148 3149 3150 3151 3152 3153 3154 3155 3156 3157 3158 3159 3160 3161 3162 3163 3164 3165 3166 3167 3168 3169 3170 3171 3172 3173 3174 3175 3176 3177 3178 3179 3180 3181 3182 3183 3184 3185 
</DataArray>
<DataArray type="UInt32" Name="offsets" format="ascii">
3 6 9 12 15 18 21 24 27 30 33 36 39 42 45 48 51 54 57 60 63 66 69 72 75 78 81 84 87 90 93 96 99 102 105 108 111 114 117 120 123 126 129 132 135 138 141 144 147 150 153 156 159 162 165 168 171 174 177 180 183 186 189 192 195 198 201 204 207 210 213 216 219 222 225 228 231 234 237 240 243 246 249 252 255 258 261 264 267 270 273 276 279 282 285 288 291 294 297 300 303 306 309 312 315 318 321 324 327 330 333 336 339 342 345 348 351 354 357 360 363 366 369 372 375 378 381 384 387 390 393 396 399 402 405 408 411 414 417 420 423 426 429 432 435 438 441 444 447 450 453 456 459 462 465 468 471 474 477 480 483 486 489 492 495 498 501 504 507 510 513 516 519 522 525 528 531 534 537 540 543 546 549 552 555 558 561 564 567 570 573 576 579 582 585 588 591 594 597 600 603 606 609 612 615 618 621 624 627 630 633 636 639 642 645 648 651 654 657 660 663 666 669 672 675 678 681 684 687 690 693 696 699 702 705 708 711 714 717 720 723 726 729 732 735 738 741 744 747 750 753 756 759 762 765 768 771 774 777 780 783 786 789 792 795 798 801 804 807 810 813 816 819 822 825 828 831 834 837 840 843 846 849 852 855 858 861 864 867 870 873 876 879 882 885 888 891 894 897 900 903 906 909 912 915 918 921 924 927 930 933 936 939 942 945 948 951 954 957 960 963 966 969 972 975 978 981 984 987 990 993 996 999 1002 1005 1008 1011 1014 1017 1020 1023 1026 1029 1032 1035 1038 1041 1044 1047 1050 1053 1056 1059 1062 1065 1068 1071 1074 1077 1080 1083 1086 1089 1092 1095 1098 1101 1104 1107 1110 1113 1116 1119 1122 1125 1128 1131 1134 1137 1140 1143 1146 1149 1152 1155 1158 1161 1164 1167 1170 1173 1176 1179 1182 1185 1188 1191 1194 1197 1200 1203 1206 1209 1212 1215 1218 1221 1224 1227 1230 1233 1236 1239 1242 1245 1248 1251 1254 1257 1260 1263 1266 1269 1272 1275 1278 1281 1284 1287 1290 1293 1296 1299 1302 1305 1308 1311 1314 1317 1320 1323 1326 1329 1332 1335 1338 1341 1344 1347 1350 1353 1356 1359 1362 1365 1368 1371 1374 1377 1380 1383 1386 1389 1392 1395 1398 1401 1404 1407 1410 1413 1416 1419 1422 1425 1428 1431 1434 1437 1440 1443 1446 1449 1452 1455 1458 1461 1464 1467 1470 1473 1476 1479 1482 1485 1488 1491 1494 1497 1500 1503 1506 1509 1512 1515 1518 1521 1524 1527 1530 1533 1536 1539 1542 1545 1548 1551 1554 1557 1560 1563 1566 1569 1572 1575 1578 1581 1584 1587 1590 1593 1596 1599 1602 1605 1608 1611 1614 1617 1620 1623 1626 1629 1632 1635 1638 1641 1644 1647 1650 1653 1656 1659 1662 1665 1668 1671 1674 1677 1680 1683 1686 1689 1692 1695 1698 1701 1704 1707 1710 1713 1716 1719 1722 1725 1728 1731 1734 1737 1740 1743 1746 1749 1752 1755 1758 1761 1764 1767 1770 1773 1776 1779 1782 1785 1788 1791 1794 1797 1800 1803 1806 1809 1812 1815 1818 1821 1824 1827 1830 1833 1836 1839 1842 1845 1848 1851 1854 1857 1860 1863 1866 1869 1872 1875 1878 1881 1884 1887 1890 1893 1896 1899 1902 1905 1908 1911 1914 1917 1920 1923 1926 1929 1932 1935 1938 1941 1944 1947 1950 1953 1956 1959 1962 1965 1968 1971 1974 1977 1980 1983 1986 1989 1992 1995 1998 2001 2004 2007 2010 2013 2016 2019 2022 2025 2028 2031 2034 2037 2040 2043 2046 2049 2052 2055 2058 2061 2064 2067 2070 2073 2076 2079 2082 2085 2088 2091 2094 2097 2100 2103 2106 2109 2112 2115 2118 2121 2124 2127 2130 2133 2136 2139 2142 2145 2148 2151 2154 2157 2160 2163 2166 2169 2172 2175 2178 2181 2184 2187 2190 2193 2196 2199 2202 2205 2208 2211 2214 2217 2220 2223 2226 2229 2232 2235 2238 2241 2244 2247 2250 2253 2256 2259 2262 2265 2268 2271 2274 2277 2280 2283 2286 2289 2292 2295 2298 2301 2304 2307 2310 2313 2316 2319 2322 2325 2328 2331 2334 2337 2340 2343 2346 2349 2352 2355 2358 2361 2364 2367 2370 2373 2376 2379 2382 2385 2388 2391 2394 2397 2400 2403 2406 2409 2412 2415 2418 2421 2424 2427 2430 2433 2436 2439 2442 2445 2448 2451 2454 2457 2460 2463 2466 2469 2472 2475 2478 2481 2484 2487 2490 2493 2496 2499 2502 2505 2508 2511 2514 2517 2520 2523 2526 2529 2532 2535 2538 2541 2544 2547 2550 2553 2556 2559 2562 2565 2568 2571 2574 2577 2580 2583 2586 2589 2592 2595 2598 2601 2604 2607 2610 2613 2616 2619 2622 2625 2628 2631 2634 2637 2640 2643 2646 2649 2652 2655 2658 2661 2664 2667 2670 2673 2676 2679 2682 2685 2688 2691 2694 2697 2700 2703 2706 2709 2712 2715 2718 2721 2724 2727 2730 2733 2736 2739 2742 2745 2748 2751 2754 2757 2760 2763 2766 2769 2772 2775 2778 2781 2784 2787 2790 2793 2796 2799 2802 2805 2808 2811 2814 2817 2820 2823 2826 2829 2832 2835 2838 2841 2844 2847 2850 2853 2856 2859 2862 2865 2868 2871 2874 2877 2880 2883 2886 2889 2892 2895 2898 2901 2904 2907 2910 2913 2916 2919 2922 2925 2928 2931 2934 2937 2940 2943 2946 2949 2952 2955 2958 2961 2964 2967 2970 2973 2976 2979 2982 2985 2988 2991 2994 2997 3000 3003 3006 3009 3012 3015 3018 3021 3024 3027 3030 3033 3036 3039 3042 3045 3048 3051 3054 3057 3060 3063 3066 3069 3072 3075 3078 3081 3084 3087 3090 3093 3096 3099 3102 3105 3108 3111 3114 3117 3120 3123 3126 3129 3132 3135 3138 3141 3144 3147 3150 3153 3156 3159 3162 3165 3168 3171 3174 3177 3180 3183 3186 
</DataArray>
<DataArray type="UInt32" Name="types" format="ascii">
5 5 5 5 5 5 5 5 5 5 5 5 5 5 5 5 5 5 5 5 5 5 5 5 5 5 5 5 5 5 5 5 5 5 5 5 5 5 5 5 5 5 5 5 5 5 5 5 5 5 5 5 5 5 5 5 5 5 5 5 5 5 5 5 5 5 5 5 5 5 5 5 5 5 5 5 5 5 5 5 5 5 5 5 5 5 5 5 5 5 5 5 5 5 5 5 5 5 5 5 5 5 5 5 5 5 5 5 5 5 5 5 5 5 5 5 5 5 5 5 5 5 5 5 5 5 5 5 5 5 5 5 5 5 5 5 5 5 5 5 5 5 5 5 5 5 5 5 5 5 5 5 5 5 5 5 5 5 5 5 5 5 5 5 5 5 5 5 5 5 5 5 5 5 5 5 5 5 5 5 5 5 5 5 5 5 5 5 5 5 5 5 5 5 5 5 5 5 5 5 5 5 5 5 5 5 5 5 5 5 5 5 5 5 5 5 5 5 5 5 5 5 5 5 5 5 5 5 5 5 5 5 5 5 5 5 5 5 5 5 5 5 5 5 5 5 5 5 5 5 5 5 5 5 5 5 5 5 5 5 5 5 5 5 5 5 5 5 5 5 5 5 5 5 5 5 5 5 5 5 5 5 5 5 5 5 5 5 5 5 5 5 5 5 5 5 5 5 5 5 5 5 5 5 5 5 5 5 5 5 5 5 5 5 5 5 5 5 5 5 5 5 5 5 5 5 5 5 5 5 5 5 5 5 5 5 5 5 5 5 5 5 5 5 5 5 5 5 5 5 5 5 5 5 5 5 5 5 5 5 5 5 5 5 5 5 5 5 5 5 5 5 5 5 5 5 5 5 5 5 5 5 5 5 5 5 5 5 5 5 5 5 5 5 5 5 5 5 5 5 5 5 5 5 5 5 5 5 5 5 5 5 5 5 5 5 5 5 5 5 5 5 5 5 5 5 5 5 5 5 5 5 5 5 5 5 5 5 5 5 5 5 5 5 5 5 5 5 5 5 5 5 5 5 5 5 5 5 5 5 5 5 5 5 5 5 5 5 5 5 5 5 5 5 5 5 5 5 5 5 5 5 5 5 5 5 5 5 5 5 5 5 5 5 5 5 5 5 5 5 5 5 5 5 5 5 5 5 5 5 5 5 5 5 5 5 5 5 5 5 5 5 5 5 5 5 5 5 5 5 5 5 5 5 5 5 5 5 5 5 5 5 5 5 5 5 5 5 5 5 5 5 5 5 5 5 5 5 5 5 5 5 5 5 5 5 5 5 5 5 5 5 5 5 5 5 5 5 5 5 5 5 5 5 5 5 5 5 5 5 5 5 5 5 5 5 5 5 5 5 5 5 5 5 5 5 5 5 5 5 5 5 5 5 5 5 5 5 5 5 5 5 5 5 5 5 5 5 5 5 5 5 5 5 5 5 5 5 5 5 5 5 5 5 5 5 5 5 5 5 5 5 5 5 5 5 5 5 5 5 5 5 5 5 5 5 5 5 5 5 5 5 5 5 5 5 5 5 5 5 5 5 5 5 5 5 5 5 5 5 5 5 5 5 5 5 5 5 5 5 5 5 5 5 5 5 5 5 5 5 5 5 5 5 5 5 5 5 5 5 5 5 5 5 5 5 5 5 5 5 5 5 5 5 5 5 5 5 5 5 5 5 5 5 5 5 5 5 5 5 5 5 5 5 5 5 5 5 5 5 5 5 5 5 5 5 5 5 5 5 5 5 5 5 5 5 5 5 5 5 5 5 5 5 5 5 5 5 5 5 5 5 5 5 5 5 5 5 5 5 5 5 5 5 5 5 5 5 5 5 5 5 5 5 5 5 5 5 5 5 5 5 5 5 5 5 5 5 5 5 5 5 5 5 5 5 5 5 5 5 5 5 5 5 5 5 5 5 5 5 5 5 5 5 5 5 5 5 5 5 5 5 5 5 5 5 5 5 5 5 5 5 5 5 5 5 5 5 5 5 5 5 5 5 5 5 5 5 5 5 5 5 5 5 5 5 5 5 5 5 5 5 5 5 5 5 5 5 5 5 5 5 5 5 5 5 5 5 5 5 5 5 5 5 5 5 5 5 5 5 5 5 5 5 5 5 5 5 5 5 5 5 5 5 5 5 5 5 5 5 5 5 5 5 5 5 5 5 5 5 5 5 5 5 5 5 5 5 5 5 5 5 5 5 5 5 5 5 5 5 5 5 5 5 5 5 5 5 5 5 5 5 5 5 5 5 5 5 5 5 5 5 5 5 5 5 5 5 5 5 5 5 5 5 5 5 5 5 5 5 5 5 5 5 5 5 5 5 5 5 5 5 5 5 5 5 5 5 5 5 5 5 5 5 5 5 5 5 5 5 5 5 5 5 5 5 5 5 5 5 5 5 
</DataArray>
</Cells>
<PointData Scalars="" Vectors="displacement," Tensors="">
<DataArray type="Float64" Name="displacement" NumberOfComponents="3" format="ascii">
-3.7059260770282688e-07 7.1816539788432707e-05 0 -1.9580268442632461e-06 0.00015524640332515241 0 -0.0012808936262067748 0.10080464340749801 0 -3.7059260770282688e-07 7.1816539788432707e-05 0 -0.0012808936262067748 0.10080464340749801 0 -3.5103429136786892e-06 0.14283561489851448 0 -1.9580268442632461e-06 0.00015524640332515241 0 -0.0012808936262067748 0.10080464340749801 0 -0.001720714487107901 0.11046080580690293 0 -0.0012808936262067748 0.10080464340749801 0 -0.0022937323276171363 0.22025996382176768 0 -0.001720714487107901 0.11046080580690293 0 -0.0012808936262067748 0.10080464340749801 0 -3.5103429136786892e-06 0.14283561489851448 0 -0.0022937323276171363 0.22025996382176768 0 -3.5103429136786892e-06 0.14283561489851448 0 -4.1193026218621827e-06 0.2857116806770012 0 -0.0022937323276171363 0.22025996382176768 0 -0.0019745023115158565 0.35233303739881972 0 -4.1193026218621827e-06 0.2857116806770012 0 -4.4573970866321268e-06 0.42856140331739506 0 -0.0019745023115158565 0.35233303739881972 0 -4.1193026218621827e-06 0.2857116806770012 0 -0.0022937323276171363 0.22025996382176768 0 -0.0019745023115158565 0.35233303739881972 0 -0.0022937323276171363 0.22025996382176768 0 -0.0025503449775265558 0.34805190663893931 0 -0.0022937323276171363 0.22025996382176768 0 -0.0015443589707701373 0.2272542870693029 0 -0.001720714487107901 0.11046080580690293 0 -0.0022937323276171363 0.22025996382176768 0 -0.0025503449775265558 0.34805190663893931 0 -0.0015443589707701373 0.2272542870693029 0 -0.0025503449775265558 0.34805190663893931 0 -0.0015443589707701373 0.2272542870693029 0 0.00027446624119932745 0.34416119709943138 0 -0.0015443589707701373 0.2272542870693029 0 0.00027446624119932745 0.34416119709943138 0 0.0014692225691340783 0.22460528052454398 0 -0.0015443589707701373 0.2272542870693029 0 -0.00055571298741988651 0.11438677071269432 0 0.0014692225691340783 0.22460528052454398 0 -0.0015443589707701373 0.2272542870693029 0 -0.00055571298741988651 0.11438677071269432 0 -0.001720714487107901 0.11046080580690293 0 -0.00055571298741988651 0.11438677071269432 0 -1.5949470254697477e-06 0.00012809656811604169 0 -0.001720714487107901 0.11046080580690293 0 -0.00055571298741988651 0.11438677071269432 0 -1.5949470254697477e-06 0.00012809656811604169 0 -8.753999382537932e-08 0.00013203856422667619 0 -1.9580268442632461e-06 0.00015524640332515241 0 -1.5949470254697477e-06 0.00012809656811604169 0 -0.001720714487107901 0.11046080580690293 0 -0.0029595026511280184 0.61501860345680559 0 -0.0033414345143419543 0.58350377828650468 0 -0.0039730237863927651 0.72073042913626284 0 -3.9904227223978234e-06 0.71426173014129357 0 -0.0029595026511280184 0.61501860345680559 0 -0.0039730237863927651 0.72073042913626284 0 -0.0029595026511280184 0.61501860345680559 0 -7.429566259526866e-06 0.57141191367392707 0 -0.0031992948861305371 0.47943189810799114 0 -3.9904227223978234e-06 0.71426173014129357 0 -0.0029595026511280184 0.61501860345680559 0 -7.429566259526866e-06 0.57141191367392707 0 -0.0029595026511280184 0.61501860345680559 0 -0.0031992948861305371 0.47943189810799114 0 -0.0033414345143419543 0.58350377828650468 0 -7.429566259526866e-06 0.57141191367392707 0 -0.0031992948861305371 0.47943189810799114 0 -4.4573970866321268e-06 0.42856140331739506 0 -0.0019745023115158565 0.35233303739881972 0 -0.0031992948861305371 0.47943189810799114 0 -4.4573970866321268e-06 0.42856140331739506 0 -0.0019745023115158565 0.35233303739881972 0 -0.0025503449775265558 0.34805190663893931 0 -0.0031992948861305371 0.47943189810799114 0 -0.0025503449775265558 0.34805190663893931 0 -0.0031992948861305371 0.47943189810799114 0 -0.0015338917084230246 0.46040382461614249 0 0.00027446624119932745 0.34416119709943138 0 -0.0015338917084230246 0.46040382461614249 0 0.0032469458675476121 0.44886787997630212 0 -0.0025503449775265558 0.34805190663893931 0 0.00027446624119932745 0.34416119709943138 0 -0.0015338917084230246 0.46040382461614249 0 -0.0015338917084230246 0.46040382461614249 0 0.00071554176221264379 0.55825556570084589 0 0.0032469458675476121 0.44886787997630212 0 -0.0031992948861305371 0.47943189810799114 0 -0.0015338917084230246 0.46040382461614249 0 -0.0033414345143419543 0.58350377828650468 0 -0.0015338917084230246 0.46040382461614249 0 -0.0033414345143419543 0.58350377828650468 0 0.00071554176221264379 0.55825556570084589 0 0.00071554176221264379 0.55825556570084589 0 0.0037103253451451108 0.64927895807052882 0 -0.00082947091069830584 0.66925057509256225 0 -0.0033414345143419543 0.58350377828650468 0 0.00071554176221264379 0.55825556570084589 0 -0.00082947091069830584 0.66925057509256225 0 -0.0033414345143419543 0.58350377828650468 0 -0.00082947091069830584 0.66925057509256225 0 -0.0039730237863927651 0.72073042913626284 0 0.0067220302559872248 0.54841078482534034 0 0.0088514185429581643 0.64627277086741319 0 0.0037103253451451108 0.64927895807052882 0 0.00071554176221264379 0.55825556570084589 0 0.0067220302559872248 0.54841078482534034 0 0.0037103253451451108 0.64927895807052882 0 0.00071554176221264379 0.55825556570084589 0 0.0067220302559872248 0.54841078482534034 0 0.0032469458675476121 0.44886787997630212 0 0.0067220302559872248 0.54841078482534034 0 0.0032469458675476121 0.44886787997630212 0 0.0095058471102112928 0.44659000624194378 0 0.00027446624119932745 0.34416119709943138 0 0.0032469458675476121 0.44886787997630212 0 0.005081750390333325 0.33949216981879837 0 0.0032469458675476121 0.44886787997630212 0 0.005081750390333325 0.33949216981879837 0 0.0095058471102112928 0.44659000624194378 0 0.010570476732951511 0.34201105243868235 0 0.0159207205535788 0.45381589502729458 0 0.0095058471102112928 0.44659000624194378 0 0.005081750390333325 0.33949216981879837 0 0.010570476732951511 0.34201105243868235 0 0.0095058471102112928 0.44659000624194378 0 0.010570476732951511 0.34201105243868235 0 0.0159207205535788 0.45381589502729458 0 0.015334597384964659 0.34880274862946681 0 0.0159207205535788 0.45381589502729458 0 0.0095058471102112928 0.44659000624194378 0 0.013575743261935285 0.55204962214187603 0 0.0067220302559872248 0.54841078482534034 0 0.0095058471102112928 0.44659000624194378 0 0.013575743261935285 0.55204962214187603 0 0.0159207205535788 0.45381589502729458 0 0.013575743261935285 0.55204962214187603 0 0.020302756685892095 0.57277343915874024 0 0.013575743261935285 0.55204962214187603 0 0.020302756685892095 0.57277343915874024 0 0.014873391019326257 0.66247994758504514 0 0.0067220302559872248 0.54841078482534034 0 0.013575743261935285 0.55204962214187603 0 0.0088514185429581643 0.64627277086741319 0 0.013575743261935285 0.55204962214187603 0 0.0088514185429581643 0.64627277086741319 0 0.014873391019326257 0.66247994758504514 0 0.0015970398844329685 0.11443802966288902 0 -8.753999382537932e-08 0.00013203856422667619 0 1.5610585802253614e-06 0.00012978124325840388 0 -0.00055571298741988651 0.11438677071269432 0 0.0015970398844329685 0.11443802966288902 0 -8.753999382537932e-08 0.00013203856422667619 0 -0.00055571298741988651 0.11438677071269432 0 0.0015970398844329685 0.11443802966288902 0 0.0014692225691340783 0.22460528052454398 0 0.00027446624119932745 0.34416119709943138 0 0.005081750390333325 0.33949216981879837 0 0.0014692225691340783 0.22460528052454398 0 0.005081750390333325 0.33949216981879837 0 0.0014692225691340783 0.22460528052454398 0 0.0055064181923849369 0.23011109461479817 0 0.0015970398844329685 0.11443802966288902 0 0.0014692225691340783 0.22460528052454398 0 0.0055064181923849369 0.23011109461479817 0 0.0055064181923849369 0.23011109461479817 0 0.0093553936685101605 0.23280278344090391 0 0.004044027793184227 0.11859757885777303 0 0.010570476732951511 0.34201105243868235 0 0.0055064181923849369 0.23011109461479817 0 0.0093553936685101605 0.23280278344090391 0 0.005081750390333325 0.33949216981879837 0 0.010570476732951511 0.34201105243868235 0 0.0055064181923849369 0.23011109461479817 0 0.010570476732951511 0.34201105243868235 0 0.0093553936685101605 0.23280278344090391 0 0.015334597384964659 0.34880274862946681 0 0.0093553936685101605 0.23280278344090391 0 0.004044027793184227 0.11859757885777303 0 0.005784481224846926 0.11580504678574438 0 0.0015970398844329685 0.11443802966288902 0 0.0055064181923849369 0.23011109461479817 0 0.004044027793184227 0.11859757885777303 0 0.004044027793184227 0.11859757885777303 0 1.5610585802253614e-06 0.00012978124325840388 0 3.3953632641673016e-06 0.0001310832522720277 0 0.0015970398844329685 0.11443802966288902 0 0.004044027793184227 0.11859757885777303 0 1.5610585802253614e-06 0.00012978124325840388 0 0.004044027793184227 0.11859757885777303 0 3.3953632641673016e-06 0.0001310832522720277 0 0.005784481224846926 0.11580504678574438 0 3.3953632641673016e-06 0.0001310832522720277 0 0.005784481224846926 0.11580504678574438 0 3.9155869367467522e-06 0.00013346926201539055 0 0.005784481224846926 0.11580504678574438 0 0.0056053524023375965 0.097717688601886149 0 0.011690520853611127 0.22079524363157618 0 0.0056053524023375965 0.097717688601886149 0 0.0082236415587937806 0.13483138568071529 0 0.011690520853611127 0.22079524363157618 0 0.0056053524023375965 0.097717688601886149 0 3.9155869367467522e-06 0.00013346926201539055 0 5.2895056939013694e-06 0.00013261645670439319 0 0.005784481224846926 0.11580504678574438 0 0.0056053524023375965 0.097717688601886149 0 3.9155869367467522e-06 0.00013346926201539055 0 0.0056053524023375965 0.097717688601886149 0 5.2895056939013694e-06 0.00013261645670439319 0 0.0082236415587937806 0.13483138568071529 0 0.0082236415587937806 0.13483138568071529 0 0.0063892059409172202 0.10288832618186797 0 0.011740063951100893 0.21518842852495282 0 5.2895056939013694e-06 0.00013261645670439319 0 0.0082236415587937806 0.13483138568071529 0 0.0063892059409172202 0.10288832618186797 0 5.2895056939013694e-06 0.00013261645670439319 0 0.0063892059409172202 0.10288832618186797 0 5.936360579937462e-06 0.00014259408613333518 0 0.01661536375981491 0.35683063875214976 0 0.014743747682829426 0.27081284445080195 0 0.019996436991868902 0.40839854730697756 0 0.01661536375981491 0.35683063875214976 0 0.011740063951100893 0.21518842852495282 0 0.014743747682829426 0.27081284445080195 0 0.0082236415587937806 0.13483138568071529 0 0.011740063951100893 0.21518842852495282 0 0.014743747682829426 0.27081284445080195 0 0.0082236415587937806 0.13483138568071529 0 0.014743747682829426 0.27081284445080195 0 0.011690520853611127 0.22079524363157618 0 0.014743747682829426 0.27081284445080195 0 0.017052989778048474 0.34299836400024653 0 0.019996436991868902 0.40839854730697756 0 0.014743747682829426 0.27081284445080195 0 0.017052989778048474 0.34299836400024653 0 0.011690520853611127 0.22079524363157618 0 0.017052989778048474 0.34299836400024653 0 0.011690520853611127 0.22079524363157618 0 0.015334597384964659 0.34880274862946681 0 0.0093553936685101605 0.23280278344090391 0 0.005784481224846926 0.11580504678574438 0 0.011690520853611127 0.22079524363157618 0 0.0093553936685101605 0.23280278344090391 0 0.011690520853611127 0.22079524363157618 0 0.015334597384964659 0.34880274862946681 0 0.0159207205535788 0.45381589502729458 0 0.015334597384964659 0.34880274862946681 0 0.020965736049437109 0.46561185106193742 0 0.0159207205535788 0.45381589502729458 0 0.020965736049437109 0.46561185106193742 0 0.020302756685892095 0.57277343915874024 0 0.017052989778048474 0.34299836400024653 0 0.020965736049437109 0.46561185106193742 0 0.019996436991868902 0.40839854730697756 0 0.017052989778048474 0.34299836400024653 0 0.015334597384964659 0.34880274862946681 0 0.020965736049437109 0.46561185106193742 0 0.020302756685892095 0.57277343915874024 0 0.021439202446892562 0.70865234768768526 0 0.014873391019326257 0.66247994758504514 0 0.020965736049437109 0.46561185106193742 0 0.023647960535025495 0.59612804685266052 0 0.023789535873277732 0.54664187768263173 0 0.020965736049437109 0.46561185106193742 0 0.020302756685892095 0.57277343915874024 0 0.023647960535025495 0.59612804685266052 0 0.023647960535025495 0.59612804685266052 0 0.02445384002672487 0.68848991462350373 0 0.021439202446892562 0.70865234768768526 0 0.020302756685892095 0.57277343915874024 0 0.023647960535025495 0.59612804685266052 0 0.021439202446892562 0.70865234768768526 0 0.023647960535025495 0.59612804685266052 0 0.02445384002672487 0.68848991462350373 0 0.023789535873277732 0.54664187768263173 0 0.023789535873277732 0.54664187768263173 0 0.022114800199843365 0.65599879521215687 0 0.020491604170733511 0.50559006494494341 0 0.02445384002672487 0.68848991462350373 0 0.023789535873277732 0.54664187768263173 0 0.022114800199843365 0.65599879521215687 0 0.02445384002672487 0.68848991462350373 0 0.022114800199843365 0.65599879521215687 0 0.020181465941273173 0.80962328785644699 0 0.020965736049437109 0.46561185106193742 0 0.023789535873277732 0.54664187768263173 0 0.019996436991868902 0.40839854730697756 0 0.023789535873277732 0.54664187768263173 0 0.019996436991868902 0.40839854730697756 0 0.020491604170733511 0.50559006494494341 0 0.01661536375981491 0.35683063875214976 0 0.019996436991868902 0.40839854730697756 0 0.020491604170733511 0.50559006494494341 0 0.01661536375981491 0.35683063875214976 0 0.020491604170733511 0.50559006494494341 0 0.014424721020738175 0.44629816750241819 0 0.020491604170733511 0.50559006494494341 0 0.014424721020738175 0.44629816750241819 0 0.016059102207112676 0.6051958034149989 0 0.014424721020738175 0.44629816750241819 0 0.016059102207112676 0.6051958034149989 0 0.0083969437580176109 0.53606635787541479 0 0.022114800199843365 0.65599879521215687 0 0.015280134052031828 0.76809420705961318 0 0.020181465941273173 0.80962328785644699 0 0.022114800199843365 0.65599879521215687 0 0.020491604170733511 0.50559006494494341 0 0.016059102207112676 0.6051958034149989 0 0.022114800199843365 0.65599879521215687 0 0.016059102207112676 0.6051958034149989 0 0.015280134052031828 0.76809420705961318 0 0.016059102207112676 0.6051958034149989 0 0.015280134052031828 0.76809420705961318 0 0.0084629570199688375 0.70358094168950081 0 0.015280134052031828 0.76809420705961318 0 0.0084629570199688375 0.70358094168950081 0 0.0067074356621490425 0.87435456623200736 0 0.016059102207112676 0.6051958034149989 0 0.0084629570199688375 0.70358094168950081 0 0.0083969437580176109 0.53606635787541479 0 0.0084629570199688375 0.70358094168950081 0 0.00031760557695311017 0.62540678831689245 0 0.00025416147733049521 0.79600228439150134 0 0.0084629570199688375 0.70358094168950081 0 0.00031760557695311017 0.62540678831689245 0 0.0083969437580176109 0.53606635787541479 0 0.0084629570199688375 0.70358094168950081 0 0.00025416147733049521 0.79600228439150134 0 0.0067074356621490425 0.87435456623200736 0 0.014424721020738175 0.44629816750241819 0 0.0083969437580176109 0.53606635787541479 0 0.00724325479020384 0.37616797293508697 0 0.00031760557695311017 0.62540678831689245 0 0.0083969437580176109 0.53606635787541479 0 0.0003695488415231787 0.45954054291042801 0 0.0083969437580176109 0.53606635787541479 0 0.0003695488415231787 0.45954054291042801 0 0.00724325479020384 0.37616797293508697 0 0.0003695488415231787 0.45954054291042801 0 0.00724325479020384 0.37616797293508697 0 0.00024728396480367353 0.29623615126710745 0 0.00724325479020384 0.37616797293508697 0 0.0052219999824433608 0.21920407544889794 0 0.011207456508481158 0.29216629102288971 0 0.0052219999824433608 0.21920407544889794 0 0.00024728396480367353 0.29623615126710745 0 3.9604288629306669e-05 0.13343958340329815 0 0.00724325479020384 0.37616797293508697 0 0.0052219999824433608 0.21920407544889794 0 0.00024728396480367353 0.29623615126710745 0 3.9604288629306669e-05 0.13343958340329815 0 2.3093260721053042e-06 0.00014933493383347709 0 0.0026386034452515381 0.092326164006508046 0 3.9604288629306669e-05 0.13343958340329815 0 2.3093260721053042e-06 0.00014933493383347709 0 -2.1949298392582229e-06 0.00014951187165374832 0 2.3093260721053042e-06 0.00014933493383347709 0 0.0026386034452515381 0.092326164006508046 0 2.8844381056374062e-06 0.00014693852289010277 0 0.0052219999824433608 0.21920407544889794 0 0.0026386034452515381 0.092326164006508046 0 0.0065120296962661054 0.13076143592455886 0 0.0052219999824433608 0.21920407544889794 0 3.9604288629306669e-05 0.13343958340329815 0 0.0026386034452515381 0.092326164006508046 0 0.0065120296962661054 0.13076143592455886 0 2.8844381056374062e-06 0.00014693852289010277 0 5.936360579937462e-06 0.00014259408613333518 0 0.0026386034452515381 0.092326164006508046 0 0.0065120296962661054 0.13076143592455886 0 2.8844381056374062e-06 0.00014693852289010277 0 0.0063892059409172202 0.10288832618186797 0 0.0065120296962661054 0.13076143592455886 0 5.936360579937462e-06 0.00014259408613333518 0 0.0063892059409172202 0.10288832618186797 0 0.011740063951100893 0.21518842852495282 0 0.0065120296962661054 0.13076143592455886 0 0.011740063951100893 0.21518842852495282 0 0.0065120296962661054 0.13076143592455886 0 0.011207456508481158 0.29216629102288971 0 0.01661536375981491 0.35683063875214976 0 0.014424721020738175 0.44629816750241819 0 0.011207456508481158 0.29216629102288971 0 0.01661536375981491 0.35683063875214976 0 0.011740063951100893 0.21518842852495282 0 0.011207456508481158 0.29216629102288971 0 0.014424721020738175 0.44629816750241819 0 0.00724325479020384 0.37616797293508697 0 0.011207456508481158 0.29216629102288971 0 0.0052219999824433608 0.21920407544889794 0 0.0065120296962661054 0.13076143592455886 0 0.011207456508481158 0.29216629102288971 0 -0.021953042364949875 1.3125460357590428 0 -0.0094804408665602573 1.2351182027544636 0 -0.018718614739783614 1.2050559997305601 0 -0.021953042364949875 1.3125460357590428 0 -0.03451491796035458 1.2725227748647971 0 -0.018718614739783614 1.2050559997305601 0 -0.03451491796035458 1.2725227748647971 0 -0.018718614739783614 1.2050559997305601 0 -0.024596553958710056 1.153647446880447 0 -0.021953042364949875 1.3125460357590428 0 -0.03451491796035458 1.2725227748647971 0 -0.032229494636298074 1.4044009562161677 0 -0.03451491796035458 1.2725227748647971 0 -0.032229494636298074 1.4044009562161677 0 -0.03938506386483457 1.3724833785597323 0 -0.032229494636298074 1.4044009562161677 0 -0.039570649174274948 1.5016951244324539 0 -0.025847901245613581 1.5039533178241216 0 -0.032229494636298074 1.4044009562161677 0 -0.03938506386483457 1.3724833785597323 0 -0.039570649174274948 1.5016951244324539 0 -0.032229494636298074 1.4044009562161677 0 -0.017395300456768216 1.4123804739025136 0 -0.025847901245613581 1.5039533178241216 0 -0.021953042364949875 1.3125460357590428 0 -0.032229494636298074 1.4044009562161677 0 -0.017395300456768216 1.4123804739025136 0 -0.017395300456768216 1.4123804739025136 0 -0.025847901245613581 1.5039533178241216 0 -0.0091033135136229446 1.5036919859478317 0 -0.017395300456768216 1.4123804739025136 0 -7.4637581685309861e-05 1.4159583378271616 0 -0.0091033135136229446 1.5036919859478317 0 -0.017395300456768216 1.4123804739025136 0 -7.4637581685309861e-05 1.4159583378271616 0 -0.0076435560816716487 1.3265940039852335 0 -7.4637581685309861e-05 1.4159583378271616 0 -0.0076435560816716487 1.3265940039852335 0 0.0073287531253416775 1.3271677379858198 0 -0.021953042364949875 1.3125460357590428 0 -0.017395300456768216 1.4123804739025136 0 -0.0076435560816716487 1.3265940039852335 0 -0.021953042364949875 1.3125460357590428 0 -0.0076435560816716487 1.3265940039852335 0 -0.0094804408665602573 1.2351182027544636 0 -0.0076435560816716487 1.3265940039852335 0 -6.961308202431132e-05 1.240877048406652 0 0.0073287531253416775 1.3271677379858198 0 -0.0076435560816716487 1.3265940039852335 0 -0.0094804408665602573 1.2351182027544636 0 -6.961308202431132e-05 1.240877048406652 0 -6.961308202431132e-05 1.240877048406652 0 1.1240959983875407e-05 1.1547194299843315 0 -0.0002003734420238786 1.1547307193505973 0 -0.0094804408665602573 1.2351182027544636 0 -6.961308202431132e-05 1.240877048406652 0 1.1240959983875407e-05 1.1547194299843315 0 1.1240959983875407e-05 1.1547194299843315 0 -4.2534840811428108e-05 0.99195646903986734 0 -0.0002003734420238786 1.1547307193505973 0 1.1240959983875407e-05 1.1547194299843315 0 0.0034567135665716417 1.0244297974207321 0 0.00042606461161840038 1.1372449210789994 0 -0.0094804408665602573 1.2351182027544636 0 1.1240959983875407e-05 1.1547194299843315 0 0.00042606461161840038 1.1372449210789994 0 0.00025416147733049521 0.79600228439150134 0 -4.2534840811428108e-05 0.99195646903986734 0 0.0067074356621490425 0.87435456623200736 0 -4.2534840811428108e-05 0.99195646903986734 0 0.0034567135665716417 1.0244297974207321 0 0.0067074356621490425 0.87435456623200736 0 1.1240959983875407e-05 1.1547194299843315 0 -4.2534840811428108e-05 0.99195646903986734 0 0.0034567135665716417 1.0244297974207321 0 0.0034567135665716417 1.0244297974207321 0 0.0067074356621490425 0.87435456623200736 0 0.01008435245071349 0.95339352813612155 0 0.015280134052031828 0.76809420705961318 0 0.0067074356621490425 0.87435456623200736 0 0.01008435245071349 0.95339352813612155 0 0.0034567135665716417 1.0244297974207321 0 0.01008435245071349 0.95339352813612155 0 0.00042606461161840038 1.1372449210789994 0 0.01008435245071349 0.95339352813612155 0 0.0011980684828409274 1.0950975945679629 0 0.013179269423302137 0.93932492095092557 0 0.01008435245071349 0.95339352813612155 0 0.020181465941273173 0.80962328785644699 0 0.013179269423302137 0.93932492095092557 0 0.015280134052031828 0.76809420705961318 0 0.01008435245071349 0.95339352813612155 0 0.020181465941273173 0.80962328785644699 0 -0.0094804408665602573 1.2351182027544636 0 0.00042606461161840038 1.1372449210789994 0 -0.018718614739783614 1.2050559997305601 0 0.01008435245071349 0.95339352813612155 0 0.00042606461161840038 1.1372449210789994 0 0.0011980684828409274 1.0950975945679629 0 0.0011980684828409274 1.0950975945679629 0 -0.018718614739783614 1.2050559997305601 0 -0.024596553958710056 1.153647446880447 0 0.00042606461161840038 1.1372449210789994 0 0.0011980684828409274 1.0950975945679629 0 -0.018718614739783614 1.2050559997305601 0 -0.024596553958710056 1.153647446880447 0 -0.0067209675626525283 0.99004010455833469 0 -0.032709447789350067 1.1461545640871615 0 0.0011980684828409274 1.0950975945679629 0 -0.024596553958710056 1.153647446880447 0 -0.0067209675626525283 0.99004010455833469 0 0.0011980684828409274 1.0950975945679629 0 -0.0067209675626525283 0.99004010455833469 0 0.013179269423302137 0.93932492095092557 0 -0.0067209675626525283 0.99004010455833469 0 -0.027189264213765007 1.0453654609240985 0 -0.032709447789350067 1.1461545640871615 0 0.02445384002672487 0.68848991462350373 0 0.020181465941273173 0.80962328785644699 0 0.018514604242878516 0.83332015031640871 0 -0.0067209675626525283 0.99004010455833469 0 0.013179269423302137 0.93932492095092557 0 0.018514604242878516 0.83332015031640871 0 0.020181465941273173 0.80962328785644699 0 0.013179269423302137 0.93932492095092557 0 0.018514604242878516 0.83332015031640871 0 -0.0067209675626525283 0.99004010455833469 0 0.018514604242878516 0.83332015031640871 0 0.012387662693490918 0.8243418115346014 0 0.02445384002672487 0.68848991462350373 0 0.018514604242878516 0.83332015031640871 0 0.021439202446892562 0.70865234768768526 0 0.018514604242878516 0.83332015031640871 0 0.021439202446892562 0.70865234768768526 0 0.012387662693490918 0.8243418115346014 0 0.012387662693490918 0.8243418115346014 0 0.0089677680319821939 0.77437683013292702 0 -0.012798451467721355 0.88535345008194066 0 0.021439202446892562 0.70865234768768526 0 0.012387662693490918 0.8243418115346014 0 0.0089677680319821939 0.77437683013292702 0 0.021439202446892562 0.70865234768768526 0 0.0089677680319821939 0.77437683013292702 0 0.014873391019326257 0.66247994758504514 0 -0.027189264213765007 1.0453654609240985 0 -0.012798451467721355 0.88535345008194066 0 -0.022856677821126995 1.0254827803571522 0 -0.0067209675626525283 0.99004010455833469 0 -0.027189264213765007 1.0453654609240985 0 -0.012798451467721355 0.88535345008194066 0 -0.0067209675626525283 0.99004010455833469 0 0.012387662693490918 0.8243418115346014 0 -0.012798451467721355 0.88535345008194066 0 0.0089677680319821939 0.77437683013292702 0 -0.012798451467721355 0.88535345008194066 0 -0.0077023287217607922 0.84424180838565388 0 -0.012798451467721355 0.88535345008194066 0 -0.022856677821126995 1.0254827803571522 0 -0.0077023287217607922 0.84424180838565388 0 -0.022856677821126995 1.0254827803571522 0 -0.037572217894972164 1.1904911527984132 0 -0.027112276532076519 1.1780790148419698 0 -0.037572217894972164 1.1904911527984132 0 -0.037785675780815826 1.341444245622621 0 -0.027112276532076519 1.1780790148419698 0 -0.037572217894972164 1.1904911527984132 0 -0.040551511494424333 1.2902248110092687 0 -0.042857237773948391 1.3452301680786574 0 -0.027189264213765007 1.0453654609240985 0 -0.022856677821126995 1.0254827803571522 0 -0.037572217894972164 1.1904911527984132 0 -0.027189264213765007 1.0453654609240985 0 -0.037572217894972164 1.1904911527984132 0 -0.032709447789350067 1.1461545640871615 0 -0.037572217894972164 1.1904911527984132 0 -0.032709447789350067 1.1461545640871615 0 -0.040551511494424333 1.2902248110092687 0 -0.03451491796035458 1.2725227748647971 0 -0.040551511494424333 1.2902248110092687 0 -0.03938506386483457 1.3724833785597323 0 -0.03451491796035458 1.2725227748647971 0 -0.032709447789350067 1.1461545640871615 0 -0.040551511494424333 1.2902248110092687 0 -0.03451491796035458 1.2725227748647971 0 -0.024596553958710056 1.153647446880447 0 -0.032709447789350067 1.1461545640871615 0 -0.03938506386483457 1.3724833785597323 0 -0.04382426701296064 1.4305715100194876 0 -0.039570649174274948 1.5016951244324539 0 -0.040551511494424333 1.2902248110092687 0 -0.03938506386483457 1.3724833785597323 0 -0.04382426701296064 1.4305715100194876 0 -0.040551511494424333 1.2902248110092687 0 -0.04382426701296064 1.4305715100194876 0 -0.042857237773948391 1.3452301680786574 0 -0.04382426701296064 1.4305715100194876 0 -0.044372499169985119 1.4972627776819296 0 -0.043767507339450402 1.5693172863711622 0 -0.044372499169985119 1.4972627776819296 0 -0.042857237773948391 1.3452301680786574 0 -0.037785675780815826 1.341444245622621 0 -0.04382426701296064 1.4305715100194876 0 -0.044372499169985119 1.4972627776819296 0 -0.042857237773948391 1.3452301680786574 0 -0.037572217894972164 1.1904911527984132 0 -0.042857237773948391 1.3452301680786574 0 -0.037785675780815826 1.341444245622621 0 -0.044372499169985119 1.4972627776819296 0 -0.037785675780815826 1.341444245622621 0 -0.033723780225264378 1.4935551953573738 0 -0.037785675780815826 1.341444245622621 0 -0.033723780225264378 1.4935551953573738 0 -0.025617807160943085 1.3333751573254722 0 -0.033723780225264378 1.4935551953573738 0 -0.020192283788150408 1.4928147677686594 0 -0.025617807160943085 1.3333751573254722 0 -0.020192283788150408 1.4928147677686594 0 -0.025617807160943085 1.3333751573254722 0 -0.011924020994017924 1.3285918111996891 0 -0.025617807160943085 1.3333751573254722 0 -0.014878966828662583 1.1677572852205533 0 -0.011924020994017924 1.3285918111996891 0 -0.037785675780815826 1.341444245622621 0 -0.025617807160943085 1.3333751573254722 0 -0.027112276532076519 1.1780790148419698 0 -0.022856677821126995 1.0254827803571522 0 -0.027112276532076519 1.1780790148419698 0 -0.013554028674890797 1.004726876235609 0 -0.027112276532076519 1.1780790148419698 0 -0.014878966828662583 1.1677572852205533 0 -0.013554028674890797 1.004726876235609 0 -0.014878966828662583 1.1677572852205533 0 -0.013554028674890797 1.004726876235609 0 -0.0036694442935871281 0.9989141824310267 0 -0.025617807160943085 1.3333751573254722 0 -0.027112276532076519 1.1780790148419698 0 -0.014878966828662583 1.1677572852205533 0 -0.014878966828662583 1.1677572852205533 0 -0.002973073684200184 1.1635020327056869 0 -0.011924020994017924 1.3285918111996891 0 -0.014878966828662583 1.1677572852205533 0 -0.002973073684200184 1.1635020327056869 0 -0.0036694442935871281 0.9989141824310267 0 -0.002973073684200184 1.1635020327056869 0 -0.0036694442935871281 0.9989141824310267 0 0.0052400173659463241 1.005351815757499 0 -0.002973073684200184 1.1635020327056869 0 -0.011924020994017924 1.3285918111996891 0 -0.00020470547596221445 1.3283961995898312 0 -0.0067324439737881762 1.4912053842151733 0 -0.011924020994017924 1.3285918111996891 0 -0.00020470547596221445 1.3283961995898312 0 -0.020192283788150408 1.4928147677686594 0 -0.0067324439737881762 1.4912053842151733 0 -0.011924020994017924 1.3285918111996891 0 0.0088514185429581643 0.64627277086741319 0 0.014873391019326257 0.66247994758504514 0 0.0060233272351340643 0.74445014773027229 0 0.0088514185429581643 0.64627277086741319 0 0.0060233272351340643 0.74445014773027229 0 0.0046849998790890537 0.73857674835673603 0 0.0089677680319821939 0.77437683013292702 0 0.014873391019326257 0.66247994758504514 0 0.0060233272351340643 0.74445014773027229 0 0.0089677680319821939 0.77437683013292702 0 0.0060233272351340643 0.74445014773027229 0 -0.0077023287217607922 0.84424180838565388 0 0.0060233272351340643 0.74445014773027229 0 -0.00091373246372897384 0.82832720088946321 0 0.0046849998790890537 0.73857674835673603 0 0.0060233272351340643 0.74445014773027229 0 -0.00091373246372897384 0.82832720088946321 0 -0.0077023287217607922 0.84424180838565388 0 -0.022856677821126995 1.0254827803571522 0 -0.0077023287217607922 0.84424180838565388 0 -0.013554028674890797 1.004726876235609 0 -0.00091373246372897384 0.82832720088946321 0 -0.0077023287217607922 0.84424180838565388 0 -0.013554028674890797 1.004726876235609 0 -0.00091373246372897384 0.82832720088946321 0 -0.013554028674890797 1.004726876235609 0 -0.0036694442935871281 0.9989141824310267 0 -0.00091373246372897384 0.82832720088946321 0 -0.0036694442935871281 0.9989141824310267 0 0.0061568830360678329 0.83126588940546986 0 -0.0036694442935871281 0.9989141824310267 0 0.0061568830360678329 0.83126588940546986 0 0.0052400173659463241 1.005351815757499 0 -0.00091373246372897384 0.82832720088946321 0 0.0061568830360678329 0.83126588940546986 0 0.0046849998790890537 0.73857674835673603 0 0.0061568830360678329 0.83126588940546986 0 0.0046849998790890537 0.73857674835673603 0 0.0037471984844246243 0.75099980467942851 0 0.0046849998790890537 0.73857674835673603 0 0.0037103253451451108 0.64927895807052882 0 0.0037471984844246243 0.75099980467942851 0 0.0088514185429581643 0.64627277086741319 0 0.0046849998790890537 0.73857674835673603 0 0.0037103253451451108 0.64927895807052882 0 -0.00082947091069830584 0.66925057509256225 0 0.0016541760113687398 0.7848583898945789 0 -0.0039730237863927651 0.72073042913626284 0 -0.00082947091069830584 0.66925057509256225 0 0.0037471984844246243 0.75099980467942851 0 0.0016541760113687398 0.7848583898945789 0 0.0037103253451451108 0.64927895807052882 0 -0.00082947091069830584 0.66925057509256225 0 0.0037471984844246243 0.75099980467942851 0 0.0037471984844246243 0.75099980467942851 0 0.0016541760113687398 0.7848583898945789 0 0.012124686562301173 0.85290552928254848 0 0.0016541760113687398 0.7848583898945789 0 0.012124686562301173 0.85290552928254848 0 0.014367520646058752 0.89849662600156843 0 0.0061568830360678329 0.83126588940546986 0 0.0037471984844246243 0.75099980467942851 0 0.012124686562301173 0.85290552928254848 0 0.0061568830360678329 0.83126588940546986 0 0.012124686562301173 0.85290552928254848 0 0.0052400173659463241 1.005351815757499 0 0.012124686562301173 0.85290552928254848 0 0.0052400173659463241 1.005351815757499 0 0.010790279147494084 1.0278307022374722 0 0.012124686562301173 0.85290552928254848 0 0.010790279147494084 1.0278307022374722 0 0.014367520646058752 0.89849662600156843 0 0.010790279147494084 1.0278307022374722 0 0.010307995224169926 1.0515761875465446 0 0.014367520646058752 0.89849662600156843 0 0.010307995224169926 1.0515761875465446 0 3.9571995280514611e-05 0.99988361723313501 0 1.5134545289946449e-05 1.1428388100291811 0 0.010307995224169926 1.0515761875465446 0 3.9571995280514611e-05 0.99988361723313501 0 0.014367520646058752 0.89849662600156843 0 3.9571995280514611e-05 0.99988361723313501 0 0.014367520646058752 0.89849662600156843 0 -0.00066576422582438936 0.84142715820794534 0 0.0016541760113687398 0.7848583898945789 0 -0.00066576422582438936 0.84142715820794534 0 -0.0039730237863927651 0.72073042913626284 0 0.0016541760113687398 0.7848583898945789 0 0.014367520646058752 0.89849662600156843 0 -0.00066576422582438936 0.84142715820794534 0 3.9571995280514611e-05 0.99988361723313501 0 -0.00066576422582438936 0.84142715820794534 0 -1.8864484737797608e-05 0.85712675449405251 0 -0.00066576422582438936 0.84142715820794534 0 -1.8864484737797608e-05 0.85712675449405251 0 -0.0039730237863927651 0.72073042913626284 0 -3.9904227223978234e-06 0.71426173014129357 0 -1.8864484737797608e-05 0.85712675449405251 0 -0.0039730237863927651 0.72073042913626284 0 0.0067536915907836894 1.3355666172729719 0 0.0034039558938838209 1.4933342268305343 0 0.0065774752899961887 1.498021826026247 0 0.0067536915907836894 1.3355666172729719 0 0.0034039558938838209 1.4933342268305343 0 -0.00020470547596221445 1.3283961995898312 0 -0.0067324439737881762 1.4912053842151733 0 0.0034039558938838209 1.4933342268305343 0 -0.00020470547596221445 1.3283961995898312 0 0.0067536915907836894 1.3355666172729719 0 -0.00020470547596221445 1.3283961995898312 0 0.0060009262337429314 1.1729273978337962 0 -0.002973073684200184 1.1635020327056869 0 -0.00020470547596221445 1.3283961995898312 0 0.0060009262337429314 1.1729273978337962 0 -0.002973073684200184 1.1635020327056869 0 0.0052400173659463241 1.005351815757499 0 0.0060009262337429314 1.1729273978337962 0 0.0052400173659463241 1.005351815757499 0 0.010790279147494084 1.0278307022374722 0 0.0060009262337429314 1.1729273978337962 0 0.010790279147494084 1.0278307022374722 0 0.0060009262337429314 1.1729273978337962 0 0.0092038152445675456 1.1912960050344723 0 0.0067536915907836894 1.3355666172729719 0 0.0060009262337429314 1.1729273978337962 0 0.0092038152445675456 1.1912960050344723 0 0.010790279147494084 1.0278307022374722 0 0.010307995224169926 1.0515761875465446 0 0.0092038152445675456 1.1912960050344723 0 0.010307995224169926 1.0515761875465446 0 0.0092038152445675456 1.1912960050344723 0 1.5134545289946449e-05 1.1428388100291811 0 0.0092038152445675456 1.1912960050344723 0 1.3337273192185197e-05 1.2856981976440787 0 0.0054671490074824983 1.3433435261902362 0 0.0092038152445675456 1.1912960050344723 0 1.5134545289946449e-05 1.1428388100291811 0 1.3337273192185197e-05 1.2856981976440787 0 1.3337273192185197e-05 1.2856981976440787 0 0.0054671490074824983 1.3433435261902362 0 1.1978078215230285e-05 1.4285619436375323 0 0.0067536915907836894 1.3355666172729719 0 0.0054671490074824983 1.3433435261902362 0 0.0065774752899961887 1.498021826026247 0 0.0067536915907836894 1.3355666172729719 0 0.0092038152445675456 1.1912960050344723 0 0.0054671490074824983 1.3433435261902362 0 0.0065774752899961887 1.498021826026247 0 1.1978078215230285e-05 1.4285619436375323 0 1.1532288987771565e-05 1.5714376914822101 0 0.0054671490074824983 1.3433435261902362 0 0.0065774752899961887 1.498021826026247 0 1.1978078215230285e-05 1.4285619436375323 0 0.0065774752899961887 1.498021826026247 0 1.1532288987771565e-05 1.5714376914822101 0 0.0055069195499583973 1.6504384313883522 0 1.1532288987771565e-05 1.5714376914822101 0 0.0055069195499583973 1.6504384313883522 0 1.3753452429356437e-05 1.7143021986715403 0 0.0055069195499583973 1.6504384313883522 0 0.0065914986716580394 1.6539988993697319 0 0.0091662077617404702 1.8106242697779611 0 0.0065774752899961887 1.498021826026247 0 0.0055069195499583973 1.6504384313883522 0 0.0065914986716580394 1.6539988993697319 0 0.0034039558938838209 1.4933342268305343 0 0.0065774752899961887 1.498021826026247 0 0.0065914986716580394 1.6539988993697319 0 0.0065914986716580394 1.6539988993697319 0 -0.00051445967525128738 1.653865571754177 0 0.0059372598882200213 1.8197278018113889 0 0.0034039558938838209 1.4933342268305343 0 0.0065914986716580394 1.6539988993697319 0 -0.00051445967525128738 1.653865571754177 0 -0.0067324439737881762 1.4912053842151733 0 0.0034039558938838209 1.4933342268305343 0 -0.00051445967525128738 1.653865571754177 0 0.0059372598882200213 1.8197278018113889 0 0.005250090047728093 1.9889561476737398 0 -0.0031765986551858813 1.8301035482446668 0 0.0059372598882200213 1.8197278018113889 0 0.010746735110286256 1.9711850943035876 0 0.005250090047728093 1.9889561476737398 0 -0.00051445967525128738 1.653865571754177 0 0.0059372598882200213 1.8197278018113889 0 -0.0031765986551858813 1.8301035482446668 0 0.0065914986716580394 1.6539988993697319 0 0.0059372598882200213 1.8197278018113889 0 0.0091662077617404702 1.8106242697779611 0 0.0059372598882200213 1.8197278018113889 0 0.0091662077617404702 1.8106242697779611 0 0.010746735110286256 1.9711850943035876 0 0.0091662077617404702 1.8106242697779611 0 0.010312677236037042 1.9487962821021272 0 0.010746735110286256 1.9711850943035876 0 0.0055069195499583973 1.6504384313883522 0 0.0091662077617404702 1.8106242697779611 0 1.3753452429356437e-05 1.7143021986715403 0 0.0091662077617404702 1.8106242697779611 0 1.3753452429356437e-05 1.7143021986715403 0 1.5032469574210671e-05 1.8571613114350025 0 0.0091662077617404702 1.8106242697779611 0 1.5032469574210671e-05 1.8571613114350025 0 0.010312677236037042 1.9487962821021272 0 3.9485961054160812e-05 2.0001161691588223 0 0.0143797102695889 2.1015860349361319 0 0.010312677236037042 1.9487962821021272 0 1.5032469574210671e-05 1.8571613114350025 0 3.9485961054160812e-05 2.0001161691588223 0 0.010312677236037042 1.9487962821021272 0 3.9485961054160812e-05 2.0001161691588223 0 0.0143797102695889 2.1015860349361319 0 -0.00069575555430735354 2.1577847913536701 0 0.0143797102695889 2.1015860349361319 0 0.010312677236037042 1.9487962821021272 0 0.010746735110286256 1.9711850943035876 0 -1.8691264284007914e-05 2.1428732837755313 0 -0.003894736743174945 2.2756823500707983 0 -4.2095358484283925e-06 2.2857384299988031 0 -1.8691264284007914e-05 2.1428732837755313 0 -0.00069575555430735354 2.1577847913536701 0 -0.003894736743174945 2.2756823500707983 0 3.9485961054160812e-05 2.0001161691588223 0 -1.8691264284007914e-05 2.1428732837755313 0 -0.00069575555430735354 2.1577847913536701 0 -0.00069575555430735354 2.1577847913536701 0 -0.003894736743174945 2.2756823500707983 0 0.0017204755305140287 2.2123389128849862 0 0.0143797102695889 2.1015860349361319 0 -0.00069575555430735354 2.1577847913536701 0 0.0017204755305140287 2.2123389128849862 0 -0.003894736743174945 2.2756823500707983 0 0.0017204755305140287 2.2123389128849862 0 -0.00090929942416261987 2.329322802809711 0 0.0017204755305140287 2.2123389128849862 0 0.0036848074601373705 2.2493029199994745 0 0.012078611604741999 2.1471168690559614 0 0.0017204755305140287 2.2123389128849862 0 0.0036848074601373705 2.2493029199994745 0 -0.00090929942416261987 2.329322802809711 0 0.0036848074601373705 2.2493029199994745 0 -0.00090929942416261987 2.329322802809711 0 0.0036886375627362589 2.3510584319065817 0 0.0143797102695889 2.1015860349361319 0 0.010746735110286256 1.9711850943035876 0 0.012078611604741999 2.1471168690559614 0 0.0143797102695889 2.1015860349361319 0 0.0017204755305140287 2.2123389128849862 0 0.012078611604741999 2.1471168690559614 0 0.0036848074601373705 2.2493029199994745 0 0.012078611604741999 2.1471168690559614 0 0.0061181666502300551 2.1686717795092201 0 0.012078611604741999 2.1471168690559614 0 0.005250090047728093 1.9889561476737398 0 0.0061181666502300551 2.1686717795092201 0 0.010746735110286256 1.9711850943035876 0 0.012078611604741999 2.1471168690559614 0 0.005250090047728093 1.9889561476737398 0 0.005250090047728093 1.9889561476737398 0 0.0061181666502300551 2.1686717795092201 0 -0.0037163873813630607 1.9971926475382926 0 0.0061181666502300551 2.1686717795092201 0 0.0047251733343868872 2.263042493794869 0 -0.00097437159618874575 2.1716363737709208 0 0.0061181666502300551 2.1686717795092201 0 -0.00097437159618874575 2.1716363737709208 0 -0.0037163873813630607 1.9971926475382926 0 0.0036848074601373705 2.2493029199994745 0 0.0036886375627362589 2.3510584319065817 0 0.0047251733343868872 2.263042493794869 0 0.0036848074601373705 2.2493029199994745 0 0.0061181666502300551 2.1686717795092201 0 0.0047251733343868872 2.263042493794869 0 0.0036886375627362589 2.3510584319065817 0 0.0047251733343868872 2.263042493794869 0 0.0089904099408204419 2.3598292054211862 0 0.0047251733343868872 2.263042493794869 0 0.0064688318167354679 2.2604599132268279 0 0.0089904099408204419 2.3598292054211862 0 0.0064688318167354679 2.2604599132268279 0 0.0089904099408204419 2.3598292054211862 0 0.015226934656464622 2.3476622052423624 0 0.0047251733343868872 2.263042493794869 0 0.0064688318167354679 2.2604599132268279 0 -0.00097437159618874575 2.1716363737709208 0 0.0064688318167354679 2.2604599132268279 0 -0.0077185728293373878 2.1557395470607075 0 0.0098782483205754803 2.2322047101876064 0 0.0064688318167354679 2.2604599132268279 0 0.015226934656464622 2.3476622052423624 0 0.0098782483205754803 2.2322047101876064 0 -0.00097437159618874575 2.1716363737709208 0 -0.0077185728293373878 2.1557395470607075 0 -0.014073998443282268 1.9854483430634893 0 -0.00097437159618874575 2.1716363737709208 0 -0.014073998443282268 1.9854483430634893 0 -0.0037163873813630607 1.9971926475382926 0 0.0064688318167354679 2.2604599132268279 0 -0.00097437159618874575 2.1716363737709208 0 -0.0077185728293373878 2.1557395470607075 0 -0.0077185728293373878 2.1557395470607075 0 -0.014073998443282268 1.9854483430634893 0 -0.023316556699171192 1.9678011332509207 0 -0.014073998443282268 1.9854483430634893 0 -0.027606762881980575 1.8100744005546034 0 -0.023316556699171192 1.9678011332509207 0 -0.014073998443282268 1.9854483430634893 0 -0.015195564027182019 1.8214110418266343 0 -0.027606762881980575 1.8100744005546034 0 -0.014073998443282268 1.9854483430634893 0 -0.015195564027182019 1.8214110418266343 0 -0.0037163873813630607 1.9971926475382926 0 -0.015195564027182019 1.8214110418266343 0 -0.027606762881980575 1.8100744005546034 0 -0.025846348604504233 1.6530595301341258 0 -0.027606762881980575 1.8100744005546034 0 -0.025846348604504233 1.6530595301341258 0 -0.038182035623724159 1.6434087379256201 0 -0.033723780225264378 1.4935551953573738 0 -0.025846348604504233 1.6530595301341258 0 -0.038182035623724159 1.6434087379256201 0 -0.033723780225264378 1.4935551953573738 0 -0.020192283788150408 1.4928147677686594 0 -0.025846348604504233 1.6530595301341258 0 -0.020192283788150408 1.4928147677686594 0 -0.025846348604504233 1.6530595301341258 0 -0.012260771780568981 1.6569945941204727 0 -0.015195564027182019 1.8214110418266343 0 -0.025846348604504233 1.6530595301341258 0 -0.012260771780568981 1.6569945941204727 0 -0.020192283788150408 1.4928147677686594 0 -0.0067324439737881762 1.4912053842151733 0 -0.012260771780568981 1.6569945941204727 0 -0.0067324439737881762 1.4912053842151733 0 -0.00051445967525128738 1.653865571754177 0 -0.012260771780568981 1.6569945941204727 0 -0.00051445967525128738 1.653865571754177 0 -0.012260771780568981 1.6569945941204727 0 -0.0031765986551858813 1.8301035482446668 0 0.005250090047728093 1.9889561476737398 0 -0.0031765986551858813 1.8301035482446668 0 -0.0037163873813630607 1.9971926475382926 0 -0.015195564027182019 1.8214110418266343 0 -0.0031765986551858813 1.8301035482446668 0 -0.0037163873813630607 1.9971926475382926 0 -0.015195564027182019 1.8214110418266343 0 -0.012260771780568981 1.6569945941204727 0 -0.0031765986551858813 1.8301035482446668 0 -1.5675097633060275e-06 2.9998718977230436 0 -0.00052649319547720859 2.8892199735363078 0 -1.020737724596318e-07 2.9998679562691555 0 -1.5675097633060275e-06 2.9998718977230436 0 -0.00052649319547720859 2.8892199735363078 0 -0.0017145737591140492 2.8900701593724287 0 -0.00052649319547720859 2.8892199735363078 0 -0.0017145737591140492 2.8900701593724287 0 -0.0015213720844179817 2.7778528349994467 0 -1.5675097633060275e-06 2.9998718977230436 0 -0.0017145737591140492 2.8900701593724287 0 -1.970175343755153e-06 2.9998447624209086 0 -0.0017145737591140492 2.8900701593724287 0 -1.970175343755153e-06 2.9998447624209086 0 -0.0012824645975904716 2.898662278077571 0 -3.5467985633439734e-07 2.9999281658672325 0 -3.5598898260445299e-06 2.8571643820300414 0 -0.0012824645975904716 2.898662278077571 0 -1.970175343755153e-06 2.9998447624209086 0 -3.5467985633439734e-07 2.9999281658672325 0 -0.0012824645975904716 2.898662278077571 0 -3.5598898260445299e-06 2.8571643820300414 0 -0.0012824645975904716 2.898662278077571 0 -0.002303953926609884 2.7782090863785234 0 -0.0017145737591140492 2.8900701593724287 0 -0.0012824645975904716 2.898662278077571 0 -0.002303953926609884 2.7782090863785234 0 -3.5598898260445299e-06 2.8571643820300414 0 -0.002303953926609884 2.7782090863785234 0 -4.0092412599699742e-06 2.714288461432794 0 -0.002303953926609884 2.7782090863785234 0 -4.0092412599699742e-06 2.714288461432794 0 -0.0019358532037360879 2.6530162823239634 0 -4.0092412599699742e-06 2.714288461432794 0 -0.0019358532037360879 2.6530162823239634 0 -4.5556071849915349e-06 2.5714384669156476 0 -0.002303953926609884 2.7782090863785234 0 -0.0019358532037360879 2.6530162823239634 0 -0.0025533382373791862 2.6597632690246189 0 -0.0017145737591140492 2.8900701593724287 0 -0.002303953926609884 2.7782090863785234 0 -0.0015213720844179817 2.7778528349994467 0 -0.002303953926609884 2.7782090863785234 0 -0.0025533382373791862 2.6597632690246189 0 -0.0015213720844179817 2.7778528349994467 0 -0.00052649319547720859 2.8892199735363078 0 -0.0015213720844179817 2.7778528349994467 0 0.0013894932929438336 2.7796846939115483 0 -0.0015213720844179817 2.7778528349994467 0 0.00016018538945087785 2.667682833923918 0 0.0013894932929438336 2.7796846939115483 0 -0.0025533382373791862 2.6597632690246189 0 -0.0015213720844179817 2.7778528349994467 0 0.00016018538945087785 2.667682833923918 0 0.00016018538945087785 2.667682833923918 0 -0.0016700308148557036 2.5480115342631464 0 0.0031157662449812287 2.5611463290553367 0 -0.0016700308148557036 2.5480115342631464 0 0.00068836547491583423 2.4495913637308413 0 0.0031157662449812287 2.5611463290553367 0 -0.0016700308148557036 2.5480115342631464 0 -0.0031904534591076492 2.524001536561495 0 -0.0032896191730181022 2.4210215422074763 0 -0.0025533382373791862 2.6597632690246189 0 -0.0016700308148557036 2.5480115342631464 0 -0.0031904534591076492 2.524001536561495 0 -0.0025533382373791862 2.6597632690246189 0 0.00016018538945087785 2.667682833923918 0 -0.0016700308148557036 2.5480115342631464 0 -0.0019358532037360879 2.6530162823239634 0 -0.0025533382373791862 2.6597632690246189 0 -0.0031904534591076492 2.524001536561495 0 -0.0019358532037360879 2.6530162823239634 0 -4.5556071849915349e-06 2.5714384669156476 0 -0.0031904534591076492 2.524001536561495 0 -4.5556071849915349e-06 2.5714384669156476 0 -0.0031904534591076492 2.524001536561495 0 -7.3183865103238974e-06 2.4285879812041551 0 -0.0031904534591076492 2.524001536561495 0 -0.0029353802347921983 2.3875919445730562 0 -0.0032896191730181022 2.4210215422074763 0 -0.0031904534591076492 2.524001536561495 0 -0.0029353802347921983 2.3875919445730562 0 -7.3183865103238974e-06 2.4285879812041551 0 -0.0029353802347921983 2.3875919445730562 0 -7.3183865103238974e-06 2.4285879812041551 0 -4.2095358484283925e-06 2.2857384299988031 0 -0.003894736743174945 2.2756823500707983 0 -0.0029353802347921983 2.3875919445730562 0 -4.2095358484283925e-06 2.2857384299988031 0 -0.003894736743174945 2.2756823500707983 0 -0.0029353802347921983 2.3875919445730562 0 -0.0032896191730181022 2.4210215422074763 0 -0.003894736743174945 2.2756823500707983 0 -0.00090929942416261987 2.329322802809711 0 -0.0032896191730181022 2.4210215422074763 0 -0.0016700308148557036 2.5480115342631464 0 -0.0032896191730181022 2.4210215422074763 0 0.00068836547491583423 2.4495913637308413 0 -0.00090929942416261987 2.329322802809711 0 -0.0032896191730181022 2.4210215422074763 0 0.00068836547491583423 2.4495913637308413 0 -0.00090929942416261987 2.329322802809711 0 0.0036886375627362589 2.3510584319065817 0 0.00068836547491583423 2.4495913637308413 0 0.0036886375627362589 2.3510584319065817 0 0.00068836547491583423 2.4495913637308413 0 0.0066991833348351388 2.4588106748438996 0 0.00068836547491583423 2.4495913637308413 0 0.0066991833348351388 2.4588106748438996 0 0.0031157662449812287 2.5611463290553367 0 0.0036886375627362589 2.3510584319065817 0 0.0066991833348351388 2.4588106748438996 0 0.0089904099408204419 2.3598292054211862 0 0.0066991833348351388 2.4588106748438996 0 0.0089904099408204419 2.3598292054211862 0 0.013568318272785779 2.4562768395930523 0 0.0089904099408204419 2.3598292054211862 0 0.015226934656464622 2.3476622052423624 0 0.013568318272785779 2.4562768395930523 0 0.015226934656464622 2.3476622052423624 0 0.013568318272785779 2.4562768395930523 0 0.020223710074910257 2.4413043764590614 0 0.013568318272785779 2.4562768395930523 0 0.015681722004531842 2.555683271053363 0 0.020223710074910257 2.4413043764590614 0 0.0066991833348351388 2.4588106748438996 0 0.013568318272785779 2.4562768395930523 0 0.0094136709783249634 2.5624076055104941 0 0.013568318272785779 2.4562768395930523 0 0.0094136709783249634 2.5624076055104941 0 0.015681722004531842 2.555683271053363 0 0.015681722004531842 2.555683271053363 0 0.010355202954678984 2.6670894354746593 0 0.014916049253038226 2.6624294683247083 0 0.0094136709783249634 2.5624076055104941 0 0.0049088369497036176 2.6697369298899747 0 0.010355202954678984 2.6670894354746593 0 0.0094136709783249634 2.5624076055104941 0 0.015681722004531842 2.555683271053363 0 0.010355202954678984 2.6670894354746593 0 0.0094136709783249634 2.5624076055104941 0 0.0031157662449812287 2.5611463290553367 0 0.0049088369497036176 2.6697369298899747 0 0.0066991833348351388 2.4588106748438996 0 0.0094136709783249634 2.5624076055104941 0 0.0031157662449812287 2.5611463290553367 0 0.00016018538945087785 2.667682833923918 0 0.0031157662449812287 2.5611463290553367 0 0.0049088369497036176 2.6697369298899747 0 0.00016018538945087785 2.667682833923918 0 0.0013894932929438336 2.7796846939115483 0 0.0049088369497036176 2.6697369298899747 0 0.0013894932929438336 2.7796846939115483 0 0.0053506283131133569 2.7770475658460447 0 0.0015736098763193928 2.8881082895836712 0 0.0013894932929438336 2.7796846939115483 0 0.0049088369497036176 2.6697369298899747 0 0.0053506283131133569 2.7770475658460447 0 0.0049088369497036176 2.6697369298899747 0 0.010355202954678984 2.6670894354746593 0 0.0053506283131133569 2.7770475658460447 0 0.010355202954678984 2.6670894354746593 0 0.0090758017315571409 2.7753882418292273 0 0.0053506283131133569 2.7770475658460447 0 0.010355202954678984 2.6670894354746593 0 0.0090758017315571409 2.7753882418292273 0 0.014916049253038226 2.6624294683247083 0 0.0090758017315571409 2.7753882418292273 0 0.0053506283131133569 2.7770475658460447 0 0.0038286053480191978 2.8879077086486058 0 0.0053506283131133569 2.7770475658460447 0 0.0038286053480191978 2.8879077086486058 0 0.0015736098763193928 2.8881082895836712 0 0.0090758017315571409 2.7753882418292273 0 0.0038286053480191978 2.8879077086486058 0 0.0055808152762875148 2.8888445328824028 0 0.0038286053480191978 2.8879077086486058 0 3.3492894710214379e-06 2.9998689022643155 0 0.0055808152762875148 2.8888445328824028 0 0.0038286053480191978 2.8879077086486058 0 3.3492894710214379e-06 2.9998689022643155 0 1.6197800193244792e-06 2.9998702131000727 0 0.0038286053480191978 2.8879077086486058 0 1.6197800193244792e-06 2.9998702131000727 0 0.0015736098763193928 2.8881082895836712 0 1.6197800193244792e-06 2.9998702131000727 0 0.0015736098763193928 2.8881082895836712 0 -1.020737724596318e-07 2.9998679562691555 0 -0.00052649319547720859 2.8892199735363078 0 0.0013894932929438336 2.7796846939115483 0 0.0015736098763193928 2.8881082895836712 0 -0.00052649319547720859 2.8892199735363078 0 0.0015736098763193928 2.8881082895836712 0 -1.020737724596318e-07 2.9998679562691555 0 0.0063698113990145354 2.897075357846195 0 5.2962983309949182e-06 2.9998673935073343 0 5.9755867515826747e-06 2.9998574309356596 0 0.0063698113990145354 2.897075357846195 0 0.0082202986882612301 2.8651911659178184 0 5.2962983309949182e-06 2.9998673935073343 0 0.0063698113990145354 2.897075357846195 0 0.0082202986882612301 2.8651911659178184 0 0.011789898796425679 2.7818717778398301 0 0.0082202986882612301 2.8651911659178184 0 5.2962983309949182e-06 2.9998673935073343 0 0.0056182288770070931 2.9022828037905248 0 5.2962983309949182e-06 2.9998673935073343 0 3.8949109724055401e-06 2.9998665531165791 0 0.0056182288770070931 2.9022828037905248 0 3.8949109724055401e-06 2.9998665531165791 0 0.0055808152762875148 2.8888445328824028 0 0.0056182288770070931 2.9022828037905248 0 3.3492894710214379e-06 2.9998689022643155 0 3.8949109724055401e-06 2.9998665531165791 0 0.0055808152762875148 2.8888445328824028 0 0.0082202986882612301 2.8651911659178184 0 0.0056182288770070931 2.9022828037905248 0 0.01149624002455117 2.7838603492313809 0 0.0055808152762875148 2.8888445328824028 0 0.0056182288770070931 2.9022828037905248 0 0.01149624002455117 2.7838603492313809 0 0.0090758017315571409 2.7753882418292273 0 0.0055808152762875148 2.8888445328824028 0 0.01149624002455117 2.7838603492313809 0 0.0090758017315571409 2.7753882418292273 0 0.01149624002455117 2.7838603492313809 0 0.014916049253038226 2.6624294683247083 0 0.01149624002455117 2.7838603492313809 0 0.014916049253038226 2.6624294683247083 0 0.016782046312812791 2.6644402013000641 0 0.01149624002455117 2.7838603492313809 0 0.016782046312812791 2.6644402013000641 0 0.014740510336340266 2.7291772762219084 0 0.016782046312812791 2.6644402013000641 0 0.014740510336340266 2.7291772762219084 0 0.02000989701606198 2.591573217951181 0 0.0082202986882612301 2.8651911659178184 0 0.01149624002455117 2.7838603492313809 0 0.014740510336340266 2.7291772762219084 0 0.0082202986882612301 2.8651911659178184 0 0.014740510336340266 2.7291772762219084 0 0.011789898796425679 2.7818717778398301 0 0.014740510336340266 2.7291772762219084 0 0.016584830551671478 2.6419582270338222 0 0.02000989701606198 2.591573217951181 0 0.014740510336340266 2.7291772762219084 0 0.011789898796425679 2.7818717778398301 0 0.016584830551671478 2.6419582270338222 0 0.016584830551671478 2.6419582270338222 0 0.020443258639275368 2.4953335820299793 0 0.02000989701606198 2.591573217951181 0 0.020443258639275368 2.4953335820299793 0 0.02000989701606198 2.591573217951181 0 0.023812614392295955 2.4533131136870474 0 0.02000989701606198 2.591573217951181 0 0.020841066267580165 2.5389442473538351 0 0.023812614392295955 2.4533131136870474 0 0.014916049253038226 2.6624294683247083 0 0.016782046312812791 2.6644402013000641 0 0.020841066267580165 2.5389442473538351 0 0.016782046312812791 2.6644402013000641 0 0.02000989701606198 2.591573217951181 0 0.020841066267580165 2.5389442473538351 0 0.015681722004531842 2.555683271053363 0 0.014916049253038226 2.6624294683247083 0 0.020841066267580165 2.5389442473538351 0 0.015681722004531842 2.555683271053363 0 0.020841066267580165 2.5389442473538351 0 0.020223710074910257 2.4413043764590614 0 0.020841066267580165 2.5389442473538351 0 0.023640457417885955 2.4097274839628664 0 0.020223710074910257 2.4413043764590614 0 0.020841066267580165 2.5389442473538351 0 0.023640457417885955 2.4097274839628664 0 0.023812614392295955 2.4533131136870474 0 0.015226934656464622 2.3476622052423624 0 0.020223710074910257 2.4413043764590614 0 0.021682180202773974 2.3008812627220379 0 0.023640457417885955 2.4097274839628664 0 0.020223710074910257 2.4413043764590614 0 0.021682180202773974 2.3008812627220379 0 0.023640457417885955 2.4097274839628664 0 0.024341149411563665 2.3114248233697166 0 0.021682180202773974 2.3008812627220379 0 0.023640457417885955 2.4097274839628664 0 0.024341149411563665 2.3114248233697166 0 0.023812614392295955 2.4533131136870474 0 0.020443258639275368 2.4953335820299793 0 0.023812614392295955 2.4533131136870474 0 0.022045267237616024 2.3387921997362411 0 0.024341149411563665 2.3114248233697166 0 0.023812614392295955 2.4533131136870474 0 0.022045267237616024 2.3387921997362411 0 0.024341149411563665 2.3114248233697166 0 0.022045267237616024 2.3387921997362411 0 0.019849525048328969 2.1828569155460777 0 0.022045267237616024 2.3387921997362411 0 0.015272871712504398 2.2234060770054729 0 0.019849525048328969 2.1828569155460777 0 0.020443258639275368 2.4953335820299793 0 0.022045267237616024 2.3387921997362411 0 0.016036606933206334 2.3948452093035995 0 0.022045267237616024 2.3387921997362411 0 0.016036606933206334 2.3948452093035995 0 0.015272871712504398 2.2234060770054729 0 0.016036606933206334 2.3948452093035995 0 0.015272871712504398 2.2234060770054729 0 0.0086347800995162996 2.2842510003304914 0 0.015272871712504398 2.2234060770054729 0 0.0086347800995162996 2.2842510003304914 0 0.0064767245256058719 2.110314210318871 0 0.00026945740903358458 2.1943512974389718 0 0.0086347800995162996 2.2842510003304914 0 0.0064767245256058719 2.110314210318871 0 0.00038037301636798974 2.371006053618248 0 0.0086347800995162996 2.2842510003304914 0 0.0083544575157768076 2.4588128684294408 0 0.00026945740903358458 2.1943512974389718 0 0.00038037301636798974 2.371006053618248 0 0.0086347800995162996 2.2842510003304914 0 0.016036606933206334 2.3948452093035995 0 0.0086347800995162996 2.2842510003304914 0 0.0083544575157768076 2.4588128684294408 0 0.00038037301636798974 2.371006053618248 0 0.0083544575157768076 2.4588128684294408 0 0.00028298965917376959 2.5370085510412381 0 0.0083544575157768076 2.4588128684294408 0 0.00028298965917376959 2.5370085510412381 0 0.0070059700619998803 2.6197936298677931 0 0.0083544575157768076 2.4588128684294408 0 0.014233675261569375 2.5521136422625941 0 0.0070059700619998803 2.6197936298677931 0 0.016036606933206334 2.3948452093035995 0 0.0083544575157768076 2.4588128684294408 0 0.014233675261569375 2.5521136422625941 0 0.020443258639275368 2.4953335820299793 0 0.016036606933206334 2.3948452093035995 0 0.014233675261569375 2.5521136422625941 0 0.016584830551671478 2.6419582270338222 0 0.020443258639275368 2.4953335820299793 0 0.014233675261569375 2.5521136422625941 0 0.011789898796425679 2.7818717778398301 0 0.016584830551671478 2.6419582270338222 0 0.011061334718336428 2.7034356284056131 0 0.016584830551671478 2.6419582270338222 0 0.014233675261569375 2.5521136422625941 0 0.011061334718336428 2.7034356284056131 0 0.011789898796425679 2.7818717778398301 0 0.011061334718336428 2.7034356284056131 0 0.006616490122948817 2.865392596646537 0 0.011061334718336428 2.7034356284056131 0 0.0051165670438218661 2.7726148013562542 0 0.006616490122948817 2.865392596646537 0 0.014233675261569375 2.5521136422625941 0 0.011061334718336428 2.7034356284056131 0 0.0070059700619998803 2.6197936298677931 0 0.011061334718336428 2.7034356284056131 0 0.0070059700619998803 2.6197936298677931 0 0.0051165670438218661 2.7726148013562542 0 0.0070059700619998803 2.6197936298677931 0 0.00022309663170715153 2.6954309869506425 0 0.0051165670438218661 2.7726148013562542 0 0.00028298965917376959 2.5370085510412381 0 0.0070059700619998803 2.6197936298677931 0 0.00022309663170715153 2.6954309869506425 0 0.00022309663170715153 2.6954309869506425 0 0.0051165670438218661 2.7726148013562542 0 5.4785846472544488e-05 2.8649903024970023 0 0.0051165670438218661 2.7726148013562542 0 0.0027790867256517683 2.9001656187047296 0 0.006616490122948817 2.865392596646537 0 0.0051165670438218661 2.7726148013562542 0 0.0027790867256517683 2.9001656187047296 0 5.4785846472544488e-05 2.8649903024970023 0 0.0027790867256517683 2.9001656187047296 0 5.4785846472544488e-05 2.8649903024970023 0 2.2401039938485287e-06 2.9998506396709637 0 5.4785846472544488e-05 2.8649903024970023 0 2.2401039938485287e-06 2.9998506396709637 0 -2.2343549683791026e-06 2.9998505541631353 0 0.0027790867256517683 2.9001656187047296 0 2.2401039938485287e-06 2.9998506396709637 0 2.910473303064935e-06 2.9998530265994967 0 0.0027790867256517683 2.9001656187047296 0 2.910473303064935e-06 2.9998530265994967 0 0.006616490122948817 2.865392596646537 0 2.910473303064935e-06 2.9998530265994967 0 0.006616490122948817 2.865392596646537 0 5.9755867515826747e-06 2.9998574309356596 0 0.0063698113990145354 2.897075357846195 0 0.011789898796425679 2.7818717778398301 0 0.006616490122948817 2.865392596646537 0 0.0063698113990145354 2.897075357846195 0 0.006616490122948817 2.865392596646537 0 5.9755867515826747e-06 2.9998574309356596 0 -0.040631257150603499 1.7097416310449121 0 -0.032731241077844427 1.8539961618422509 0 -0.037787957822282774 1.8035870656028692 0 -0.032731241077844427 1.8539961618422509 0 -0.024581957844450216 1.8462684873982234 0 -0.034612599962500212 1.7298874413808456 0 -0.040631257150603499 1.7097416310449121 0 -0.039704026748797888 1.624712097010935 0 -0.034612599962500212 1.7298874413808456 0 -0.040631257150603499 1.7097416310449121 0 -0.032731241077844427 1.8539961618422509 0 -0.034612599962500212 1.7298874413808456 0 -0.039704026748797888 1.624712097010935 0 -0.043767507339450402 1.5693172863711622 0 -0.039570649174274948 1.5016951244324539 0 -0.04382426701296064 1.4305715100194876 0 -0.043767507339450402 1.5693172863711622 0 -0.039570649174274948 1.5016951244324539 0 -0.040631257150603499 1.7097416310449121 0 -0.039704026748797888 1.624712097010935 0 -0.043767507339450402 1.5693172863711622 0 -0.040631257150603499 1.7097416310449121 0 -0.043767507339450402 1.5693172863711622 0 -0.043073160737008911 1.6456899734295378 0 -0.043073160737008911 1.6456899734295378 0 -0.038182035623724159 1.6434087379256201 0 -0.037787957822282774 1.8035870656028692 0 -0.044372499169985119 1.4972627776819296 0 -0.043767507339450402 1.5693172863711622 0 -0.043073160737008911 1.6456899734295378 0 -0.044372499169985119 1.4972627776819296 0 -0.043073160737008911 1.6456899734295378 0 -0.038182035623724159 1.6434087379256201 0 -0.044372499169985119 1.4972627776819296 0 -0.033723780225264378 1.4935551953573738 0 -0.038182035623724159 1.6434087379256201 0 -0.027606762881980575 1.8100744005546034 0 -0.038182035623724159 1.6434087379256201 0 -0.037787957822282774 1.8035870656028692 0 -0.040631257150603499 1.7097416310449121 0 -0.043073160737008911 1.6456899734295378 0 -0.037787957822282774 1.8035870656028692 0 -0.032731241077844427 1.8539961618422509 0 -0.037787957822282774 1.8035870656028692 0 -0.027158183531420438 1.9546261958336877 0 -0.037787957822282774 1.8035870656028692 0 -0.023316556699171192 1.9678011332509207 0 -0.027158183531420438 1.9546261958336877 0 -0.027606762881980575 1.8100744005546034 0 -0.037787957822282774 1.8035870656028692 0 -0.023316556699171192 1.9678011332509207 0 -0.0077185728293373878 2.1557395470607075 0 -0.023316556699171192 1.9678011332509207 0 -0.012669474208638688 2.1146248355953574 0 -0.0077185728293373878 2.1557395470607075 0 -0.012669474208638688 2.1146248355953574 0 0.0098782483205754803 2.2322047101876064 0 -0.012669474208638688 2.1146248355953574 0 0.012339507884698645 2.1755446142529693 0 -0.0066298563042521894 2.0100255409935066 0 -0.023316556699171192 1.9678011332509207 0 -0.012669474208638688 2.1146248355953574 0 -0.027158183531420438 1.9546261958336877 0 -0.012669474208638688 2.1146248355953574 0 -0.027158183531420438 1.9546261958336877 0 -0.0066298563042521894 2.0100255409935066 0 0.015226934656464622 2.3476622052423624 0 0.0098782483205754803 2.2322047101876064 0 0.021682180202773974 2.3008812627220379 0 0.0098782483205754803 2.2322047101876064 0 0.012339507884698645 2.1755446142529693 0 0.021682180202773974 2.3008812627220379 0 -0.012669474208638688 2.1146248355953574 0 0.0098782483205754803 2.2322047101876064 0 0.012339507884698645 2.1755446142529693 0 0.012339507884698645 2.1755446142529693 0 0.021682180202773974 2.3008812627220379 0 0.018528962238491643 2.166772508090439 0 0.024341149411563665 2.3114248233697166 0 0.021682180202773974 2.3008812627220379 0 0.018528962238491643 2.166772508090439 0 0.012339507884698645 2.1755446142529693 0 0.018528962238491643 2.166772508090439 0 -0.0066298563042521894 2.0100255409935066 0 0.018528962238491643 2.166772508090439 0 0.013192765611303277 2.0608511350108301 0 0.019849525048328969 2.1828569155460777 0 0.018528962238491643 2.166772508090439 0 0.013192765611303277 2.0608511350108301 0 -0.0066298563042521894 2.0100255409935066 0 0.024341149411563665 2.3114248233697166 0 0.018528962238491643 2.166772508090439 0 0.019849525048328969 2.1828569155460777 0 -0.032731241077844427 1.8539961618422509 0 -0.027158183531420438 1.9546261958336877 0 -0.0066298563042521894 2.0100255409935066 0 0.013192765611303277 2.0608511350108301 0 -0.0066298563042521894 2.0100255409935066 0 0.0012336911793303406 1.9049675750580586 0 -0.0066298563042521894 2.0100255409935066 0 -0.024581957844450216 1.8462684873982234 0 0.0012336911793303406 1.9049675750580586 0 -0.032731241077844427 1.8539961618422509 0 -0.0066298563042521894 2.0100255409935066 0 -0.024581957844450216 1.8462684873982234 0 -0.024581957844450216 1.8462684873982234 0 0.0012336911793303406 1.9049675750580586 0 -0.018171369404880316 1.7962723181610352 0 0.0012336911793303406 1.9049675750580586 0 0.00050314118126303109 1.8627595969822703 0 -0.018171369404880316 1.7962723181610352 0 0.0012336911793303406 1.9049675750580586 0 0.00050314118126303109 1.8627595969822703 0 0.0098950967943288622 2.0411043637640853 0 0.00050314118126303109 1.8627595969822703 0 -0.018171369404880316 1.7962723181610352 0 -0.0089604305814947067 1.7693104378359528 0 0.015272871712504398 2.2234060770054729 0 0.019849525048328969 2.1828569155460777 0 0.0098950967943288622 2.0411043637640853 0 0.013192765611303277 2.0608511350108301 0 0.019849525048328969 2.1828569155460777 0 0.0098950967943288622 2.0411043637640853 0 0.013192765611303277 2.0608511350108301 0 0.0012336911793303406 1.9049675750580586 0 0.0098950967943288622 2.0411043637640853 0 0.00050314118126303109 1.8627595969822703 0 0.0098950967943288622 2.0411043637640853 0 0.0032830372795739924 1.9666800850134056 0 0.015272871712504398 2.2234060770054729 0 0.0098950967943288622 2.0411043637640853 0 0.0064767245256058719 2.110314210318871 0 0.0098950967943288622 2.0411043637640853 0 0.0064767245256058719 2.110314210318871 0 0.0032830372795739924 1.9666800850134056 0 0.0032830372795739924 1.9666800850134056 0 -5.9304915373138745e-05 2.0060134917642496 0 -7.0912882996125056e-07 1.8452887493364849 0 0.0064767245256058719 2.110314210318871 0 0.0032830372795739924 1.9666800850134056 0 -5.9304915373138745e-05 2.0060134917642496 0 0.00026945740903358458 2.1943512974389718 0 0.0064767245256058719 2.110314210318871 0 -5.9304915373138745e-05 2.0060134917642496 0 0.00050314118126303109 1.8627595969822703 0 -0.0089604305814947067 1.7693104378359528 0 -7.0912882996125056e-07 1.8452887493364849 0 0.00050314118126303109 1.8627595969822703 0 0.0032830372795739924 1.9666800850134056 0 -7.0912882996125056e-07 1.8452887493364849 0 -5.9304915373138745e-05 2.0060134917642496 0 -7.0912882996125056e-07 1.8452887493364849 0 -0.00011957237295445009 1.8453400494270236 0 -7.0912882996125056e-07 1.8452887493364849 0 -6.3469737582322637e-05 1.7614581102818927 0 -0.00011957237295445009 1.8453400494270236 0 -0.0089604305814947067 1.7693104378359528 0 -7.0912882996125056e-07 1.8452887493364849 0 -6.3469737582322637e-05 1.7614581102818927 0 -0.0089604305814947067 1.7693104378359528 0 -6.3469737582322637e-05 1.7614581102818927 0 -0.0073210177070608699 1.6789347873998612 0 -0.0073210177070608699 1.6789347873998612 0 -0.021681815254552636 1.6913609122591822 0 -0.01716062619325295 1.5950829479885917 0 -0.0089604305814947067 1.7693104378359528 0 -0.0073210177070608699 1.6789347873998612 0 -0.021681815254552636 1.6913609122591822 0 -0.018171369404880316 1.7962723181610352 0 -0.0089604305814947067 1.7693104378359528 0 -0.021681815254552636 1.6913609122591822 0 -0.021681815254552636 1.6913609122591822 0 -0.034612599962500212 1.7298874413808456 0 -0.032192452430412494 1.6075917564731623 0 -0.018171369404880316 1.7962723181610352 0 -0.021681815254552636 1.6913609122591822 0 -0.034612599962500212 1.7298874413808456 0 -0.024581957844450216 1.8462684873982234 0 -0.018171369404880316 1.7962723181610352 0 -0.034612599962500212 1.7298874413808456 0 -0.039704026748797888 1.624712097010935 0 -0.039570649174274948 1.5016951244324539 0 -0.032192452430412494 1.6075917564731623 0 -0.039570649174274948 1.5016951244324539 0 -0.032192452430412494 1.6075917564731623 0 -0.025847901245613581 1.5039533178241216 0 -0.039704026748797888 1.624712097010935 0 -0.034612599962500212 1.7298874413808456 0 -0.032192452430412494 1.6075917564731623 0 -0.021681815254552636 1.6913609122591822 0 -0.032192452430412494 1.6075917564731623 0 -0.01716062619325295 1.5950829479885917 0 -0.032192452430412494 1.6075917564731623 0 -0.025847901245613581 1.5039533178241216 0 -0.01716062619325295 1.5950829479885917 0 -0.025847901245613581 1.5039533178241216 0 -0.01716062619325295 1.5950829479885917 0 -0.0091033135136229446 1.5036919859478317 0 -0.0073210177070608699 1.6789347873998612 0 -0.01716062619325295 1.5950829479885917 0 -5.3807732295370069e-05 1.5913018089857449 0 -0.01716062619325295 1.5950829479885917 0 -0.0091033135136229446 1.5036919859478317 0 -5.3807732295370069e-05 1.5913018089857449 0 -0.0091033135136229446 1.5036919859478317 0 0.0089459864540165218 1.5036902564792416 0 -5.3807732295370069e-05 1.5913018089857449 0 0.0089459864540165218 1.5036902564792416 0 -5.3807732295370069e-05 1.5913018089857449 0 0.017001437935530685 1.5943899130276757 0 -5.3807732295370069e-05 1.5913018089857449 0 0.017001437935530685 1.5943899130276757 0 0.0072248649675857729 1.6788876324612609 0 0.0089459864540165218 1.5036902564792416 0 0.017001437935530685 1.5943899130276757 0 0.025920189165922539 1.503840598838017 0 0.017001437935530685 1.5943899130276757 0 0.025920189165922539 1.503840598838017 0 0.031721398093218237 1.605303466488661 0 0.017001437935530685 1.5943899130276757 0 0.031721398093218237 1.605303466488661 0 0.021375809697260145 1.6907829852387082 0 0.031721398093218237 1.605303466488661 0 0.034204500452802433 1.7296250700747484 0 0.039332511847649937 1.6258575179138202 0 0.031721398093218237 1.605303466488661 0 0.039374166272653936 1.5021703608685075 0 0.039332511847649937 1.6258575179138202 0 0.025920189165922539 1.503840598838017 0 0.031721398093218237 1.605303466488661 0 0.039374166272653936 1.5021703608685075 0 0.034204500452802433 1.7296250700747484 0 0.021375809697260145 1.6907829852387082 0 0.018215469877165678 1.7953774497445869 0 0.034204500452802433 1.7296250700747484 0 0.018215469877165678 1.7953774497445869 0 0.024438231896041523 1.8463390148477816 0 0.031721398093218237 1.605303466488661 0 0.034204500452802433 1.7296250700747484 0 0.021375809697260145 1.6907829852387082 0 0.021375809697260145 1.6907829852387082 0 0.0088231517067669154 1.7692720507538597 0 0.018215469877165678 1.7953774497445869 0 0.021375809697260145 1.6907829852387082 0 0.0072248649675857729 1.6788876324612609 0 0.0088231517067669154 1.7692720507538597 0 0.017001437935530685 1.5943899130276757 0 0.021375809697260145 1.6907829852387082 0 0.0072248649675857729 1.6788876324612609 0 -0.0073210177070608699 1.6789347873998612 0 -5.3807732295370069e-05 1.5913018089857449 0 0.0072248649675857729 1.6788876324612609 0 -6.3469737582322637e-05 1.7614581102818927 0 0.0072248649675857729 1.6788876324612609 0 0.0088231517067669154 1.7692720507538597 0 -6.3469737582322637e-05 1.7614581102818927 0 -0.0073210177070608699 1.6789347873998612 0 0.0072248649675857729 1.6788876324612609 0 -6.3469737582322637e-05 1.7614581102818927 0 -0.00011957237295445009 1.8453400494270236 0 0.0088231517067669154 1.7692720507538597 0 -0.00011957237295445009 1.8453400494270236 0 -0.0036359006062533167 1.9773367270348778 0 -0.00063130615435824764 1.8627342507655495 0 -0.00011957237295445009 1.8453400494270236 0 0.0088231517067669154 1.7692720507538597 0 -0.00063130615435824764 1.8627342507655495 0 0.00026945740903358458 2.1943512974389718 0 -5.9304915373138745e-05 2.0060134917642496 0 -0.0062190949917679686 2.122072374812257 0 -5.9304915373138745e-05 2.0060134917642496 0 -0.00011957237295445009 1.8453400494270236 0 -0.0036359006062533167 1.9773367270348778 0 -5.9304915373138745e-05 2.0060134917642496 0 -0.0036359006062533167 1.9773367270348778 0 -0.0062190949917679686 2.122072374812257 0 -0.0036359006062533167 1.9773367270348778 0 -0.0062190949917679686 2.122072374812257 0 -0.01013238737101148 2.0447233885961689 0 -0.0062190949917679686 2.122072374812257 0 -0.01013238737101148 2.0447233885961689 0 -0.015076153699607879 2.227716507534049 0 -0.0036359006062533167 1.9773367270348778 0 -0.01013238737101148 2.0447233885961689 0 -0.00063130615435824764 1.8627342507655495 0 -0.01013238737101148 2.0447233885961689 0 -0.020154306236875447 2.1868054974983853 0 -0.013345079148104592 2.0606800174189801 0 -0.01013238737101148 2.0447233885961689 0 -0.0013785628057972586 1.9049702543553473 0 -0.013345079148104592 2.0606800174189801 0 -0.01013238737101148 2.0447233885961689 0 -0.020154306236875447 2.1868054974983853 0 -0.015076153699607879 2.227716507534049 0 0.0088231517067669154 1.7692720507538597 0 0.018215469877165678 1.7953774497445869 0 -0.00063130615435824764 1.8627342507655495 0 -0.01013238737101148 2.0447233885961689 0 -0.00063130615435824764 1.8627342507655495 0 -0.0013785628057972586 1.9049702543553473 0 0.018215469877165678 1.7953774497445869 0 -0.00063130615435824764 1.8627342507655495 0 -0.0013785628057972586 1.9049702543553473 0 0.018215469877165678 1.7953774497445869 0 -0.0013785628057972586 1.9049702543553473 0 0.024438231896041523 1.8463390148477816 0 0.024438231896041523 1.8463390148477816 0 0.0065363803276092874 2.0099463223980929 0 0.03253020152487978 1.8537589601584457 0 -0.0013785628057972586 1.9049702543553473 0 0.024438231896041523 1.8463390148477816 0 0.0065363803276092874 2.0099463223980929 0 -0.0013785628057972586 1.9049702543553473 0 0.0065363803276092874 2.0099463223980929 0 -0.013345079148104592 2.0606800174189801 0 0.0065363803276092874 2.0099463223980929 0 0.027004193610501021 1.9547637059061052 0 0.03253020152487978 1.8537589601584457 0 -0.020154306236875447 2.1868054974983853 0 -0.018630559876899769 2.1665314270003337 0 -0.024763404227226705 2.3118606837478097 0 0.0065363803276092874 2.0099463223980929 0 -0.013345079148104592 2.0606800174189801 0 -0.018630559876899769 2.1665314270003337 0 -0.020154306236875447 2.1868054974983853 0 -0.013345079148104592 2.0606800174189801 0 -0.018630559876899769 2.1665314270003337 0 0.0065363803276092874 2.0099463223980929 0 -0.018630559876899769 2.1665314270003337 0 -0.012591861067343035 2.1758262045374712 0 -0.018630559876899769 2.1665314270003337 0 -0.021034197687669336 2.2776408895383602 0 -0.024763404227226705 2.3118606837478097 0 -0.018630559876899769 2.1665314270003337 0 -0.021034197687669336 2.2776408895383602 0 -0.012591861067343035 2.1758262045374712 0 -0.021034197687669336 2.2776408895383602 0 -0.012591861067343035 2.1758262045374712 0 -0.010130010425524196 2.2367050416108456 0 -0.012591861067343035 2.1758262045374712 0 -0.010130010425524196 2.2367050416108456 0 0.012481572044858837 2.114655024252464 0 -0.021034197687669336 2.2776408895383602 0 -0.010130010425524196 2.2367050416108456 0 -0.018013317727545945 2.3593711970477576 0 0.0065363803276092874 2.0099463223980929 0 0.027004193610501021 1.9547637059061052 0 0.012481572044858837 2.114655024252464 0 0.027004193610501021 1.9547637059061052 0 0.012481572044858837 2.114655024252464 0 0.022577995759664213 1.9764269418546583 0 0.0065363803276092874 2.0099463223980929 0 -0.012591861067343035 2.1758262045374712 0 0.012481572044858837 2.114655024252464 0 -0.010130010425524196 2.2367050416108456 0 0.012481572044858837 2.114655024252464 0 0.0078580311644401591 2.1557917593383533 0 0.012481572044858837 2.114655024252464 0 0.022577995759664213 1.9764269418546583 0 0.0078580311644401591 2.1557917593383533 0 0.022577995759664213 1.9764269418546583 0 0.037628409484109643 1.807796960382462 0 0.027114996259531801 1.8219947090076321 0 0.027004193610501021 1.9547637059061052 0 0.022577995759664213 1.9764269418546583 0 0.037628409484109643 1.807796960382462 0 0.027004193610501021 1.9547637059061052 0 0.037628409484109643 1.807796960382462 0 0.03253020152487978 1.8537589601584457 0 0.037628409484109643 1.807796960382462 0 0.042829324868562883 1.6523736521003527 0 0.040463370534343748 1.7097891770415239 0 0.037628409484109643 1.807796960382462 0 0.037851375967350054 1.6611315802188196 0 0.027114996259531801 1.8219947090076321 0 0.037851375967350054 1.6611315802188196 0 0.044257553103512454 1.5033290350600401 0 0.033589259372527352 1.5063946922578344 0 0.044257553103512454 1.5033290350600401 0 0.042829324868562883 1.6523736521003527 0 0.043626307878880957 1.5693853437461289 0 0.037851375967350054 1.6611315802188196 0 0.044257553103512454 1.5033290350600401 0 0.042829324868562883 1.6523736521003527 0 0.037628409484109643 1.807796960382462 0 0.037851375967350054 1.6611315802188196 0 0.042829324868562883 1.6523736521003527 0 0.042829324868562883 1.6523736521003527 0 0.043626307878880957 1.5693853437461289 0 0.040463370534343748 1.7097891770415239 0 0.044257553103512454 1.5033290350600401 0 0.043626307878880957 1.5693853437461289 0 0.043602416214884726 1.430646816549286 0 0.039374166272653936 1.5021703608685075 0 0.043626307878880957 1.5693853437461289 0 0.039332511847649937 1.6258575179138202 0 0.039374166272653936 1.5021703608685075 0 0.043626307878880957 1.5693853437461289 0 0.043602416214884726 1.430646816549286 0 0.043626307878880957 1.5693853437461289 0 0.039332511847649937 1.6258575179138202 0 0.040463370534343748 1.7097891770415239 0 0.034204500452802433 1.7296250700747484 0 0.03253020152487978 1.8537589601584457 0 0.040463370534343748 1.7097891770415239 0 0.034204500452802433 1.7296250700747484 0 0.039332511847649937 1.6258575179138202 0 0.040463370534343748 1.7097891770415239 0 0.034204500452802433 1.7296250700747484 0 0.024438231896041523 1.8463390148477816 0 0.03253020152487978 1.8537589601584457 0 0.037628409484109643 1.807796960382462 0 0.03253020152487978 1.8537589601584457 0 0.040463370534343748 1.7097891770415239 0 -6.0366615915470599e-06 2.9998573612837749 0 -0.0065098107263297979 2.865074364165495 0 -0.0063260854185285473 2.8969846891170743 0 -0.0065098107263297979 2.865074364165495 0 -0.011690296608878254 2.7813754925033591 0 -0.0063260854185285473 2.8969846891170743 0 -6.0366615915470599e-06 2.9998573612837749 0 -0.0065098107263297979 2.865074364165495 0 -2.8466287095310556e-06 2.9998530162738941 0 -0.0065098107263297979 2.865074364165495 0 -2.8466287095310556e-06 2.9998530162738941 0 -0.0026133582379206047 2.900730366608498 0 -2.8466287095310556e-06 2.9998530162738941 0 -2.2343549683791026e-06 2.9998505541631353 0 -0.0026133582379206047 2.900730366608498 0 5.4785846472544488e-05 2.8649903024970023 0 -2.2343549683791026e-06 2.9998505541631353 0 -0.0026133582379206047 2.900730366608498 0 5.4785846472544488e-05 2.8649903024970023 0 -0.0026133582379206047 2.900730366608498 0 -0.0046494527898551736 2.7742390333662863 0 -0.0065098107263297979 2.865074364165495 0 -0.0026133582379206047 2.900730366608498 0 -0.0046494527898551736 2.7742390333662863 0 0.00022309663170715153 2.6954309869506425 0 5.4785846472544488e-05 2.8649903024970023 0 -0.0046494527898551736 2.7742390333662863 0 0.00022309663170715153 2.6954309869506425 0 -0.0046494527898551736 2.7742390333662863 0 -0.0065206576088666524 2.6195222737469881 0 0.00028298965917376959 2.5370085510412381 0 0.00022309663170715153 2.6954309869506425 0 -0.0065206576088666524 2.6195222737469881 0 -0.0046494527898551736 2.7742390333662863 0 -0.0065206576088666524 2.6195222737469881 0 -0.010774121541919731 2.7028826047747958 0 -0.0065206576088666524 2.6195222737469881 0 -0.010774121541919731 2.7028826047747958 0 -0.013902572135291341 2.5507713297123682 0 -0.0065098107263297979 2.865074364165495 0 -0.0046494527898551736 2.7742390333662863 0 -0.010774121541919731 2.7028826047747958 0 -0.0065098107263297979 2.865074364165495 0 -0.010774121541919731 2.7028826047747958 0 -0.011690296608878254 2.7813754925033591 0 -0.010774121541919731 2.7028826047747958 0 -0.011690296608878254 2.7813754925033591 0 -0.016467650878811885 2.6412682358610629 0 -0.010774121541919731 2.7028826047747958 0 -0.016467650878811885 2.6412682358610629 0 -0.013902572135291341 2.5507713297123682 0 -0.016467650878811885 2.6412682358610629 0 -0.02038150765549545 2.4946037635019569 0 -0.013902572135291341 2.5507713297123682 0 -0.02038150765549545 2.4946037635019569 0 -0.013902572135291341 2.5507713297123682 0 -0.015726101985188444 2.3915148726308861 0 -0.013902572135291341 2.5507713297123682 0 -0.0077423038389669548 2.459849785284725 0 -0.015726101985188444 2.3915148726308861 0 -0.0065206576088666524 2.6195222737469881 0 -0.013902572135291341 2.5507713297123682 0 -0.0077423038389669548 2.459849785284725 0 0.00028298965917376959 2.5370085510412381 0 -0.0065206576088666524 2.6195222737469881 0 -0.0077423038389669548 2.459849785284725 0 0.00038037301636798974 2.371006053618248 0 0.00028298965917376959 2.5370085510412381 0 -0.0077423038389669548 2.459849785284725 0 -0.0077423038389669548 2.459849785284725 0 -0.0079673206324980782 2.2927313413304571 0 -0.015726101985188444 2.3915148726308861 0 0.00038037301636798974 2.371006053618248 0 -0.0077423038389669548 2.459849785284725 0 -0.0079673206324980782 2.2927313413304571 0 0.00026945740903358458 2.1943512974389718 0 0.00038037301636798974 2.371006053618248 0 -0.0079673206324980782 2.2927313413304571 0 0.00026945740903358458 2.1943512974389718 0 -0.0062190949917679686 2.122072374812257 0 -0.0079673206324980782 2.2927313413304571 0 -0.0062190949917679686 2.122072374812257 0 -0.0079673206324980782 2.2927313413304571 0 -0.015076153699607879 2.227716507534049 0 -0.0079673206324980782 2.2927313413304571 0 -0.015076153699607879 2.227716507534049 0 -0.015726101985188444 2.3915148726308861 0 -0.02038150765549545 2.4946037635019569 0 -0.015726101985188444 2.3915148726308861 0 -0.022075419259922225 2.3406313043516951 0 -0.015076153699607879 2.227716507534049 0 -0.015726101985188444 2.3915148726308861 0 -0.022075419259922225 2.3406313043516951 0 -0.020154306236875447 2.1868054974983853 0 -0.015076153699607879 2.227716507534049 0 -0.022075419259922225 2.3406313043516951 0 -0.020154306236875447 2.1868054974983853 0 -0.022075419259922225 2.3406313043516951 0 -0.024763404227226705 2.3118606837478097 0 -0.022075419259922225 2.3406313043516951 0 -0.02384116933521177 2.4529179008322926 0 -0.024763404227226705 2.3118606837478097 0 -0.02038150765549545 2.4946037635019569 0 -0.022075419259922225 2.3406313043516951 0 -0.02384116933521177 2.4529179008322926 0 -0.02384116933521177 2.4529179008322926 0 -0.024763404227226705 2.3118606837478097 0 -0.02316275055028489 2.4024389898931777 0 -0.021034197687669336 2.2776408895383602 0 -0.024763404227226705 2.3118606837478097 0 -0.02316275055028489 2.4024389898931777 0 -0.021034197687669336 2.2776408895383602 0 -0.018013317727545945 2.3593711970477576 0 -0.02316275055028489 2.4024389898931777 0 -0.018013317727545945 2.3593711970477576 0 -0.018301506150926055 2.4861392200413905 0 -0.02316275055028489 2.4024389898931777 0 -0.018301506150926055 2.4861392200413905 0 -0.02316275055028489 2.4024389898931777 0 -0.020728929412772167 2.5360758148385076 0 -0.02384116933521177 2.4529179008322926 0 -0.02316275055028489 2.4024389898931777 0 -0.020728929412772167 2.5360758148385076 0 -0.018301506150926055 2.4861392200413905 0 -0.020728929412772167 2.5360758148385076 0 -0.015459374578878403 2.6110760477614385 0 -0.020728929412772167 2.5360758148385076 0 -0.015459374578878403 2.6110760477614385 0 -0.016341151691716918 2.6670050645463328 0 -0.020728929412772167 2.5360758148385076 0 -0.020002340992024831 2.5915237472382668 0 -0.016341151691716918 2.6670050645463328 0 -0.02384116933521177 2.4529179008322926 0 -0.020728929412772167 2.5360758148385076 0 -0.020002340992024831 2.5915237472382668 0 -0.02038150765549545 2.4946037635019569 0 -0.02384116933521177 2.4529179008322926 0 -0.020002340992024831 2.5915237472382668 0 -0.016467650878811885 2.6412682358610629 0 -0.02038150765549545 2.4946037635019569 0 -0.020002340992024831 2.5915237472382668 0 -0.011690296608878254 2.7813754925033591 0 -0.016467650878811885 2.6412682358610629 0 -0.014730318698001853 2.7288657516686614 0 -0.016467650878811885 2.6412682358610629 0 -0.020002340992024831 2.5915237472382668 0 -0.014730318698001853 2.7288657516686614 0 -0.011690296608878254 2.7813754925033591 0 -0.014730318698001853 2.7288657516686614 0 -0.0081250954236483687 2.8651678273006143 0 -0.014730318698001853 2.7288657516686614 0 -0.01095351139987288 2.7951345210268386 0 -0.0081250954236483687 2.8651678273006143 0 -0.020002340992024831 2.5915237472382668 0 -0.014730318698001853 2.7288657516686614 0 -0.016341151691716918 2.6670050645463328 0 -0.014730318698001853 2.7288657516686614 0 -0.016341151691716918 2.6670050645463328 0 -0.01095351139987288 2.7951345210268386 0 -0.016341151691716918 2.6670050645463328 0 -0.011238331295498376 2.7380270513216689 0 -0.01095351139987288 2.7951345210268386 0 -0.015459374578878403 2.6110760477614385 0 -0.016341151691716918 2.6670050645463328 0 -0.011238331295498376 2.7380270513216689 0 -0.011238331295498376 2.7380270513216689 0 -0.01095351139987288 2.7951345210268386 0 -0.0058725565481971519 2.8785955982873976 0 -0.01095351139987288 2.7951345210268386 0 -0.0055256235615378374 2.90221251354121 0 -0.0058725565481971519 2.8785955982873976 0 -0.01095351139987288 2.7951345210268386 0 -0.0055256235615378374 2.90221251354121 0 -0.0081250954236483687 2.8651678273006143 0 -0.0058725565481971519 2.8785955982873976 0 -4.2033034003344871e-06 2.9998662790161701 0 -2.7072239548296247e-06 2.9998691776590092 0 -0.0055256235615378374 2.90221251354121 0 -0.0058725565481971519 2.8785955982873976 0 -4.2033034003344871e-06 2.9998662790161701 0 -0.0055256235615378374 2.90221251354121 0 -4.2033034003344871e-06 2.9998662790161701 0 -5.0988044519657509e-06 2.9998673702523813 0 -0.0055256235615378374 2.90221251354121 0 -5.0988044519657509e-06 2.9998673702523813 0 -0.0081250954236483687 2.8651678273006143 0 -0.011690296608878254 2.7813754925033591 0 -0.0081250954236483687 2.8651678273006143 0 -0.0063260854185285473 2.8969846891170743 0 -5.0988044519657509e-06 2.9998673702523813 0 -0.0081250954236483687 2.8651678273006143 0 -0.0063260854185285473 2.8969846891170743 0 -6.0366615915470599e-06 2.9998573612837749 0 -5.0988044519657509e-06 2.9998673702523813 0 -0.0063260854185285473 2.8969846891170743 0 5.3436509650888113e-07 2.9998680470335235 0 -0.0016237097878831618 2.8846762826414145 0 0.00037363414904705093 2.9139648870983756 0 -0.0016237097878831618 2.8846762826414145 0 -2.7842282276704627e-05 2.8043303102936985 0 0.00037363414904705093 2.9139648870983756 0 5.3436509650888113e-07 2.9998680470335235 0 -0.0016237097878831618 2.8846762826414145 0 -2.1298024507147951e-06 2.9998703543675083 0 -2.1298024507147951e-06 2.9998703543675083 0 -2.7072239548296247e-06 2.9998691776590092 0 -0.0028926067820645987 2.9133536212309634 0 -0.0016237097878831618 2.8846762826414145 0 -2.1298024507147951e-06 2.9998703543675083 0 -0.0028926067820645987 2.9133536212309634 0 -0.0058725565481971519 2.8785955982873976 0 -2.7072239548296247e-06 2.9998691776590092 0 -0.0028926067820645987 2.9133536212309634 0 -0.0058725565481971519 2.8785955982873976 0 -0.0028926067820645987 2.9133536212309634 0 -0.006113397192467466 2.8045078324699708 0 -0.0016237097878831618 2.8846762826414145 0 -0.0028926067820645987 2.9133536212309634 0 -0.006113397192467466 2.8045078324699708 0 -0.011238331295498376 2.7380270513216689 0 -0.0058725565481971519 2.8785955982873976 0 -0.006113397192467466 2.8045078324699708 0 -0.011238331295498376 2.7380270513216689 0 -0.006113397192467466 2.8045078324699708 0 -0.0094560200298026507 2.67906048385262 0 -0.015459374578878403 2.6110760477614385 0 -0.011238331295498376 2.7380270513216689 0 -0.0094560200298026507 2.67906048385262 0 -0.006113397192467466 2.8045078324699708 0 -0.0094560200298026507 2.67906048385262 0 -0.0039530059703828642 2.7459064579311279 0 -0.0094560200298026507 2.67906048385262 0 -0.0039530059703828642 2.7459064579311279 0 -0.0058548513492719528 2.6181076829701833 0 -0.0016237097878831618 2.8846762826414145 0 -0.006113397192467466 2.8045078324699708 0 -0.0039530059703828642 2.7459064579311279 0 -0.0016237097878831618 2.8846762826414145 0 -0.0039530059703828642 2.7459064579311279 0 -2.7842282276704627e-05 2.8043303102936985 0 -0.0039530059703828642 2.7459064579311279 0 -2.7842282276704627e-05 2.8043303102936985 0 -0.00092578285780771862 2.6777409172303153 0 -0.0039530059703828642 2.7459064579311279 0 -0.00092578285780771862 2.6777409172303153 0 -0.0058548513492719528 2.6181076829701833 0 -0.00092578285780771862 2.6777409172303153 0 -0.00148863021212798 2.5523396623564945 0 -0.0058548513492719528 2.6181076829701833 0 -0.00148863021212798 2.5523396623564945 0 -0.0058548513492719528 2.6181076829701833 0 -0.0069602558016894486 2.4961275466978994 0 -0.0058548513492719528 2.6181076829701833 0 -0.012111360236467424 2.5540941931604788 0 -0.0069602558016894486 2.4961275466978994 0 -0.0094560200298026507 2.67906048385262 0 -0.0058548513492719528 2.6181076829701833 0 -0.012111360236467424 2.5540941931604788 0 -0.015459374578878403 2.6110760477614385 0 -0.0094560200298026507 2.67906048385262 0 -0.012111360236467424 2.5540941931604788 0 -0.018301506150926055 2.4861392200413905 0 -0.015459374578878403 2.6110760477614385 0 -0.012111360236467424 2.5540941931604788 0 -0.012111360236467424 2.5540941931604788 0 -0.013048824135758506 2.4287992389923052 0 -0.0069602558016894486 2.4961275466978994 0 -0.018301506150926055 2.4861392200413905 0 -0.012111360236467424 2.5540941931604788 0 -0.013048824135758506 2.4287992389923052 0 -0.018013317727545945 2.3593711970477576 0 -0.018301506150926055 2.4861392200413905 0 -0.013048824135758506 2.4287992389923052 0 -0.018013317727545945 2.3593711970477576 0 -0.013048824135758506 2.4287992389923052 0 -0.0099481153152150437 2.3164418951956063 0 -0.013048824135758506 2.4287992389923052 0 -0.0066775006708199754 2.3775254367533547 0 -0.0099481153152150437 2.3164418951956063 0 -0.013048824135758506 2.4287992389923052 0 -0.0066775006708199754 2.3775254367533547 0 -0.0069602558016894486 2.4961275466978994 0 -0.00148863021212798 2.5523396623564945 0 -0.0069602558016894486 2.4961275466978994 0 -0.0016175448305418333 2.431834192409934 0 -0.0066775006708199754 2.3775254367533547 0 -0.0069602558016894486 2.4961275466978994 0 -0.0016175448305418333 2.431834192409934 0 -0.0066775006708199754 2.3775254367533547 0 -0.0016175448305418333 2.431834192409934 0 -0.002401769855151514 2.3206534561836736 0 -0.0016175448305418333 2.431834192409934 0 0.002101267476674766 2.3546063865337605 0 -0.002401769855151514 2.3206534561836736 0 -0.00148863021212798 2.5523396623564945 0 -0.0016175448305418333 2.431834192409934 0 0.0021862669967828161 2.4768790212760594 0 -0.0016175448305418333 2.431834192409934 0 0.0021862669967828161 2.4768790212760594 0 0.002101267476674766 2.3546063865337605 0 0.0021862669967828161 2.4768790212760594 0 0.002101267476674766 2.3546063865337605 0 0.0034633804840545571 2.3898983105100524 0 0.002101267476674766 2.3546063865337605 0 0.0034633804840545571 2.3898983105100524 0 0.0035916442973178862 2.2624511029668732 0 5.1676353566584379e-06 2.2857416981537484 0 0.0034633804840545571 2.3898983105100524 0 0.0035916442973178862 2.2624511029668732 0 6.7211589822152876e-06 2.4285847292313614 0 0.0034633804840545571 2.3898983105100524 0 0.0028558600487559225 2.522274915690494 0 5.1676353566584379e-06 2.2857416981537484 0 6.7211589822152876e-06 2.4285847292313614 0 0.0034633804840545571 2.3898983105100524 0 0.0021862669967828161 2.4768790212760594 0 0.0034633804840545571 2.3898983105100524 0 0.0028558600487559225 2.522274915690494 0 6.7211589822152876e-06 2.4285847292313614 0 0.0028558600487559225 2.522274915690494 0 4.689282218800839e-06 2.5714407272898225 0 0.0028558600487559225 2.522274915690494 0 4.689282218800839e-06 2.5714407272898225 0 0.0024223853312663052 2.657006527907678 0 0.0028558600487559225 2.522274915690494 0 0.0019063886696388897 2.6042836211671165 0 0.0024223853312663052 2.657006527907678 0 0.0021862669967828161 2.4768790212760594 0 0.0028558600487559225 2.522274915690494 0 0.0019063886696388897 2.6042836211671165 0 -0.00148863021212798 2.5523396623564945 0 0.0021862669967828161 2.4768790212760594 0 0.0019063886696388897 2.6042836211671165 0 -0.00092578285780771862 2.6777409172303153 0 -0.00148863021212798 2.5523396623564945 0 0.0019063886696388897 2.6042836211671165 0 -0.00092578285780771862 2.6777409172303153 0 0.0019063886696388897 2.6042836211671165 0 0.0018179463181510599 2.7338585977602969 0 -2.7842282276704627e-05 2.8043303102936985 0 -0.00092578285780771862 2.6777409172303153 0 0.0018179463181510599 2.7338585977602969 0 -2.7842282276704627e-05 2.8043303102936985 0 0.0018179463181510599 2.7338585977602969 0 0.0017019619659501084 2.8767669594534682 0 0.0018179463181510599 2.7338585977602969 0 0.0021164314403172169 2.7885861105929175 0 0.0017019619659501084 2.8767669594534682 0 0.0019063886696388897 2.6042836211671165 0 0.0018179463181510599 2.7338585977602969 0 0.0024223853312663052 2.657006527907678 0 0.0018179463181510599 2.7338585977602969 0 0.0024223853312663052 2.657006527907678 0 0.0021164314403172169 2.7885861105929175 0 4.689282218800839e-06 2.5714407272898225 0 0.0024223853312663052 2.657006527907678 0 4.0922518745083022e-06 2.7142865232865883 0 0.0024223853312663052 2.657006527907678 0 4.0922518745083022e-06 2.7142865232865883 0 0.0021164314403172169 2.7885861105929175 0 4.0922518745083022e-06 2.7142865232865883 0 0.0021164314403172169 2.7885861105929175 0 3.2958750455716859e-06 2.857164995742 0 0.0021164314403172169 2.7885861105929175 0 0.0012316643458568353 2.8986650165570982 0 0.0017019619659501084 2.8767669594534682 0 0.0021164314403172169 2.7885861105929175 0 0.0012316643458568353 2.8986650165570982 0 3.2958750455716859e-06 2.857164995742 0 0.0012316643458568353 2.8986650165570982 0 3.2209342469179402e-07 2.9999280722917248 0 2.2848550586794413e-06 2.9998444522551719 0 0.0012316643458568353 2.8986650165570982 0 3.2958750455716859e-06 2.857164995742 0 3.2209342469179402e-07 2.9999280722917248 0 0.0012316643458568353 2.8986650165570982 0 2.2848550586794413e-06 2.9998444522551719 0 0.0017019619659501084 2.8767669594534682 0 2.2848550586794413e-06 2.9998444522551719 0 0.0017019619659501084 2.8767669594534682 0 9.1578084377122313e-07 2.9998723516944152 0 -2.7842282276704627e-05 2.8043303102936985 0 0.0017019619659501084 2.8767669594534682 0 0.00037363414904705093 2.9139648870983756 0 5.3436509650888113e-07 2.9998680470335235 0 0.00037363414904705093 2.9139648870983756 0 9.1578084377122313e-07 2.9998723516944152 0 0.0017019619659501084 2.8767669594534682 0 0.00037363414904705093 2.9139648870983756 0 9.1578084377122313e-07 2.9998723516944152 0 0.0030569415083198537 1.8306096652404857 0 0.012027289539268978 1.6687543557444491 0 0.014718363062313233 1.8320690839041414 0 0.0030569415083198537 1.8306096652404857 0 0.014718363062313233 1.8320690839041414 0 0.0034898548007627856 2.0001310507231391 0 0.0030569415083198537 1.8306096652404857 0 0.0034898548007627856 2.0001310507231391 0 -0.0052172847946127142 1.9900797552308669 0 0.0030569415083198537 1.8306096652404857 0 0.012027289539268978 1.6687543557444491 0 0.00039076524751856462 1.6651413789987459 0 0.0068483330810471775 1.5067743055950089 0 0.012027289539268978 1.6687543557444491 0 0.00039076524751856462 1.6651413789987459 0 0.0068483330810471775 1.5067743055950089 0 0.012027289539268978 1.6687543557444491 0 0.020107350460581035 1.5066823385086283 0 0.012027289539268978 1.6687543557444491 0 0.025520559781059264 1.6672925893743336 0 0.014718363062313233 1.8320690839041414 0 0.012027289539268978 1.6687543557444491 0 0.025520559781059264 1.6672925893743336 0 0.020107350460581035 1.5066823385086283 0 0.025520559781059264 1.6672925893743336 0 0.020107350460581035 1.5066823385086283 0 0.033589259372527352 1.5063946922578344 0 0.037851375967350054 1.6611315802188196 0 0.025520559781059264 1.6672925893743336 0 0.033589259372527352 1.5063946922578344 0 0.037851375967350054 1.6611315802188196 0 0.025520559781059264 1.6672925893743336 0 0.027114996259531801 1.8219947090076321 0 0.025520559781059264 1.6672925893743336 0 0.027114996259531801 1.8219947090076321 0 0.014718363062313233 1.8320690839041414 0 0.027114996259531801 1.8219947090076321 0 0.014718363062313233 1.8320690839041414 0 0.013400089294087763 1.9952669768016054 0 0.014718363062313233 1.8320690839041414 0 0.013400089294087763 1.9952669768016054 0 0.0034898548007627856 2.0001310507231391 0 0.022577995759664213 1.9764269418546583 0 0.027114996259531801 1.8219947090076321 0 0.013400089294087763 1.9952669768016054 0 0.022577995759664213 1.9764269418546583 0 0.0078580311644401591 2.1557917593383533 0 0.013400089294087763 1.9952669768016054 0 0.0078580311644401591 2.1557917593383533 0 0.00063403427650905492 2.1715469219000592 0 -0.0033533040228538049 2.2293952813511733 0 0.00063403427650905492 2.1715469219000592 0 0.013400089294087763 1.9952669768016054 0 0.0034898548007627856 2.0001310507231391 0 0.0078580311644401591 2.1557917593383533 0 0.00063403427650905492 2.1715469219000592 0 0.013400089294087763 1.9952669768016054 0 -0.010130010425524196 2.2367050416108456 0 -0.018013317727545945 2.3593711970477576 0 -0.0099481153152150437 2.3164418951956063 0 -0.010130010425524196 2.2367050416108456 0 0.0078580311644401591 2.1557917593383533 0 -0.0033533040228538049 2.2293952813511733 0 -0.010130010425524196 2.2367050416108456 0 -0.0033533040228538049 2.2293952813511733 0 -0.0099481153152150437 2.3164418951956063 0 0.00063403427650905492 2.1715469219000592 0 -0.0033533040228538049 2.2293952813511733 0 -0.00480891329842558 2.2634998758973173 0 -0.0033533040228538049 2.2293952813511733 0 -0.0099481153152150437 2.3164418951956063 0 -0.00480891329842558 2.2634998758973173 0 -0.0066775006708199754 2.3775254367533547 0 -0.0099481153152150437 2.3164418951956063 0 -0.00480891329842558 2.2634998758973173 0 -0.00480891329842558 2.2634998758973173 0 -0.0062905467455908106 2.1684602744569959 0 -0.0051473490520131567 2.2290557175482704 0 -0.00480891329842558 2.2634998758973173 0 -0.002401769855151514 2.3206534561836736 0 -0.0051473490520131567 2.2290557175482704 0 -0.0066775006708199754 2.3775254367533547 0 -0.00480891329842558 2.2634998758973173 0 -0.002401769855151514 2.3206534561836736 0 0.00063403427650905492 2.1715469219000592 0 0.0034898548007627856 2.0001310507231391 0 -0.0062905467455908106 2.1684602744569959 0 0.00063403427650905492 2.1715469219000592 0 -0.00480891329842558 2.2634998758973173 0 -0.0062905467455908106 2.1684602744569959 0 0.0034898548007627856 2.0001310507231391 0 -0.0062905467455908106 2.1684602744569959 0 -0.0052172847946127142 1.9900797552308669 0 -0.0062905467455908106 2.1684602744569959 0 -0.0052172847946127142 1.9900797552308669 0 -0.012357311930429314 2.1472388862340925 0 -0.0052172847946127142 1.9900797552308669 0 -0.012357311930429314 2.1472388862340925 0 -0.010791696557564978 1.9714188871484761 0 -0.0062905467455908106 2.1684602744569959 0 -0.012357311930429314 2.1472388862340925 0 -0.0051473490520131567 2.2290557175482704 0 -0.012357311930429314 2.1472388862340925 0 -0.0011049812949642827 2.2287178149522324 0 -0.014247729376000618 2.1014482065452724 0 -0.012357311930429314 2.1472388862340925 0 -0.010791696557564978 1.9714188871484761 0 -0.014247729376000618 2.1014482065452724 0 0.002101267476674766 2.3546063865337605 0 -0.002401769855151514 2.3206534561836736 0 -0.0011049812949642827 2.2287178149522324 0 -0.012357311930429314 2.1472388862340925 0 -0.0051473490520131567 2.2290557175482704 0 -0.0011049812949642827 2.2287178149522324 0 -0.002401769855151514 2.3206534561836736 0 -0.0051473490520131567 2.2290557175482704 0 -0.0011049812949642827 2.2287178149522324 0 0.002101267476674766 2.3546063865337605 0 -0.0011049812949642827 2.2287178149522324 0 0.0035916442973178862 2.2624511029668732 0 -0.0011049812949642827 2.2287178149522324 0 0.00083878846132964054 2.1588782785540959 0 -0.014247729376000618 2.1014482065452724 0 -0.0011049812949642827 2.2287178149522324 0 0.0035916442973178862 2.2624511029668732 0 0.00083878846132964054 2.1588782785540959 0 0.00083878846132964054 2.1588782785540959 0 1.8264676426581116e-05 2.1428715995156016 0 -3.9384411847614525e-05 2.0001170286321548 0 0.0035916442973178862 2.2624511029668732 0 0.00083878846132964054 2.1588782785540959 0 1.8264676426581116e-05 2.1428715995156016 0 5.1676353566584379e-06 2.2857416981537484 0 0.0035916442973178862 2.2624511029668732 0 1.8264676426581116e-05 2.1428715995156016 0 -0.010791696557564978 1.9714188871484761 0 -0.010345990859622806 1.9483558923975575 0 -0.014247729376000618 2.1014482065452724 0 0.00083878846132964054 2.1588782785540959 0 -0.014247729376000618 2.1014482065452724 0 -3.9384411847614525e-05 2.0001170286321548 0 -0.010345990859622806 1.9483558923975575 0 -0.014247729376000618 2.1014482065452724 0 -3.9384411847614525e-05 2.0001170286321548 0 -0.010345990859622806 1.9483558923975575 0 -3.9384411847614525e-05 2.0001170286321548 0 -1.490952010949847e-05 1.8571609950727996 0 -0.010345990859622806 1.9483558923975575 0 -1.490952010949847e-05 1.8571609950727996 0 -0.0092832815360276311 1.8125284890951907 0 -1.490952010949847e-05 1.8571609950727996 0 -1.3959913117557538e-05 1.7143021757020915 0 -0.0092832815360276311 1.8125284890951907 0 -1.3959913117557538e-05 1.7143021757020915 0 -0.0092832815360276311 1.8125284890951907 0 -0.0056069849900163933 1.6533658988233131 0 -0.010791696557564978 1.9714188871484761 0 -0.010345990859622806 1.9483558923975575 0 -0.0092832815360276311 1.8125284890951907 0 -0.010791696557564978 1.9714188871484761 0 -0.0092832815360276311 1.8125284890951907 0 -0.0059131029845748912 1.8226618150600871 0 -0.0092832815360276311 1.8125284890951907 0 -0.0059131029845748912 1.8226618150600871 0 -0.0066694497199514336 1.6621690998702228 0 0.0030569415083198537 1.8306096652404857 0 -0.0059131029845748912 1.8226618150600871 0 0.00039076524751856462 1.6651413789987459 0 0.0030569415083198537 1.8306096652404857 0 -0.0052172847946127142 1.9900797552308669 0 -0.0059131029845748912 1.8226618150600871 0 -0.0052172847946127142 1.9900797552308669 0 -0.010791696557564978 1.9714188871484761 0 -0.0059131029845748912 1.8226618150600871 0 0.0068483330810471775 1.5067743055950089 0 -0.0032394768950831801 1.5074026194947829 0 0.00039076524751856462 1.6651413789987459 0 -0.0032394768950831801 1.5074026194947829 0 0.00039076524751856462 1.6651413789987459 0 -0.0066694497199514336 1.6621690998702228 0 -0.0059131029845748912 1.8226618150600871 0 0.00039076524751856462 1.6651413789987459 0 -0.0066694497199514336 1.6621690998702228 0 -0.0032394768950831801 1.5074026194947829 0 -0.0066694497199514336 1.6621690998702228 0 -0.0066088310211792449 1.503033823067484 0 -0.0066694497199514336 1.6621690998702228 0 -0.0066088310211792449 1.503033823067484 0 -0.0056069849900163933 1.6533658988233131 0 -0.0092832815360276311 1.8125284890951907 0 -0.0066694497199514336 1.6621690998702228 0 -0.0056069849900163933 1.6533658988233131 0 -1.3959913117557538e-05 1.7143021757020915 0 -0.0056069849900163933 1.6533658988233131 0 -1.1316776612593656e-05 1.5714378159443014 0 -0.0066088310211792449 1.503033823067484 0 -1.1316776612593656e-05 1.5714378159443014 0 -1.2305810636868529e-05 1.4285620937064452 0 -0.0066088310211792449 1.503033823067484 0 -0.0056069849900163933 1.6533658988233131 0 -1.1316776612593656e-05 1.5714378159443014 0 -0.0066088310211792449 1.503033823067484 0 -1.2305810636868529e-05 1.4285620937064452 0 -0.0058107771270971137 1.3436514819536944 0 -1.2305810636868529e-05 1.4285620937064452 0 -0.0058107771270971137 1.3436514819536944 0 -1.2914161043861586e-05 1.2856983663083443 0 -0.0058107771270971137 1.3436514819536944 0 -0.0091638464838455364 1.1964000741841647 0 -0.0065451865263032134 1.3602300822991316 0 -0.0066088310211792449 1.503033823067484 0 -0.0058107771270971137 1.3436514819536944 0 -0.0065451865263032134 1.3602300822991316 0 -1.5643921653237879e-05 1.1428383970040703 0 -0.0091638464838455364 1.1964000741841647 0 -0.010245157368909484 1.0518012317806833 0 -1.5643921653237879e-05 1.1428383970040703 0 -1.2914161043861586e-05 1.2856983663083443 0 -0.0091638464838455364 1.1964000741841647 0 -0.0058107771270971137 1.3436514819536944 0 -1.2914161043861586e-05 1.2856983663083443 0 -0.0091638464838455364 1.1964000741841647 0 -0.0091638464838455364 1.1964000741841647 0 -0.010681024403120397 1.0346729399407819 0 -0.010245157368909484 1.0518012317806833 0 -0.0091638464838455364 1.1964000741841647 0 -0.0057633088727161285 1.1873999771906578 0 -0.010681024403120397 1.0346729399407819 0 -0.0091638464838455364 1.1964000741841647 0 -0.0057633088727161285 1.1873999771906578 0 -0.0065451865263032134 1.3602300822991316 0 -0.0057633088727161285 1.1873999771906578 0 0.00043392751555125037 1.3466016841807205 0 0.0030773136356296088 1.1747619469909334 0 -0.0057633088727161285 1.1873999771906578 0 -0.0051548274450680526 1.0114708501099945 0 -0.010681024403120397 1.0346729399407819 0 -0.0057633088727161285 1.1873999771906578 0 0.0030773136356296088 1.1747619469909334 0 -0.0051548274450680526 1.0114708501099945 0 -0.0032394768950831801 1.5074026194947829 0 -0.0066088310211792449 1.503033823067484 0 -0.0065451865263032134 1.3602300822991316 0 -0.0057633088727161285 1.1873999771906578 0 -0.0065451865263032134 1.3602300822991316 0 0.00043392751555125037 1.3466016841807205 0 0.0068483330810471775 1.5067743055950089 0 -0.0032394768950831801 1.5074026194947829 0 0.00043392751555125037 1.3466016841807205 0 -0.0032394768950831801 1.5074026194947829 0 -0.0065451865263032134 1.3602300822991316 0 0.00043392751555125037 1.3466016841807205 0 0.0068483330810471775 1.5067743055950089 0 0.00043392751555125037 1.3466016841807205 0 0.012178642462116864 1.3428321682647926 0 0.0068483330810471775 1.5067743055950089 0 0.020107350460581035 1.5066823385086283 0 0.012178642462116864 1.3428321682647926 0 0.00043392751555125037 1.3466016841807205 0 0.012178642462116864 1.3428321682647926 0 0.0030773136356296088 1.1747619469909334 0 0.0030773136356296088 1.1747619469909334 0 0.0035670919009548972 1.001147249769609 0 -0.0051548274450680526 1.0114708501099945 0 0.0030773136356296088 1.1747619469909334 0 0.015139549043548334 1.1801425918032313 0 0.0035670919009548972 1.001147249769609 0 0.012178642462116864 1.3428321682647926 0 0.0030773136356296088 1.1747619469909334 0 0.015139549043548334 1.1801425918032313 0 0.015139549043548334 1.1801425918032313 0 0.027495831362689679 1.1902601960128234 0 0.02573433397443187 1.3468227877333796 0 0.015139549043548334 1.1801425918032313 0 0.013975626146269274 1.0149195507555637 0 0.027495831362689679 1.1902601960128234 0 0.015139549043548334 1.1801425918032313 0 0.013975626146269274 1.0149195507555637 0 0.0035670919009548972 1.001147249769609 0 0.013975626146269274 1.0149195507555637 0 0.027495831362689679 1.1902601960128234 0 0.023213246493400556 1.0322549576814994 0 0.027495831362689679 1.1902601960128234 0 0.02573433397443187 1.3468227877333796 0 0.038042914175486262 1.3565639922124026 0 0.033589259372527352 1.5063946922578344 0 0.02573433397443187 1.3468227877333796 0 0.038042914175486262 1.3565639922124026 0 0.020107350460581035 1.5066823385086283 0 0.033589259372527352 1.5063946922578344 0 0.02573433397443187 1.3468227877333796 0 0.020107350460581035 1.5066823385086283 0 0.012178642462116864 1.3428321682647926 0 0.02573433397443187 1.3468227877333796 0 0.012178642462116864 1.3428321682647926 0 0.015139549043548334 1.1801425918032313 0 0.02573433397443187 1.3468227877333796 0 -0.0039133652221422614 0.76522752086137125 0 -0.010391809110929472 0.67387440692579026 0 -0.0048529323581054159 0.7354497464451335 0 -0.0039133652221422614 0.76522752086137125 0 0.00067943756975786835 0.82843535349101249 0 -0.0048529323581054159 0.7354497464451335 0 -0.010391809110929472 0.67387440692579026 0 -0.018061976324092999 0.63370520707228173 0 -0.010582867297702348 0.75962689377836023 0 -0.0039133652221422614 0.76522752086137125 0 -0.010391809110929472 0.67387440692579026 0 -0.010582867297702348 0.75962689377836023 0 -0.0039133652221422614 0.76522752086137125 0 0.0078627149091162751 0.84427727608333458 0 -0.010582867297702348 0.75962689377836023 0 0.013975626146269274 1.0149195507555637 0 0.0078627149091162751 0.84427727608333458 0 0.023213246493400556 1.0322549576814994 0 0.013975626146269274 1.0149195507555637 0 0.0078627149091162751 0.84427727608333458 0 0.00067943756975786835 0.82843535349101249 0 0.013975626146269274 1.0149195507555637 0 0.00067943756975786835 0.82843535349101249 0 0.0035670919009548972 1.001147249769609 0 -0.0039133652221422614 0.76522752086137125 0 0.0078627149091162751 0.84427727608333458 0 0.00067943756975786835 0.82843535349101249 0 0.00067943756975786835 0.82843535349101249 0 -0.0062226203319622015 0.83136374055695017 0 -0.0048529323581054159 0.7354497464451335 0 0.00067943756975786835 0.82843535349101249 0 0.0035670919009548972 1.001147249769609 0 -0.0062226203319622015 0.83136374055695017 0 0.0035670919009548972 1.001147249769609 0 -0.0062226203319622015 0.83136374055695017 0 -0.0051548274450680526 1.0114708501099945 0 -0.0048529323581054159 0.7354497464451335 0 -0.0023268039736420486 0.67928750035849383 0 -0.0051263370497993425 0.7706789315379089 0 -0.0062226203319622015 0.83136374055695017 0 -0.0048529323581054159 0.7354497464451335 0 -0.0051263370497993425 0.7706789315379089 0 -0.010391809110929472 0.67387440692579026 0 -0.0048529323581054159 0.7354497464451335 0 -0.0067204147308722005 0.61635768694476512 0 -0.0048529323581054159 0.7354497464451335 0 -0.0023268039736420486 0.67928750035849383 0 -0.0067204147308722005 0.61635768694476512 0 -0.0023268039736420486 0.67928750035849383 0 -0.0011155560544423501 0.76986799396829109 0 0.0020762532022425917 0.64261038462089215 0 -0.0023268039736420486 0.67928750035849383 0 -0.0051263370497993425 0.7706789315379089 0 -0.0011155560544423501 0.76986799396829109 0 -0.0051263370497993425 0.7706789315379089 0 -0.0011155560544423501 0.76986799396829109 0 -0.012331661070453919 0.85285129977406038 0 -0.0011155560544423501 0.76986799396829109 0 0.0036354419492942518 0.73399046237190446 0 0.0020762532022425917 0.64261038462089215 0 -0.0062226203319622015 0.83136374055695017 0 -0.0051548274450680526 1.0114708501099945 0 -0.012331661070453919 0.85285129977406038 0 -0.0051548274450680526 1.0114708501099945 0 -0.012331661070453919 0.85285129977406038 0 -0.010681024403120397 1.0346729399407819 0 -0.0062226203319622015 0.83136374055695017 0 -0.0051263370497993425 0.7706789315379089 0 -0.012331661070453919 0.85285129977406038 0 -0.0011155560544423501 0.76986799396829109 0 -0.012331661070453919 0.85285129977406038 0 -0.014195682039015797 0.89867840677543276 0 -0.012331661070453919 0.85285129977406038 0 -0.010681024403120397 1.0346729399407819 0 -0.014195682039015797 0.89867840677543276 0 -0.010681024403120397 1.0346729399407819 0 -0.010245157368909484 1.0518012317806833 0 -0.014195682039015797 0.89867840677543276 0 -0.014195682039015797 0.89867840677543276 0 -3.922385145765336e-05 0.99988329213749305 0 0.00078908399444361501 0.84121015623743023 0 -0.010245157368909484 1.0518012317806833 0 -0.014195682039015797 0.89867840677543276 0 -3.922385145765336e-05 0.99988329213749305 0 -1.5643921653237879e-05 1.1428383970040703 0 -0.010245157368909484 1.0518012317806833 0 -3.922385145765336e-05 0.99988329213749305 0 -0.0011155560544423501 0.76986799396829109 0 0.0036354419492942518 0.73399046237190446 0 0.00078908399444361501 0.84121015623743023 0 -0.0011155560544423501 0.76986799396829109 0 -0.014195682039015797 0.89867840677543276 0 0.00078908399444361501 0.84121015623743023 0 -3.922385145765336e-05 0.99988329213749305 0 0.00078908399444361501 0.84121015623743023 0 1.8330808275272863e-05 0.85712789117475341 0 0.0036354419492942518 0.73399046237190446 0 0.00078908399444361501 0.84121015623743023 0 1.8330808275272863e-05 0.85712789117475341 0 0.0036354419492942518 0.73399046237190446 0 1.8330808275272863e-05 0.85712789117475341 0 5.0594394428335379e-06 0.71425872863439066 0 0.0036354419492942518 0.73399046237190446 0 5.0594394428335379e-06 0.71425872863439066 0 0.0034864909708816148 0.60882555970857932 0 0.0036354419492942518 0.73399046237190446 0 0.0034864909708816148 0.60882555970857932 0 0.0020762532022425917 0.64261038462089215 0 0.0034864909708816148 0.60882555970857932 0 0.0028373657628326613 0.47720506514086058 0 0.0022278802931562898 0.52190049380068959 0 0.0034864909708816148 0.60882555970857932 0 6.7225812962326094e-06 0.57141516086340882 0 0.0028373657628326613 0.47720506514086058 0 5.0594394428335379e-06 0.71425872863439066 0 0.0034864909708816148 0.60882555970857932 0 6.7225812962326094e-06 0.57141516086340882 0 6.7225812962326094e-06 0.57141516086340882 0 4.7118776825742357e-06 0.42855940123093861 0 0.0028373657628326613 0.47720506514086058 0 4.7118776825742357e-06 0.42855940123093861 0 0.0028373657628326613 0.47720506514086058 0 0.0023950002667617303 0.3401696397331212 0 0.0028373657628326613 0.47720506514086058 0 0.0020350033961872788 0.39623645327855123 0 0.0023950002667617303 0.3401696397331212 0 0.0028373657628326613 0.47720506514086058 0 0.0020350033961872788 0.39623645327855123 0 0.0022278802931562898 0.52190049380068959 0 0.0020350033961872788 0.39623645327855123 0 -0.00089314259175669484 0.32270012609440629 0 -0.001431532516675077 0.44696504882329063 0 0.0020350033961872788 0.39623645327855123 0 0.0022278802931562898 0.52190049380068959 0 -0.001431532516675077 0.44696504882329063 0 0.0022278802931562898 0.52190049380068959 0 -0.0016408838310158986 0.56644859226223121 0 -0.001431532516675077 0.44696504882329063 0 0.0020762532022425917 0.64261038462089215 0 0.0022278802931562898 0.52190049380068959 0 -0.0016408838310158986 0.56644859226223121 0 -0.0023268039736420486 0.67928750035849383 0 0.0020762532022425917 0.64261038462089215 0 -0.0016408838310158986 0.56644859226223121 0 0.0034864909708816148 0.60882555970857932 0 0.0020762532022425917 0.64261038462089215 0 0.0022278802931562898 0.52190049380068959 0 2.238993705628451e-06 0.00015549432230727101 0 0.0012354275854235884 0.10085682478818193 0 0.0017134801284156846 0.1210882524215445 0 2.238993705628451e-06 0.00015549432230727101 0 3.1280431467222941e-07 7.1986734002785606e-05 0 0.0012354275854235884 0.10085682478818193 0 3.1280431467222941e-07 7.1986734002785606e-05 0 3.3057200229388013e-06 0.14283484047195577 0 0.0012354275854235884 0.10085682478818193 0 3.3057200229388013e-06 0.14283484047195577 0 0.0012354275854235884 0.10085682478818193 0 0.0020544322038327052 0.20862273872754261 0 0.0012354275854235884 0.10085682478818193 0 0.0020544322038327052 0.20862273872754261 0 0.0017134801284156846 0.1210882524215445 0 3.3057200229388013e-06 0.14283484047195577 0 0.0020544322038327052 0.20862273872754261 0 4.1081380375569618e-06 0.28571346492315775 0 0.0020544322038327052 0.20862273872754261 0 4.1081380375569618e-06 0.28571346492315775 0 0.0023950002667617303 0.3401696397331212 0 4.7118776825742357e-06 0.42855940123093861 0 4.1081380375569618e-06 0.28571346492315775 0 0.0023950002667617303 0.3401696397331212 0 0.0020544322038327052 0.20862273872754261 0 0.0023950002667617303 0.3401696397331212 0 0.0018943316955854219 0.26235821511924823 0 0.0020350033961872788 0.39623645327855123 0 0.0023950002667617303 0.3401696397331212 0 0.0018943316955854219 0.26235821511924823 0 0.0020350033961872788 0.39623645327855123 0 0.0018943316955854219 0.26235821511924823 0 -0.00089314259175669484 0.32270012609440629 0 0.0018943316955854219 0.26235821511924823 0 5.1818672371535569e-05 0.1937083075616248 0 -0.00089314259175669484 0.32270012609440629 0 0.0018943316955854219 0.26235821511924823 0 5.1818672371535569e-05 0.1937083075616248 0 0.0017134801284156846 0.1210882524215445 0 0.0020544322038327052 0.20862273872754261 0 0.0018943316955854219 0.26235821511924823 0 0.0017134801284156846 0.1210882524215445 0 5.1818672371535569e-05 0.1937083075616248 0 0.0017134801284156846 0.1210882524215445 0 0.00031109299338422634 0.085860258798416592 0 0.0017134801284156846 0.1210882524215445 0 1.006927153177706e-06 0.00012781049867642663 0 0.00031109299338422634 0.085860258798416592 0 1.006927153177706e-06 0.00012781049867642663 0 0.00031109299338422634 0.085860258798416592 0 4.9503589312956692e-07 0.00013181973367068877 0 2.238993705628451e-06 0.00015549432230727101 0 0.0017134801284156846 0.1210882524215445 0 1.006927153177706e-06 0.00012781049867642663 0 4.9503589312956692e-07 0.00013181973367068877 0 -0.0016153079195010322 0.11491848280268753 0 -2.1767218422346282e-06 0.00012970173749250662 0 0.00031109299338422634 0.085860258798416592 0 4.9503589312956692e-07 0.00013181973367068877 0 -0.0016153079195010322 0.11491848280268753 0 5.1818672371535569e-05 0.1937083075616248 0 0.00031109299338422634 0.085860258798416592 0 -0.0016153079195010322 0.11491848280268753 0 -0.0016153079195010322 0.11491848280268753 0 -0.003915447162110247 0.25025096789402335 0 -0.0060732610213315033 0.18895871234934367 0 5.1818672371535569e-05 0.1937083075616248 0 -0.0016153079195010322 0.11491848280268753 0 -0.003915447162110247 0.25025096789402335 0 5.1818672371535569e-05 0.1937083075616248 0 -0.003915447162110247 0.25025096789402335 0 -0.00089314259175669484 0.32270012609440629 0 -0.003915447162110247 0.25025096789402335 0 -0.00089314259175669484 0.32270012609440629 0 -0.005870028188165506 0.37924517645958566 0 -0.003915447162110247 0.25025096789402335 0 -0.0095559399551334284 0.31796959786269824 0 -0.005870028188165506 0.37924517645958566 0 -0.0095559399551334284 0.31796959786269824 0 -0.01556739876723524 0.38830788386640486 0 -0.011282658996038541 0.25888964198754483 0 -0.0095559399551334284 0.31796959786269824 0 -0.0060732610213315033 0.18895871234934367 0 -0.011282658996038541 0.25888964198754483 0 -0.0060732610213315033 0.18895871234934367 0 -0.0057512570110324892 0.11806460497945741 0 -0.011282658996038541 0.25888964198754483 0 -0.003915447162110247 0.25025096789402335 0 -0.0095559399551334284 0.31796959786269824 0 -0.0060732610213315033 0.18895871234934367 0 -0.0016153079195010322 0.11491848280268753 0 -0.0060732610213315033 0.18895871234934367 0 -0.0027396581779197591 0.080526466778536601 0 -0.0060732610213315033 0.18895871234934367 0 -0.0027396581779197591 0.080526466778536601 0 -0.0057512570110324892 0.11806460497945741 0 -2.6842936589039217e-06 0.00013080531833706242 0 -0.0027396581779197591 0.080526466778536601 0 -0.0057512570110324892 0.11806460497945741 0 -2.6842936589039217e-06 0.00013080531833706242 0 -0.0027396581779197591 0.080526466778536601 0 -2.1767218422346282e-06 0.00012970173749250662 0 -0.0016153079195010322 0.11491848280268753 0 -0.0027396581779197591 0.080526466778536601 0 -2.1767218422346282e-06 0.00012970173749250662 0 -0.0069005635979451667 0.50138873895437253 0 -0.0067204147308722005 0.61635768694476512 0 -0.01292215857137425 0.56237704543821954 0 -0.0023268039736420486 0.67928750035849383 0 -0.0067204147308722005 0.61635768694476512 0 -0.0016408838310158986 0.56644859226223121 0 -0.0069005635979451667 0.50138873895437253 0 -0.0016408838310158986 0.56644859226223121 0 -0.001431532516675077 0.44696504882329063 0 -0.0069005635979451667 0.50138873895437253 0 -0.0067204147308722005 0.61635768694476512 0 -0.0016408838310158986 0.56644859226223121 0 -0.0069005635979451667 0.50138873895437253 0 -0.001431532516675077 0.44696504882329063 0 -0.005870028188165506 0.37924517645958566 0 -0.00089314259175669484 0.32270012609440629 0 -0.001431532516675077 0.44696504882329063 0 -0.005870028188165506 0.37924517645958566 0 -0.0069005635979451667 0.50138873895437253 0 -0.005870028188165506 0.37924517645958566 0 -0.01208303334022225 0.44207032440238253 0 -0.0095559399551334284 0.31796959786269824 0 -0.005870028188165506 0.37924517645958566 0 -0.01208303334022225 0.44207032440238253 0 -0.0095559399551334284 0.31796959786269824 0 -0.01208303334022225 0.44207032440238253 0 -0.01556739876723524 0.38830788386640486 0 -0.01208303334022225 0.44207032440238253 0 -0.018289845132078656 0.51389610617368986 0 -0.01556739876723524 0.38830788386640486 0 -0.01292215857137425 0.56237704543821954 0 -0.018061976324092999 0.63370520707228173 0 -0.018289845132078656 0.51389610617368986 0 -0.01208303334022225 0.44207032440238253 0 -0.01292215857137425 0.56237704543821954 0 -0.018289845132078656 0.51389610617368986 0 -0.0069005635979451667 0.50138873895437253 0 -0.01208303334022225 0.44207032440238253 0 -0.01292215857137425 0.56237704543821954 0 -0.010391809110929472 0.67387440692579026 0 -0.0067204147308722005 0.61635768694476512 0 -0.01292215857137425 0.56237704543821954 0 -0.010391809110929472 0.67387440692579026 0 -0.01292215857137425 0.56237704543821954 0 -0.018061976324092999 0.63370520707228173 0 -0.018061976324092999 0.63370520707228173 0 -0.023153726398562502 0.59394393955437053 0 -0.021387664926530953 0.71833865440349598 0 -0.023153726398562502 0.59394393955437053 0 -0.024730777216912428 0.68804568290333812 0 -0.021387664926530953 0.71833865440349598 0 -0.023153726398562502 0.59394393955437053 0 -0.020748318310646094 0.46498765736518255 0 -0.023773335811669682 0.54704520106066679 0 -0.018061976324092999 0.63370520707228173 0 -0.023153726398562502 0.59394393955437053 0 -0.018289845132078656 0.51389610617368986 0 -0.023153726398562502 0.59394393955437053 0 -0.018289845132078656 0.51389610617368986 0 -0.020748318310646094 0.46498765736518255 0 -0.018289845132078656 0.51389610617368986 0 -0.01556739876723524 0.38830788386640486 0 -0.020748318310646094 0.46498765736518255 0 -0.01556739876723524 0.38830788386640486 0 -0.020748318310646094 0.46498765736518255 0 -0.016350437436830532 0.33239113509302026 0 -0.020748318310646094 0.46498765736518255 0 -0.019990456425415859 0.40846331257963975 0 -0.016350437436830532 0.33239113509302026 0 -0.020748318310646094 0.46498765736518255 0 -0.019990456425415859 0.40846331257963975 0 -0.023773335811669682 0.54704520106066679 0 -0.019990456425415859 0.40846331257963975 0 -0.016496455048779654 0.35436305454075978 0 -0.020370780435704464 0.50444842812567103 0 -0.019990456425415859 0.40846331257963975 0 -0.023773335811669682 0.54704520106066679 0 -0.020370780435704464 0.50444842812567103 0 -0.024730777216912428 0.68804568290333812 0 -0.023773335811669682 0.54704520106066679 0 -0.02205610677702588 0.65818690720153372 0 -0.023773335811669682 0.54704520106066679 0 -0.02205610677702588 0.65818690720153372 0 -0.020370780435704464 0.50444842812567103 0 -0.024730777216912428 0.68804568290333812 0 -0.02205610677702588 0.65818690720153372 0 -0.020092940765420644 0.81150002399848231 0 -0.023153726398562502 0.59394393955437053 0 -0.024730777216912428 0.68804568290333812 0 -0.023773335811669682 0.54704520106066679 0 -4.1867472059665799e-06 0.00013373522232522922 0 -0.0055439452586823409 0.097811412795867886 0 -5.1099776776999359e-06 0.00013262869037471598 0 -4.1867472059665799e-06 0.00013373522232522922 0 -0.0057512570110324892 0.11806460497945741 0 -0.0055439452586823409 0.097811412795867886 0 -2.6842936589039217e-06 0.00013080531833706242 0 -4.1867472059665799e-06 0.00013373522232522922 0 -0.0057512570110324892 0.11806460497945741 0 -0.0055439452586823409 0.097811412795867886 0 -0.010892173176659256 0.2025080409650486 0 -0.0081382159745874896 0.13484843387738854 0 -0.0057512570110324892 0.11806460497945741 0 -0.0055439452586823409 0.097811412795867886 0 -0.010892173176659256 0.2025080409650486 0 -0.0057512570110324892 0.11806460497945741 0 -0.010892173176659256 0.2025080409650486 0 -0.011282658996038541 0.25888964198754483 0 -0.01556739876723524 0.38830788386640486 0 -0.011282658996038541 0.25888964198754483 0 -0.016350437436830532 0.33239113509302026 0 -0.010892173176659256 0.2025080409650486 0 -0.011282658996038541 0.25888964198754483 0 -0.016350437436830532 0.33239113509302026 0 -0.010892173176659256 0.2025080409650486 0 -0.016350437436830532 0.33239113509302026 0 -0.014738713761133504 0.27113843686909311 0 -0.019990456425415859 0.40846331257963975 0 -0.016350437436830532 0.33239113509302026 0 -0.014738713761133504 0.27113843686909311 0 -0.014738713761133504 0.27113843686909311 0 -0.016496455048779654 0.35436305454075978 0 -0.011637195878799302 0.21433933392577156 0 -0.019990456425415859 0.40846331257963975 0 -0.014738713761133504 0.27113843686909311 0 -0.016496455048779654 0.35436305454075978 0 -0.014738713761133504 0.27113843686909311 0 -0.011637195878799302 0.21433933392577156 0 -0.0081382159745874896 0.13484843387738854 0 -0.010892173176659256 0.2025080409650486 0 -0.014738713761133504 0.27113843686909311 0 -0.0081382159745874896 0.13484843387738854 0 -0.011637195878799302 0.21433933392577156 0 -0.0081382159745874896 0.13484843387738854 0 -0.0063291962684703393 0.10237154599424934 0 -0.0081382159745874896 0.13484843387738854 0 -0.0063291962684703393 0.10237154599424934 0 -5.1099776776999359e-06 0.00013262869037471598 0 -0.0063291962684703393 0.10237154599424934 0 -5.1099776776999359e-06 0.00013262869037471598 0 -5.914938839861567e-06 0.00014271828162856784 0 -0.0055439452586823409 0.097811412795867886 0 -0.0081382159745874896 0.13484843387738854 0 -5.1099776776999359e-06 0.00013262869037471598 0 -3.0012725998499677e-06 0.00014683550832108021 0 -5.914938839861567e-06 0.00014271828162856784 0 -0.0065247455306026263 0.13133954920191301 0 -3.0012725998499677e-06 0.00014683550832108021 0 -0.0065247455306026263 0.13133954920191301 0 -0.0026302943126474657 0.097784192039773135 0 -0.0063291962684703393 0.10237154599424934 0 -5.914938839861567e-06 0.00014271828162856784 0 -0.0065247455306026263 0.13133954920191301 0 -0.011637195878799302 0.21433933392577156 0 -0.0063291962684703393 0.10237154599424934 0 -0.0065247455306026263 0.13133954920191301 0 -0.0065247455306026263 0.13133954920191301 0 -0.010962070884195317 0.29087935777736146 0 -0.0049550867042660873 0.22315285866664972 0 -0.011637195878799302 0.21433933392577156 0 -0.0065247455306026263 0.13133954920191301 0 -0.010962070884195317 0.29087935777736146 0 -0.016496455048779654 0.35436305454075978 0 -0.011637195878799302 0.21433933392577156 0 -0.010962070884195317 0.29087935777736146 0 -0.016496455048779654 0.35436305454075978 0 -0.010962070884195317 0.29087935777736146 0 -0.014282976695239549 0.44789976513797675 0 -0.010962070884195317 0.29087935777736146 0 -0.0066006015327947027 0.37967628003059323 0 -0.014282976695239549 0.44789976513797675 0 -0.010962070884195317 0.29087935777736146 0 -0.0066006015327947027 0.37967628003059323 0 -0.0049550867042660873 0.22315285866664972 0 0.0003695488415231787 0.45954054291042801 0 0.00024728396480367353 0.29623615126710745 0 -0.0066006015327947027 0.37967628003059323 0 0.00024728396480367353 0.29623615126710745 0 -0.0066006015327947027 0.37967628003059323 0 -0.0049550867042660873 0.22315285866664972 0 0.00024728396480367353 0.29623615126710745 0 3.9604288629306669e-05 0.13343958340329815 0 -0.0049550867042660873 0.22315285866664972 0 -0.0065247455306026263 0.13133954920191301 0 -0.0049550867042660873 0.22315285866664972 0 -0.0026302943126474657 0.097784192039773135 0 3.9604288629306669e-05 0.13343958340329815 0 -0.0049550867042660873 0.22315285866664972 0 -0.0026302943126474657 0.097784192039773135 0 3.9604288629306669e-05 0.13343958340329815 0 -2.1949298392582229e-06 0.00014951187165374832 0 -0.0026302943126474657 0.097784192039773135 0 -3.0012725998499677e-06 0.00014683550832108021 0 -2.1949298392582229e-06 0.00014951187165374832 0 -0.0026302943126474657 0.097784192039773135 0 -0.015748016651737862 0.60630863282629055 0 -0.014916525944693445 0.7702083715082495 0 -0.00793302466025733 0.70480500290157921 0 -0.014916525944693445 0.7702083715082495 0 -0.02205610677702588 0.65818690720153372 0 -0.020092940765420644 0.81150002399848231 0 -0.015748016651737862 0.60630863282629055 0 -0.014916525944693445 0.7702083715082495 0 -0.02205610677702588 0.65818690720153372 0 -0.015748016651737862 0.60630863282629055 0 -0.02205610677702588 0.65818690720153372 0 -0.020370780435704464 0.50444842812567103 0 -0.015748016651737862 0.60630863282629055 0 -0.020370780435704464 0.50444842812567103 0 -0.014282976695239549 0.44789976513797675 0 -0.016496455048779654 0.35436305454075978 0 -0.020370780435704464 0.50444842812567103 0 -0.014282976695239549 0.44789976513797675 0 -0.015748016651737862 0.60630863282629055 0 -0.014282976695239549 0.44789976513797675 0 -0.0078227016462155356 0.53886656935648281 0 -0.0066006015327947027 0.37967628003059323 0 -0.014282976695239549 0.44789976513797675 0 -0.0078227016462155356 0.53886656935648281 0 0.0003695488415231787 0.45954054291042801 0 -0.0066006015327947027 0.37967628003059323 0 -0.0078227016462155356 0.53886656935648281 0 0.00031760557695311017 0.62540678831689245 0 0.0003695488415231787 0.45954054291042801 0 -0.0078227016462155356 0.53886656935648281 0 0.00031760557695311017 0.62540678831689245 0 -0.0078227016462155356 0.53886656935648281 0 -0.00793302466025733 0.70480500290157921 0 0.00031760557695311017 0.62540678831689245 0 0.00025416147733049521 0.79600228439150134 0 -0.00793302466025733 0.70480500290157921 0 -0.015748016651737862 0.60630863282629055 0 -0.0078227016462155356 0.53886656935648281 0 -0.00793302466025733 0.70480500290157921 0 -0.014916525944693445 0.7702083715082495 0 -0.00793302466025733 0.70480500290157921 0 -0.0062649562625273474 0.87797867449824774 0 0.00025416147733049521 0.79600228439150134 0 -0.00793302466025733 0.70480500290157921 0 -0.0062649562625273474 0.87797867449824774 0 0.00025416147733049521 0.79600228439150134 0 -4.2534840811428108e-05 0.99195646903986734 0 -0.0062649562625273474 0.87797867449824774 0 -4.2534840811428108e-05 0.99195646903986734 0 -0.0033753727154976522 1.0262035608779592 0 -0.0062649562625273474 0.87797867449824774 0 -4.2534840811428108e-05 0.99195646903986734 0 -0.0033753727154976522 1.0262035608779592 0 -0.0002003734420238786 1.1547307193505973 0 -0.0033753727154976522 1.0262035608779592 0 -0.0062649562625273474 0.87797867449824774 0 -0.010052186108606453 0.95468253919374846 0 -0.014916525944693445 0.7702083715082495 0 -0.0062649562625273474 0.87797867449824774 0 -0.010052186108606453 0.95468253919374846 0 -0.0033753727154976522 1.0262035608779592 0 -0.010052186108606453 0.95468253919374846 0 -0.0006317668826596154 1.1371821341869814 0 -0.010052186108606453 0.95468253919374846 0 -0.0012856619128669253 1.0949720616002778 0 -0.013269872817857541 0.93927091599880608 0 -0.010052186108606453 0.95468253919374846 0 -0.020092940765420644 0.81150002399848231 0 -0.013269872817857541 0.93927091599880608 0 -0.014916525944693445 0.7702083715082495 0 -0.010052186108606453 0.95468253919374846 0 -0.020092940765420644 0.81150002399848231 0 -0.0012856619128669253 1.0949720616002778 0 0.018794375935993989 1.2082220611512229 0 0.024414193882318216 1.1535665789913183 0 -0.0012856619128669253 1.0949720616002778 0 -0.0006317668826596154 1.1371821341869814 0 0.018794375935993989 1.2082220611512229 0 -0.010052186108606453 0.95468253919374846 0 -0.0012856619128669253 1.0949720616002778 0 -0.0006317668826596154 1.1371821341869814 0 -0.0006317668826596154 1.1371821341869814 0 0.0093173352515779784 1.2356886644097174 0 0.018794375935993989 1.2082220611512229 0 -0.0006317668826596154 1.1371821341869814 0 -0.0002003734420238786 1.1547307193505973 0 0.0093173352515779784 1.2356886644097174 0 -0.0033753727154976522 1.0262035608779592 0 -0.0006317668826596154 1.1371821341869814 0 -0.0002003734420238786 1.1547307193505973 0 -6.961308202431132e-05 1.240877048406652 0 -0.0002003734420238786 1.1547307193505973 0 0.0093173352515779784 1.2356886644097174 0 -6.961308202431132e-05 1.240877048406652 0 0.0073287531253416775 1.3271677379858198 0 0.0093173352515779784 1.2356886644097174 0 0.0073287531253416775 1.3271677379858198 0 0.017093912776519442 1.4131095729464065 0 0.021756955217551333 1.3158680281293689 0 0.0073287531253416775 1.3271677379858198 0 0.0093173352515779784 1.2356886644097174 0 0.021756955217551333 1.3158680281293689 0 -7.4637581685309861e-05 1.4159583378271616 0 -0.0091033135136229446 1.5036919859478317 0 0.0089459864540165218 1.5036902564792416 0 -7.4637581685309861e-05 1.4159583378271616 0 0.0089459864540165218 1.5036902564792416 0 0.017093912776519442 1.4131095729464065 0 -7.4637581685309861e-05 1.4159583378271616 0 0.0073287531253416775 1.3271677379858198 0 0.017093912776519442 1.4131095729464065 0 0.0089459864540165218 1.5036902564792416 0 0.025920189165922539 1.503840598838017 0 0.017093912776519442 1.4131095729464065 0 0.025920189165922539 1.503840598838017 0 0.017093912776519442 1.4131095729464065 0 0.032049892555691108 1.4044056563759308 0 0.017093912776519442 1.4131095729464065 0 0.032049892555691108 1.4044056563759308 0 0.021756955217551333 1.3158680281293689 0 0.032049892555691108 1.4044056563759308 0 0.034401161707453297 1.2746548407019116 0 0.039519020373618825 1.3810913432125267 0 0.039374166272653936 1.5021703608685075 0 0.032049892555691108 1.4044056563759308 0 0.039519020373618825 1.3810913432125267 0 0.025920189165922539 1.503840598838017 0 0.039374166272653936 1.5021703608685075 0 0.032049892555691108 1.4044056563759308 0 0.0093173352515779784 1.2356886644097174 0 0.018794375935993989 1.2082220611512229 0 0.021756955217551333 1.3158680281293689 0 0.032049892555691108 1.4044056563759308 0 0.021756955217551333 1.3158680281293689 0 0.034401161707453297 1.2746548407019116 0 0.018794375935993989 1.2082220611512229 0 0.021756955217551333 1.3158680281293689 0 0.034401161707453297 1.2746548407019116 0 0.018794375935993989 1.2082220611512229 0 0.034401161707453297 1.2746548407019116 0 0.024414193882318216 1.1535665789913183 0 0.034401161707453297 1.2746548407019116 0 0.032597157585613851 1.1461587420502102 0 0.024414193882318216 1.1535665789913183 0 0.034401161707453297 1.2746548407019116 0 0.040416239198152931 1.290191987006746 0 0.039519020373618825 1.3810913432125267 0 0.034401161707453297 1.2746548407019116 0 0.040416239198152931 1.290191987006746 0 0.032597157585613851 1.1461587420502102 0 0.040416239198152931 1.290191987006746 0 0.032597157585613851 1.1461587420502102 0 0.037664303165984445 1.1964557316215141 0 0.039374166272653936 1.5021703608685075 0 0.039519020373618825 1.3810913432125267 0 0.043602416214884726 1.430646816549286 0 0.040416239198152931 1.290191987006746 0 0.039519020373618825 1.3810913432125267 0 0.043602416214884726 1.430646816549286 0 0.040416239198152931 1.290191987006746 0 0.043602416214884726 1.430646816549286 0 0.042902572404572965 1.3544085084651889 0 0.044257553103512454 1.5033290350600401 0 0.042902572404572965 1.3544085084651889 0 0.038042914175486262 1.3565639922124026 0 0.044257553103512454 1.5033290350600401 0 0.043602416214884726 1.430646816549286 0 0.042902572404572965 1.3544085084651889 0 0.042902572404572965 1.3544085084651889 0 0.038042914175486262 1.3565639922124026 0 0.037664303165984445 1.1964557316215141 0 0.044257553103512454 1.5033290350600401 0 0.033589259372527352 1.5063946922578344 0 0.038042914175486262 1.3565639922124026 0 0.032597157585613851 1.1461587420502102 0 0.037664303165984445 1.1964557316215141 0 0.027010297717291472 1.0454233524428918 0 0.037664303165984445 1.1964557316215141 0 0.023213246493400556 1.0322549576814994 0 0.027010297717291472 1.0454233524428918 0 0.040416239198152931 1.290191987006746 0 0.042902572404572965 1.3544085084651889 0 0.037664303165984445 1.1964557316215141 0 0.027495831362689679 1.1902601960128234 0 0.038042914175486262 1.3565639922124026 0 0.037664303165984445 1.1964557316215141 0 0.027495831362689679 1.1902601960128234 0 0.037664303165984445 1.1964557316215141 0 0.023213246493400556 1.0322549576814994 0 0.0078627149091162751 0.84427727608333458 0 0.023213246493400556 1.0322549576814994 0 0.012382805988805028 0.88535127053675 0 0.027010297717291472 1.0454233524428918 0 0.012382805988805028 0.88535127053675 0 0.0065812884628559569 0.99005964557195558 0 0.023213246493400556 1.0322549576814994 0 0.027010297717291472 1.0454233524428918 0 0.012382805988805028 0.88535127053675 0 0.012382805988805028 0.88535127053675 0 -0.012543894819360012 0.82410737143107027 0 0.0065812884628559569 0.99005964557195558 0 0.0078627149091162751 0.84427727608333458 0 0.012382805988805028 0.88535127053675 0 -0.010582867297702348 0.75962689377836023 0 0.012382805988805028 0.88535127053675 0 -0.010582867297702348 0.75962689377836023 0 -0.012543894819360012 0.82410737143107027 0 -0.018061976324092999 0.63370520707228173 0 -0.010582867297702348 0.75962689377836023 0 -0.021387664926530953 0.71833865440349598 0 -0.010582867297702348 0.75962689377836023 0 -0.021387664926530953 0.71833865440349598 0 -0.012543894819360012 0.82410737143107027 0 -0.021387664926530953 0.71833865440349598 0 -0.012543894819360012 0.82410737143107027 0 -0.018665349097418942 0.83362121409744461 0 -0.012543894819360012 0.82410737143107027 0 -0.018665349097418942 0.83362121409744461 0 0.0065812884628559569 0.99005964557195558 0 -0.024730777216912428 0.68804568290333812 0 -0.021387664926530953 0.71833865440349598 0 -0.018665349097418942 0.83362121409744461 0 -0.024730777216912428 0.68804568290333812 0 -0.020092940765420644 0.81150002399848231 0 -0.018665349097418942 0.83362121409744461 0 -0.020092940765420644 0.81150002399848231 0 -0.018665349097418942 0.83362121409744461 0 -0.013269872817857541 0.93927091599880608 0 -0.018665349097418942 0.83362121409744461 0 -0.013269872817857541 0.93927091599880608 0 0.0065812884628559569 0.99005964557195558 0 -0.0012856619128669253 1.0949720616002778 0 -0.013269872817857541 0.93927091599880608 0 0.0065812884628559569 0.99005964557195558 0 0.032597157585613851 1.1461587420502102 0 0.024414193882318216 1.1535665789913183 0 0.0065812884628559569 0.99005964557195558 0 -0.0012856619128669253 1.0949720616002778 0 0.024414193882318216 1.1535665789913183 0 0.0065812884628559569 0.99005964557195558 0 0.032597157585613851 1.1461587420502102 0 0.027010297717291472 1.0454233524428918 0 0.0065812884628559569 0.99005964557195558 0 
</DataArray>
</PointData>
<CellData Scalars="region_id,displacement_divergence," Vectors="" Tensors="stress,">
<DataArray type="Float64" Name="region_id" format="ascii">
5 5 5 5 5 5 5 5 5 5 5 5 5 5 5 5 5 5 5 5 5 5 5 5 5 5 5 5 5 5 5 5 5 5 5 5 5 5 5 5 5 5 5 5 5 5 5 5 5 5 5 5 5 5 5 5 5 5 5 5 5 5 5 5 5 5 5 5 5 5 5 6 6 6 6 6 6 5 5 5 5 5 5 5 5 5 5 5 5 5 5 5 5 6 6 6 5 6 6 6 6 6 6 6 6 6 6 6 6 6 6 6 6 6 6 6 6 6 6 6 6 6 6 6 6 6 6 6 6 6 6 6 5 5 5 5 5 5 5 5 5 5 5 5 5 5 5 5 5 5 5 6 6 5 6 6 6 6 6 6 6 6 6 5 6 5 5 5 5 6 6 6 6 6 5 5 5 5 5 5 6 6 5 5 6 6 6 6 6 6 6 5 5 5 5 5 6 6 6 6 6 6 6 6 6 6 6 6 6 6 6 6 6 6 6 6 6 5 5 5 5 5 5 6 6 6 6 6 5 5 5 5 5 5 5 5 5 5 6 6 6 6 6 6 5 5 5 5 5 5 6 6 6 6 6 6 6 6 6 6 6 6 6 6 6 6 6 6 6 6 6 6 6 6 6 6 6 6 6 6 6 6 6 6 6 6 6 5 6 5 5 5 5 5 5 5 5 5 6 5 5 6 6 6 5 6 5 5 5 5 5 5 5 5 6 6 5 6 6 6 6 6 6 6 6 6 6 6 6 6 6 6 6 5 5 5 5 5 5 5 5 5 5 5 5 5 5 5 5 5 5 5 5 5 5 5 5 5 5 5 5 5 5 5 5 5 5 5 5 5 5 5 5 5 5 5 5 5 5 5 5 5 5 5 5 5 5 5 5 5 5 5 5 5 5 5 5 5 6 6 6 5 5 5 5 5 5 5 5 5 5 5 5 6 6 6 6 6 5 5 5 5 5 5 5 5 5 5 5 6 6 6 6 6 6 6 6 6 6 6 6 6 6 6 6 6 6 6 6 6 6 6 6 6 6 6 6 6 6 6 6 6 6 6 6 6 5 5 5 5 5 5 6 6 6 6 6 6 6 6 6 6 6 5 5 6 6 5 5 5 5 5 5 6 6 6 6 6 5 5 5 5 6 5 6 6 6 6 6 6 6 6 6 5 6 6 5 5 5 5 5 5 5 5 5 5 5 5 5 5 5 5 5 5 5 5 5 5 5 5 5 5 5 5 5 5 5 5 5 5 5 5 6 5 6 6 6 6 6 6 6 6 6 5 6 5 5 5 5 6 6 6 6 6 5 5 5 5 5 5 6 6 5 5 6 6 6 6 6 6 6 6 6 6 6 6 5 5 5 5 5 5 6 6 6 6 6 6 6 6 6 6 6 6 6 6 6 6 6 6 6 6 6 6 6 6 6 6 6 6 6 6 6 6 6 6 6 6 5 5 5 5 5 5 5 5 5 5 6 6 6 6 6 5 5 5 5 5 5 5 5 5 5 5 5 6 6 6 5 5 5 5 5 5 5 5 5 5 5 5 5 5 5 5 5 5 5 5 5 5 5 5 5 5 5 5 5 5 5 5 5 5 5 5 5 5 5 5 5 5 5 5 5 5 5 5 5 5 5 5 5 5 5 5 5 5 5 5 5 5 5 5 5 6 6 6 6 6 6 6 6 6 6 6 6 6 6 6 6 5 6 6 5 5 5 5 5 5 5 5 5 6 5 6 6 6 5 5 6 5 5 5 5 5 5 5 5 5 6 5 6 6 6 6 6 6 6 6 6 6 6 6 6 6 6 6 6 6 6 6 6 6 6 6 6 6 6 6 6 6 6 6 6 6 6 6 6 6 6 6 6 6 6 6 6 6 6 6 6 6 6 6 5 5 5 5 5 6 6 6 5 5 6 6 5 5 5 5 5 5 5 5 6 6 5 5 6 6 5 6 6 5 5 5 5 5 5 5 5 5 5 5 5 5 5 5 5 5 5 5 5 5 5 5 5 5 5 5 5 5 5 5 5 5 5 5 5 5 5 5 5 5 5 5 5 5 5 5 5 5 5 5 5 5 5 5 5 5 5 5 5 5 5 5 5 5 5 5 5 5 5 5 5 5 5 5 5 5 5 5 6 6 6 6 6 5 5 5 5 5 5 5 5 5 5 5 6 6 6 5 6 6 6 5 6 6 6 6 6 6 6 6 6 6 6 6 6 6 6 6 6 6 6 6 6 6 6 6 6 6 6 6 6 6 6 6 6 6 6 6 6 6 6 6 6 5 5 6 5 5 6 5 5 5 5 5 5 5 5 5 5 5 5 5 5 5 5 5 5 5 5 6 5 5 6 6 6 6 6 6 6 6 6 6 6 6 6 5 5 5 5 5 5 5 5 6 6 6 6 5 5 6 
</DataArray>
<DataArray type="Float64" Name="stress" NumberOfComponents="9" format="ascii">
-0.0011112039655946644 -0.58575824374259189 0 -0.58575824374259189 96.780927376986924 0 0 0 0 -1.2288307707124249 -1.5487641975262321 0 -1.5487641975262321 99.934658851301009 0 0 0 0 -0.23839474907928482 -1.9361988389192888 0 -1.9361988389192888 95.80561662148115 0 0 0 0 -0.30453849087213003 -1.6726011753909233 0 -1.6726011753909233 96.154578518860163 0 0 0 0 -1.4254661837376328 -2.4519860103431981 0 -2.4519860103431981 96.506894736705561 0 0 0 0 -1.7787474567587076 -3.3598180034563114 0 -3.3598180034563114 100.01324604523221 0 0 0 0 -2.101827019414451 -5.87077237500894 0 -5.87077237500894 99.994805848567154 0 0 0 0 -1.8909819850931999 -4.3624084113336821 0 -4.3624084113336821 96.044794059562435 0 0 0 0 -0.48887358614936938 -5.0698182775141163 0 -5.0698182775141163 95.581424627507801 0 0 0 0 0.5022401990704739 -2.8011565375156975 0 -2.8011565375156975 93.894851463068548 0 0 0 0 0.54317417102791921 -2.9271702227942455 0 -2.9271702227942455 92.677027096995232 0 0 0 0 1.9511805899171279 -3.7018167409092513 0 -3.7018167409092513 91.425520042980011 0 0 0 0 2.0502743253115212 -1.564154250109695 0 -1.564154250109695 88.994941352840655 0 0 0 0 2.0468071799194831 -1.4825349393637453 0 -1.4825349393637453 91.250530878303323 0 0 0 0 0.86021360727522522 -1.1324637363115997 0 -1.1324637363115997 92.093292809745321 0 0 0 0 0.89338381186888416 -1.4747227568092924 0 -1.4747227568092924 93.03483718103854 0 0 0 0 0.0010551849221541827 -0.22181844169244933 0 -0.22181844169244933 91.92514589329457 0 0 0 0 0.00025415587315611333 -0.74352536159883786 0 -0.74352536159883786 94.21725668078048 0 0 0 0 -0.35244742361043041 -11.317847016086928 0 -11.317847016086928 88.940557310745135 0 0 0 0 -3.1274093867826172 -16.270964710895072 0 -16.270964710895072 92.011740430711825 0 0 0 0 -2.8164604160668594 -10.913859474996116 0 -10.913859474996116 93.433496434823098 0 0 0 0 -3.2113878603472163 -13.057694939388512 0 -13.057694939388512 99.994871526893121 0 0 0 0 -0.31397409447935365 -10.817269045786304 0 -10.817269045786304 93.323392866108748 0 0 0 0 -2.5235049287909348 -8.8428624116775865 0 -8.8428624116775865 99.995357249586505 0 0 0 0 -2.332595575673273 -7.6584106242468124 0 -7.6584106242468124 95.333303659310218 0 0 0 0 -0.42648910610505425 -5.4680195211705342 0 -5.4680195211705342 94.188518004720606 0 0 0 0 1.0422028731969735 -6.8310560593922105 0 -6.8310560593922105 91.714094869534364 0 0 0 0 3.3463919543057288 -3.8071131453156113 0 -3.8071131453156113 87.931654666825153 0 0 0 0 1.9822388894676204 -3.9025137510676391 0 -3.9025137510676391 88.264141880676959 0 0 0 0 3.346409375537327 -4.0875941821922197 0 -4.0875941821922197 83.103306795900608 0 0 0 0 1.0628721765014166 -7.2918373571520609 0 -7.2918373571520609 88.16556119356477 0 0 0 0 2.8078078805785323 -7.5815723732446259 0 -7.5815723732446259 87.250635886178827 0 0 0 0 3.1513923426545594 -6.3763981409659323 0 -6.3763981409659323 81.888646452618389 0 0 0 0 2.8120800160512038 -7.570412016926082 0 -7.570412016926082 80.614083417869097 0 0 0 0 2.0878884272277229 -12.375404179757851 0 -12.375404179757851 86.682904373283861 0 0 0 0 3.6026196638070069 -1.2063522608218022 0 -1.2063522608218022 80.288739718570923 0 0 0 0 4.1867711867831252 -3.1996968861429247 0 -3.1996968861429247 77.800173699705738 0 0 0 0 4.1893386134207731 -2.9742803411222609 0 -2.9742803411222609 84.108322498277346 0 0 0 0 4.3812125704193914 -0.65820925148653942 0 -0.65820925148653942 81.369207382387884 0 0 0 0 3.3642061532964949 -1.4895523313916783 0 -1.4895523313916783 85.290513826029098 0 0 0 0 4.381210815934466 -0.28109514483358566 0 -0.28109514483358566 86.337384995467204 0 0 0 0 4.4043644589839586 3.1768257930803259 0 3.1768257930803259 87.033842377454278 0 0 0 0 3.8292171825647023 1.1482391387606117 0 1.1482391387606117 84.887712904952423 0 0 0 0 3.330499786347267 3.4524476168563751 0 3.4524476168563751 87.085863120684309 0 0 0 0 4.4074987417473004 2.7176416219085162 0 2.7176416219085162 82.53251005689367 0 0 0 0 4.79853148710614 1.5377901695920286 0 1.5377901695920286 83.764576424945403 0 0 0 0 4.6450135908053944 5.8865616504280922 0 5.8865616504280922 86.254181622293913 0 0 0 0 4.7502988035496267 4.7279882021807236 0 4.7279882021807236 80.135946429673368 0 0 0 0 4.7983658870648105 0.75342973911207445 0 0.75342973911207445 77.62735070214751 0 0 0 0 4.2229182595706449 3.8104111802419709 0 3.8104111802419709 81.347551158998726 0 0 0 0 0.001154019001835681 0.63296859833723584 0 0.63296859833723584 90.763137905850968 0 0 0 0 1.4788332155566855 -0.28164286959116841 0 -0.28164286959116841 91.324345144772138 0 0 0 0 1.475280957283656 -0.11658083307747047 0 -0.11658083307747047 89.81285805683126 0 0 0 0 3.3633143758279402 -1.2610372757338606 0 -1.2610372757338606 88.937396057644236 0 0 0 0 2.7628385493399215 0.2647800860517151 0 0.2647800860517151 87.461263818420093 0 0 0 0 2.7498814130567544 0.32518412068134239 0 0.32518412068134239 89.896487803840955 0 0 0 0 2.700948248178892 2.1410142364257148 0 2.1410142364257148 90.098569229750424 0 0 0 0 2.7016926752150656 2.0381854349858344 0 2.0381854349858344 88.012700976041884 0 0 0 0 3.8243896449442887 1.3832115793482522 0 1.3832115793482522 88.394551283768124 0 0 0 0 3.3294974455189976 3.7122517873708603 0 3.7122517873708603 89.69696808150988 0 0 0 0 1.3788167901792789 2.2479430642173952 0 2.2479430642173952 90.401837395040758 0 0 0 0 1.6478094457187304 1.152778986300838 0 1.152778986300838 89.316393587826738 0 0 0 0 0.0012840132787559774 1.5516200614510998 0 1.5516200614510998 90.936240926082561 0 0 0 0 1.6446317503414725 1.1818867194744924 0 1.1818867194744924 90.852661383245675 0 0 0 0 1.3931255916768599 2.4778886759134906 0 2.4778886759134906 91.535067719084111 0 0 0 0 0.00036415657080414313 2.3022930932342298 0 2.3022930932342298 92.102865333612456 0 0 0 0 0.7066323241172201 2.9884602297032306 0 2.9884602297032306 92.930811991045374 0 0 0 0 0.76852464635136464 3.0992198637057804 0 3.0992198637057804 92.973876620866008 0 0 0 0 0.00096174313000569993 2.677622252562831 0 2.677622252562831 93.3119843424126 0 0 0 0 0.76985436471969981 3.1552954545050751 0 3.1552954545050751 92.85929121066745 0 0 0 0 0.39796671146699758 3.3647017940192825 0 3.3647017940192825 94.289138456989491 0 0 0 0 -0.0069371946076934865 2.6245304909334024 0 2.6245304909334024 49.570608760529765 0 0 0 0 0.17578399056339089 2.4301362220364524 0 2.4301362220364524 47.144569228494746 0 0 0 0 0.00022639921011263211 1.5277364901220194 0 1.5277364901220194 49.12492628367842 0 0 0 0 -0.31480786923425619 4.4771543135210479 0 4.4771543135210479 48.154995999801827 0 0 0 0 -0.26073615729371813 3.7650720451596555 0 3.7650720451596555 50.399396906939046 0 0 0 0 0.053742545056233215 3.2071484967953054 0 3.2071484967953054 47.59351056966905 0 0 0 0 0.64218384846970622 3.8036211743551007 0 3.8036211743551007 95.187021139338071 0 0 0 0 0.72047577066944868 5.1081932827241161 0 5.1081932827241161 96.309991999603739 0 0 0 0 0.89329870067567185 3.8395502357517799 0 3.8395502357517799 93.118030313661279 0 0 0 0 1.869961912050945 4.9045025781962579 0 4.9045025781962579 92.428700652079456 0 0 0 0 1.9553392952799413 3.4310158457943913 0 3.4310158457943913 91.464623996918618 0 0 0 0 1.9427106681369364 3.3265912640511548 0 3.3265912640511548 90.60139339736557 0 0 0 0 3.3008534610791038 5.8722321324480902 0 5.8722321324480902 89.776182101988496 0 0 0 0 3.2869397735207109 5.5043041669369952 0 5.5043041669369952 87.062001172052589 0 0 0 0 1.0611036550286137 5.9949442064127823 0 5.9949442064127823 92.761450216482075 0 0 0 0 1.8391911951666466 4.7568092223727412 0 4.7568092223727412 92.10743818693345 0 0 0 0 4.4224720996859368 9.507566363391561 0 9.507566363391561 85.833723684204784 0 0 0 0 1.3247974014756316 7.6438788997968459 0 7.6438788997968459 92.126126691689933 0 0 0 0 2.7582351287271685 8.7599496377546302 0 8.7599496377546302 91.48465580847693 0 0 0 0 1.7980357166385339 12.123358738079958 0 12.123358738079958 90.99759623211304 0 0 0 0 2.8380561772635007 7.7200827561005951 0 7.7200827561005951 88.602401046924683 0 0 0 0 0.48448641549205185 9.6344257553041643 0 9.6344257553041643 99.293625858348946 0 0 0 0 -1.0106178904949017 7.1904609851084231 0 7.1904609851084231 53.316375083394206 0 0 0 0 -0.81383613103163555 8.0727716787754389 0 8.0727716787754389 49.646812929174459 0 0 0 0 -1.3756254643204171 9.4544662131514769 0 9.4544662131514769 55.993358089457928 0 0 0 0 0.77493759750357416 6.9034058588675009 0 6.9034058588675009 96.770331262971581 0 0 0 0 -0.58050053311992222 6.1571940775335889 0 6.1571940775335889 48.385165631485769 0 0 0 0 -0.59892520255251824 5.2421296041219065 0 5.2421296041219065 51.546852743849826 0 0 0 0 -1.6866821510021373 4.1028851966954107 0 4.1028851966954107 51.590038177075208 0 0 0 0 -2.1440022451815524 4.7731715101453247 0 4.7731715101453247 55.004069676131138 0 0 0 0 -2.7497957024803732 2.8295254636626197 0 2.8295254636626197 55.119159549465969 0 0 0 0 -2.337044330954253 6.2354278712781337 0 6.2354278712781337 55.874463962203777 0 0 0 0 -2.1118460105402042 5.2238556551812252 0 5.2238556551812252 53.315664080460657 0 0 0 0 -2.6008607051882269 5.9909597699527808 0 5.9909597699527808 57.522892042386701 0 0 0 0 -2.9099074838403181 3.2424041195312441 0 3.2424041195312441 57.50245197160951 0 0 0 0 -3.1222238017856965 3.9056506103192987 0 3.9056506103192987 60.484113385877635 0 0 0 0 -3.107625595445056 3.3369440349464696 0 3.3369440349464696 57.772129952170246 0 0 0 0 -3.3001046308040602 1.3944027778807424 0 1.3944027778807424 59.514209245242625 0 0 0 0 -3.2578996870808292 0.94324974013677831 0 0.94324974013677831 57.826969022308816 0 0 0 0 -2.9280256847545183 0.81379976571949442 0 0.81379976571949442 60.409730058877756 0 0 0 0 -2.6450347995049182 2.6158711349993666 0 2.6158711349993666 55.549024419141716 0 0 0 0 -3.2286950192152926 1.1136830910293298 0 1.1136830910293298 57.158546382377722 0 0 0 0 -2.9640694813326061 0.89935083826776463 0 0.89935083826776463 55.625871660276914 0 0 0 0 -2.7089380917485806 0.78650364987133514 0 0.78650364987133514 55.225645094588188 0 0 0 0 -1.9859547278357517 1.8823662981767129 0 1.8823662981767129 53.890220127718287 0 0 0 0 -1.8997302694255773 0.46004260237789474 0 0.46004260237789474 53.748276806200707 0 0 0 0 -2.2792300268302781 0.77006532730015209 0 0.77006532730015209 53.938020587640352 0 0 0 0 -1.0871864209916786 0.49834753874622351 0 0.49834753874622351 52.454887657629847 0 0 0 0 -0.0015764895689772307 0.0078325982299090671 0 0.0078325982299090671 52.666044725382505 0 0 0 0 -0.00020128921173652805 0.74601630633315719 0 0.74601630633315719 52.145283338621248 0 0 0 0 -1.1741782982780833 1.257432152549395 0 1.257432152549395 52.713296087817142 0 0 0 0 -1.2277762981416975 0.71630945816202285 0 0.71630945816202285 52.764326274764947 0 0 0 0 -0.0010681728660050264 1.270156282009169 0 1.270156282009169 50.954067595006116 0 0 0 0 -0.84598430588015117 1.5685880095808937 0 1.5685880095808937 51.368148254402328 0 0 0 0 -0.48950647060928154 2.3087335371161961 0 2.3087335371161961 49.762267566126305 0 0 0 0 -0.40458227896333421 2.0889856486494232 0 2.0889856486494232 49.688988678898482 0 0 0 0 -1.0616035905703542 2.5132914734960465 0 2.5132914734960465 51.852572090945259 0 0 0 0 -1.5532413314545193 3.5270292920192112 0 3.5270292920192112 53.189343269454639 0 0 0 0 -1.1655705691346725 2.9879249938385328 0 2.9879249938385328 50.442916258870106 0 0 0 0 -2.2245811278512879 2.2760107066693358 0 2.2760107066693358 53.244904268579248 0 0 0 0 -1.4613001929592071 1.7260043637217848 0 1.7260043637217848 51.948655572598938 0 0 0 0 6.965963354743451 5.6905192540743315 0 5.6905192540743315 73.760532417090872 0 0 0 0 8.9729709473098946 5.4680845870728874 0 5.4680845870728874 73.453184377840671 0 0 0 0 6.6086333760075835 11.813722079597483 0 11.813722079597483 84.497640425703253 0 0 0 0 8.5544386879618752 7.0097614231477507 0 7.0097614231477507 80.262941448681204 0 0 0 0 6.5247346698006297 3.760240390168974 0 3.760240390168974 84.620208602675802 0 0 0 0 8.617563102216387 -0.036321985250026501 0 -0.036321985250026501 80.614712779445767 0 0 0 0 6.3794916438530453 3.8229159449802523 0 3.8229159449802523 87.427453740713872 0 0 0 0 10.482208888826403 2.6284085916070232 0 2.6284085916070232 76.916198352176707 0 0 0 0 10.473100207205537 1.9310263673829127 0 1.9310263673829127 74.21182075637148 0 0 0 0 11.720587244450368 -0.19170622913077295 0 -0.19170622913077295 73.357840922512082 0 0 0 0 12.007581674957134 0.82325287823558213 0 0.82325287823558213 72.073442851904019 0 0 0 0 12.011434079486259 0.53381161796693677 0 0.53381161796693677 69.739769822936069 0 0 0 0 10.380341192717044 0.017511272049489435 0 0.017511272049489435 70.887304757838024 0 0 0 0 10.08613068413915 2.988174714723641 0 2.988174714723641 73.15734987884457 0 0 0 0 10.139949939664859 1.967265345303689 0 1.967265345303689 68.246313290251578 0 0 0 0 10.38022454572102 0.039243214532632464 0 0.039243214532632464 66.87200220638141 0 0 0 0 6.5188278821716441 1.5514540839095616 0 1.5514540839095616 69.84931353307303 0 0 0 0 -0.14813008140542758 0.013764553314217665 0 0.013764553314217665 67.761602503242557 0 0 0 0 6.4909827651090994 0.74576485985597962 0 0.74576485985597962 64.843595168710067 0 0 0 0 -0.074065040702713802 -0.0074739432612318524 0 -0.0074739432612318524 63.555884675050919 0 0 0 0 -0.14518827807208337 2.2089996101005056 0 2.2089996101005056 63.757572962021356 0 0 0 0 -0.29037655614416719 2.3783152599439177 0 2.3783152599439177 68.747053015418828 0 0 0 0 -2.5927719653297681 1.5812991569114274 0 1.5812991569114274 62.088849709470956 0 0 0 0 -1.6122607897785874 0.73627230673661614 0 0.73627230673661614 62.467528718333028 0 0 0 0 -1.44185936360481 1.4589804587570256 0 1.4589804587570256 65.532658339650311 0 0 0 0 -2.1761165217351794 4.2086005329870773 0 4.2086005329870773 63.043077502671537 0 0 0 0 -2.4053838360829465 3.2605066185271596 0 3.2605066185271596 60.569891883382212 0 0 0 0 -1.7691594471408489 3.0691783647346114 0 3.0691783647346114 66.040261437408674 0 0 0 0 -2.2573360556849695 7.4747320073348931 0 7.4747320073348931 67.210132201206534 0 0 0 0 -1.9160961764710462 7.3739151579485451 0 7.3739151579485451 58.776955960814348 0 0 0 0 -2.9788842854627005 7.0660055731023022 0 7.0660055731023022 61.278656679778663 0 0 0 0 7.2711858841494381 3.1634791567161642 0 3.1634791567161642 65.639095118840487 0 0 0 0 -0.27020135492788466 5.5992484517256571 0 5.5992484517256571 63.747904123172901 0 0 0 0 8.5623444432213009 6.7345896636879843 0 6.7345896636879843 68.797452969728852 0 0 0 0 -0.54040270985577255 6.756119485083957 0 6.756119485083957 72.143358193357017 0 0 0 0 1.0989825714974266 14.486096135748937 0 14.486096135748937 109.28012167017846 0 0 0 0 5.5433252318454143 25.451982093851711 0 25.451982093851711 82.904007093625381 0 0 0 0 2.7716626159227058 15.013651938435032 0 15.013651938435032 61.017501711115472 0 0 0 0 0.69010653979829861 9.5462739808037611 0 9.5462739808037611 54.640060835089287 0 0 0 0 -0.63572629759374566 10.227634900638549 0 10.227634900638549 50.690582492383356 0 0 0 0 0.68203011050784745 10.886076822432699 0 10.886076822432699 54.851983984529625 0 0 0 0 -1.3693987945263899 12.702044897245713 0 12.702044897245713 60.241423697339066 0 0 0 0 -0.60711178911780372 15.537393055297287 0 15.537393055297287 109.70396796905925 0 0 0 0 0.45630654669962567 12.974582029246449 0 12.974582029246449 101.38116498476663 0 0 0 0 2.9436688929307495 16.066593681349616 0 16.066593681349616 86.092186140725175 0 0 0 0 5.4902871046351311 6.8655839556174953 0 6.8655839556174953 71.445950964963686 0 0 0 0 3.9219941151015583 12.926960083662436 0 12.926960083662436 87.320486414671848 0 0 0 0 4.9826518072464445 7.2280819831016458 0 7.2280819831016458 77.388907631669724 0 0 0 0 -2.6956893395610848 6.1979161329159069 0 6.1979161329159069 69.80873725208312 0 0 0 0 2.1271193667684885 14.490686907134432 0 14.490686907134432 63.091873860787189 0 0 0 0 4.2542387335369778 25.377203673401425 0 25.377203673401425 85.162996210196184 0 0 0 0 -3.5672859221630038 6.2696485104002591 0 6.2696485104002591 75.972710052532591 0 0 0 0 -1.7836429610815028 4.538852240274565 0 4.538852240274565 67.318420138195506 0 0 0 0 -3.7134727007341599 3.2173129770777962 0 3.2173129770777962 65.830266829074077 0 0 0 0 -3.5867893298730369 3.6864738395770473 0 3.6864738395770473 61.163987714841454 0 0 0 0 -0.32412346501682698 6.4308717097803054 0 6.4308717097803054 56.768639632298573 0 0 0 0 -2.5165750442060122 6.1943647906945287 0 6.1943647906945287 60.407876645323938 0 0 0 0 -1.0687966775384883 10.564049297910117 0 10.564049297910117 62.20746542663187 0 0 0 0 -0.019374931117303262 7.3374357348776584 0 7.3374357348776584 50.424586422737775 0 0 0 0 3.4408050425711973 8.6675135420242384 0 8.6675135420242384 87.629143716588032 0 0 0 0 2.4866792432992568 9.9881121184909603 0 9.9881121184909603 100.84917284547566 0 0 0 0 4.6327514596194632 14.587171073842569 0 14.587171073842569 83.455995337312089 0 0 0 0 3.9030609266806344 2.0924606658055609 0 2.0924606658055609 88.249411440698168 0 0 0 0 2.9011082647322084 5.1090325649793158 0 5.1090325649793158 98.242689307153114 0 0 0 0 0.32628211407559959 3.9140198504483124 0 3.9140198504483124 49.121344653576529 0 0 0 0 0.22476844343149516 0.068801377215180537 0 0.068801377215180537 48.561021723086014 0 0 0 0 -2.1902352866054002 2.5747506437442667 0 2.5747506437442667 56.386634125008783 0 0 0 0 -0.092539562404391873 1.7458055415850993 0 1.7458055415850993 55.880965026827198 0 0 0 0 -2.2219373850081254 2.4971846769664126 0 2.4971846769664126 59.179756365155527 0 0 0 0 -3.3727774376808348 -0.052113779433227592 0 -0.052113779433227592 60.543310702246401 0 0 0 0 -4.3115983925149681 1.416407455100142 0 1.416407455100142 62.45595906475728 0 0 0 0 -4.7197441869637178 -0.22852667898448331 0 -0.22852667898448331 64.496288952951659 0 0 0 0 -4.7227341137435932 0.18549918363737561 0 0.18549918363737561 64.97594765992892 0 0 0 0 -4.7101116557485998 -0.37445726066690099 0 -0.37445726066690099 66.512135448562674 0 0 0 0 -4.3247161632868396 0.88412416541252581 0 0.88412416541252581 64.648465295571953 0 0 0 0 -3.4336260990435665 2.6059235173331672 0 2.6059235173331672 65.102012512081046 0 0 0 0 -4.3275576489038237 0.44928742765468133 0 0.44928742765468133 67.87748429774058 0 0 0 0 -3.5041467150495054 -0.22743428339180127 0 -0.22743428339180127 66.840897282302194 0 0 0 0 -4.3233386911215517 1.0107507906883768 0 1.0107507906883768 64.792332696546339 0 0 0 0 -4.103548272363569 -0.86405044840973311 0 -0.86405044840973311 65.697122976587593 0 0 0 0 -4.0761158496627781 -1.3681019049664469 0 -1.3681019049664469 68.319533620756829 0 0 0 0 -3.0677052315951912 -2.5367698916309394 0 -2.5367698916309394 66.512591350704696 0 0 0 0 -4.0500492511035748 -1.3564692947658159 0 -1.3564692947658159 66.22697340878949 0 0 0 0 -4.0732392873903107 -0.82064901135115065 0 -0.82064901135115065 64.726932291694254 0 0 0 0 -4.6347967663103793 -0.30139260323810291 0 -0.30139260323810291 65.515241675384459 0 0 0 0 4.3172989863954454 2.2132108795017338 0 2.2132108795017338 74.055214832231741 0 0 0 0 0.93682914923024496 0.64219986545771235 0 0.64219986545771235 76.99485398326425 0 0 0 0 2.3937177983256142 6.018569703504852 0 6.018569703504852 79.371635771731007 0 0 0 0 2.6984322474239057 2.8761768679276258 0 2.8761768679276258 70.034732492236913 0 0 0 0 0.93682914922866045 -0.47745023765838823 0 -0.47745023765838823 70.17072100504231 0 0 0 0 -4.7520173806097601 1.3947440675410689 0 1.3947440675410689 74.22882695381287 0 0 0 0 -3.4501147310504594 2.2094537712434033 0 2.2094537712434033 70.364045539077523 0 0 0 0 -2.3760086903048796 0.89989129540772383 0 0.89989129540772383 68.458937573113019 0 0 0 0 -3.5042542965393402 -0.52465749492210989 0 -0.52465749492210989 70.467135557717086 0 0 0 0 -2.4747154249292294 -1.781211445873879 0 -1.781211445873879 68.694068035281191 0 0 0 0 -3.0563309425497955 -2.8739866885449032 0 -2.8739866885449032 70.182396605637535 0 0 0 0 -4.9494308498584632 -1.862464101525356 0 -1.862464101525356 73.732083925684492 0 0 0 0 0.66936920390791865 -3.4291803520458188 0 -3.4291803520458188 70.050062476460312 0 0 0 0 0.66380196782797718 -3.9975355422034795 0 -3.9975355422034795 77.085685977777985 0 0 0 0 3.6020103628764515 -1.6729241820513039 0 -1.6729241820513039 73.430490421200204 0 0 0 0 2.2839026637607422 -11.627984096830573 0 -11.627984096830573 77.553095361075918 0 0 0 0 1.5932869677951682 -9.7784061083499978 0 -9.7784061083499978 79.597335869841686 0 0 0 0 3.1590711266874418 -5.7826703880719315 0 -5.7826703880719315 74.259706697372508 0 0 0 0 1.7347202700405409 -7.3815955678500096 0 -7.3815955678500096 69.489445521340372 0 0 0 0 -1.5699838586348811 -11.133946977659093 0 -11.133946977659093 74.604091395341186 0 0 0 0 -4.177462468375519 -5.4019601061285698 0 -5.4019601061285698 73.883472317046824 0 0 0 0 -2.0887312341877569 -4.5960384593605061 0 -4.5960384593605061 67.802303634216969 0 0 0 0 -1.9340232508412705 -5.8204485445894818 0 -5.8204485445894818 69.202273571394926 0 0 0 0 -0.78499192931744055 -8.495549185225002 0 -8.495549185225002 65.657616777159035 0 0 0 0 0.40481011571034731 -9.7170559151803211 0 -9.7170559151803211 66.731503501864381 0 0 0 0 4.9179775531136096 -12.664096551940361 0 -12.664096551940361 50.034317478615947 0 0 0 0 5.0147820277820587 -17.795402256640955 0 -17.795402256640955 60.200124413341598 0 0 0 0 10.029564055564116 -30.133437384660795 0 -30.133437384660795 80.547990032821758 0 0 0 0 2.3868100000737389 -17.446101865048973 0 -17.446101865048973 86.851274043901526 0 0 0 0 3.6521743664762667 -13.549392576868399 0 -13.549392576868399 69.262034847194741 0 0 0 0 -0.6335495013528889 -25.774087220957711 0 -25.774087220957711 99.929803917094546 0 0 0 0 -1.4606923714720705 -21.965065178156195 0 -21.965065178156195 85.290798853714819 0 0 0 0 -3.0801191471990372 -17.965226965939337 0 -17.965226965939337 100.0055170466679 0 0 0 0 -1.0641464126794224 -0.41938997073773976 0 -0.41938997073773976 59.921647136766694 0 0 0 0 -2.3916728377520768 -1.9001687507334282 0 -1.9001687507334282 61.851285051641099 0 0 0 0 -3.4328239752134735 -0.37356526054231054 0 -0.37356526054231054 64.017644889697635 0 0 0 0 -2.3676783860410255 -2.4808780709117197 0 -2.4808780709117197 63.791778074244291 0 0 0 0 -3.0884188293703017 -2.7022646706430464 0 -2.7022646706430464 64.268040712175974 0 0 0 0 -3.0694391467497164 -3.1648996985016424 0 -3.1648996985016424 67.235556407119702 0 0 0 0 -1.9564925291442274 -5.3425516977126151 0 -5.3425516977126151 64.10638304127599 0 0 0 0 -0.94677500861560482 -5.606502066212073 0 -5.606502066212073 64.099396439938715 0 0 0 0 -1.014473701281545 -4.9298404721607767 0 -4.9298404721607767 60.322997928466435 0 0 0 0 0.26612252348321913 -8.6341783887279568 0 -8.6341783887279568 58.630077246065639 0 0 0 0 4.4550590403411965 -11.550240890765764 0 -11.550240890765764 59.57580881474469 0 0 0 0 3.4113601802519504 -6.541052568144238 0 -6.541052568144238 56.040182880624457 0 0 0 0 3.5849834339963795 -7.6408079068756365 0 -7.6408079068756365 50.000785665214437 0 0 0 0 3.0856160015813807 -3.8997749172648355 0 -3.8997749172648355 50.002311097708628 0 0 0 0 0.52331650979309396 -2.8188035879725426 0 -2.8188035879725426 56.430519302828429 0 0 0 0 0.59576263471531599 -3.6291903880920131 0 -3.6291903880920131 58.147276847133867 0 0 0 0 2.5942665487583176 -0.030710628398594508 0 -0.030710628398594508 50.006511745637113 0 0 0 0 2.7933624839156712 -1.7778655922761573 0 -1.7778655922761573 55.701103162187877 0 0 0 0 2.7510206566291768 1.7908772005700939 0 1.7908772005700939 55.832354715441397 0 0 0 0 2.9392896104323309 3.6895162100391019 0 3.6895162100391019 50.00257751626566 0 0 0 0 0.54398161834696979 3.4262117254052846 0 3.4262117254052846 58.094449112332882 0 0 0 0 0.43724621986758549 2.6142833199765505 0 2.6142833199765505 56.357856581464915 0 0 0 0 -1.0311663839290208 0.27902481121897793 0 0.27902481121897793 60.064202870024474 0 0 0 0 -2.3987484375679311 2.2726073284967931 0 2.2726073284967931 63.631179336582591 0 0 0 0 -2.4587648857126192 1.6810748055532372 0 1.6810748055532372 61.79781361015921 0 0 0 0 -3.4215638339433294 0.22923197412925145 0 0.22923197412925145 63.991437412906294 0 0 0 0 -3.072992577135448 3.1019551106496124 0 3.1019551106496124 67.096898431142108 0 0 0 0 -1.9456465484280165 5.3310331756458709 0 5.3310331756458709 64.016979006617476 0 0 0 0 -3.0877140930522549 2.6358599306495307 0 2.6358599306495307 64.25191943301445 0 0 0 0 -1.0239158725930757 4.8919758190060634 0 4.8919758190060634 60.336780459115175 0 0 0 0 -0.90433077800893269 5.6480284659144004 0 5.6480284659144004 64.069686761048274 0 0 0 0 0.25290416164105078 8.6661783088769084 0 8.6661783088769084 58.642105070702314 0 0 0 0 3.341086842900113 6.5351888607039541 0 6.5351888607039541 56.27077177253156 0 0 0 0 3.5545917718360118 7.6763174719263532 0 7.6763174719263532 50.000689467211714 0 0 0 0 4.4497344218112067 11.562541255873043 0 11.562541255873043 59.623985494103181 0 0 0 0 5.0190785079968432 17.797737114421338 0 17.797737114421338 60.182595198932063 0 0 0 0 4.9466160232990992 12.68730837427114 0 12.68730837427114 50.034200203336781 0 0 0 0 10.038157015993681 30.14196293676186 0 30.14196293676186 80.545550260835398 0 0 0 0 0.40399425419886104 9.7899050284081568 0 9.7899050284081568 66.805431798439827 0 0 0 0 -3.0176688583397855 18.159297833941991 0 18.159297833941991 100.00560235629064 0 0 0 0 -1.4965874455696309 21.950945072039246 0 21.950945072039246 85.259032914628733 0 0 0 0 -0.66609909700719772 25.801876007820965 0 25.801876007820965 99.929980231696561 0 0 0 0 2.5113028078817679 17.732000358063942 0 17.732000358063942 86.771702943333082 0 0 0 0 3.6848134557210432 13.728986947362046 0 13.728986947362046 69.17544410229084 0 0 0 0 2.30115604776153 11.763862037854437 0 11.763862037854437 77.566756883868834 0 0 0 0 1.8283182189014033 7.7028492457579532 0 7.7028492457579532 69.453325736053102 0 0 0 0 1.572285912037618 9.8906689393471083 0 9.8906689393471083 79.664695943201878 0 0 0 0 3.1584320007109454 5.8234698346235518 0 5.8234698346235518 74.214458855157886 0 0 0 0 -0.80538453269876253 8.4913869967954838 0 8.4913869967954838 65.653585751770606 0 0 0 0 -1.6107690653975251 11.034862409061361 0 11.034862409061361 74.624010403876923 0 0 0 0 -4.1723114681705242 5.3164696485966942 0 5.3164696485966942 73.900311196011785 0 0 0 0 -2.0861557340852603 4.5711691997615276 0 4.5711691997615276 67.773393554758172 0 0 0 0 -1.9031043547821458 5.8727206995773145 0 5.8727206995773145 69.151157844770353 0 0 0 0 -3.0646606521103843 2.9066011949649919 0 2.9066011949649919 70.117192815652345 0 0 0 0 -4.9647767724938596 1.8782054183958508 0 1.8782054183958508 73.768021075280785 0 0 0 0 -2.4823883862469294 1.7742158981346847 0 1.7742158981346847 68.662208832211718 0 0 0 0 0.72176898156685976 4.0822870992114986 0 4.0822870992114986 77.196708436053541 0 0 0 0 0.73403255855131899 3.5793309568490486 0 3.5793309568490486 70.061812989276518 0 0 0 0 3.6488935360757222 1.7704773002503771 0 1.7704773002503771 73.529758312117906 0 0 0 0 1.1388653539781661 -0.74301545640981104 0 -0.74301545640981104 77.10306404308858 0 0 0 0 4.3755121722836545 -2.156473634386316 0 -2.156473634386316 74.456671240525338 0 0 0 0 1.0637635903928302 0.59624642274774331 0 0.59624642274774331 70.320331810920834 0 0 0 0 2.8960609295606679 -2.798018067212638 0 -2.798018067212638 70.375694567989285 0 0 0 0 2.6573714627325806 -6.1520334253658575 0 -6.1520334253658575 79.532541013920763 0 0 0 0 -2.3604704315958092 -0.90962466466453407 0 -0.90962466466453407 68.432050886392403 0 0 0 0 -3.5282590717912194 0.57010949038470926 0 0.57010949038470926 70.385207309659847 0 0 0 0 -4.7209408631916165 -1.424554895508777 0 -1.424554895508777 74.225039431862797 0 0 0 0 -3.4984439419407103 -2.2046161205302042 0 -2.2046161205302042 70.212640177306582 0 0 0 0 -3.4662558764715836 -2.5889470192014414 0 -2.5889470192014414 64.980120659681631 0 0 0 0 -4.3589687532622934 -0.42201147608841438 0 -0.42201147608841438 67.720411245380035 0 0 0 0 -3.5479508735920025 0.19095973268679245 0 0.19095973268679245 66.763582905786961 0 0 0 0 -4.3628391570085148 -1.0108996175761651 0 -1.0108996175761651 64.70743614942262 0 0 0 0 -4.3108468736161338 -0.79076616758101181 0 -0.79076616758101181 64.443139258772305 0 0 0 0 -4.3119343903792764 -1.3103878868364518 0 -1.3103878868364518 62.472745667425556 0 0 0 0 -4.7224993740985139 0.26432230622019426 0 0.26432230622019426 64.430071956195661 0 0 0 0 -4.7395186768537796 -0.19586702944263834 0 -0.19586702944263834 64.966893588114488 0 0 0 0 -4.730801490958104 0.35235716140425666 0 0.35235716140425666 66.372646576401849 0 0 0 0 -4.644379706641022 0.25027051151690083 0 0.25027051151690083 65.444617689239749 0 0 0 0 -4.110485457262893 0.71401193011678288 0 0.71401193011678288 64.726155954316141 0 0 0 0 -4.1084482256792692 1.2286836293932648 0 1.2286836293932648 66.089350088917286 0 0 0 0 -3.0716991993754768 2.5741855480613367 0 2.5741855480613367 66.460532404288244 0 0 0 0 -4.0980289906454201 1.3512021682831197 0 1.3512021682831197 68.224707161707897 0 0 0 0 -4.1478271618349716 0.81063585267190774 0 0.81063585267190774 65.652444210783983 0 0 0 0 0.0010258051935953737 0.21690137960649736 0 0.21690137960649736 91.895139633968711 0 0 0 0 0.87449128525180675 1.4564571073024126 0 1.4564571073024126 93.059514599571003 0 0 0 0 0.85648850529535558 1.1163267877489673 0 1.1163267877489673 92.080599382912624 0 0 0 0 0.00028186590631520915 0.74430255940342249 0 0.74430255940342249 94.199798151783625 0 0 0 0 -0.24413622365261944 1.9347798178182529 0 1.9347798178182529 95.817014793346743 0 0 0 0 -1.2237326556696693 1.5523248264173617 0 1.5523248264173617 99.934648686034123 0 0 0 0 -0.0011308468411967106 0.5832315216898678 0 0.5832315216898678 96.773860267753662 0 0 0 0 -1.4223229616074753 2.454544133490117 0 2.454544133490117 96.487128936349109 0 0 0 0 -0.30361152296036725 1.6730632244836556 0 1.6730632244836556 96.154987896522471 0 0 0 0 -1.7945769286340514 3.3876283745332785 0 3.3876283745332785 100.01314441807313 0 0 0 0 -1.9305088840837215 4.3672569260130558 0 4.3672569260130558 96.198414003651123 0 0 0 0 -2.1853864431792815 5.7436595440777864 0 5.7436595440777864 99.994996162002508 0 0 0 0 -0.51971282889588055 4.993098002569468 0 4.993098002569468 95.666051034850966 0 0 0 0 0.51189243790426375 2.7672140001851631 0 2.7672140001851631 93.948381805741747 0 0 0 0 0.53572917383274321 2.9300501551267644 0 2.9300501551267644 92.768549881031277 0 0 0 0 2.0048915634302138 1.4357593686406744 0 1.4357593686406744 91.242672610002501 0 0 0 0 2.0094323842746284 1.5158040272002609 0 1.5158040272002609 89.17679845513544 0 0 0 0 1.859316830114766 3.5583802679723249 0 3.5583802679723249 91.519328894369437 0 0 0 0 3.2406226109154557 3.7829187077682036 0 3.7829187077682036 88.242253174015559 0 0 0 0 3.2346705033087217 4.124040925579493 0 4.124040925579493 83.440571173289072 0 0 0 0 0.98639976942182084 7.2420289899435808 0 7.2420289899435808 88.250915968093068 0 0 0 0 1.0068601761046592 6.7654503255156442 0 6.7654503255156442 91.997547128752899 0 0 0 0 1.8722871383503641 3.8304509384853738 0 3.8304509384853738 88.66338556966889 0 0 0 0 -0.47795617114913097 5.4023147959175546 0 5.4023147959175546 94.194989162666388 0 0 0 0 -2.3829584962612373 7.6596282357099881 0 7.6596282357099881 95.555868107341439 0 0 0 0 -2.5165809699511525 8.7591495455440622 0 8.7591495455440622 99.995339998044756 0 0 0 0 -0.29056569377112185 10.716967000268824 0 10.716967000268824 93.37338505951459 0 0 0 0 -2.7954139252145156 10.900623667810578 0 10.900623667810578 93.428600832392249 0 0 0 0 -3.1343310393521535 12.948136583282007 0 12.948136583282007 99.994685843746083 0 0 0 0 -3.06167990355992 16.302554490794591 0 16.302554490794591 91.814457748573432 0 0 0 0 -0.34309449822469418 11.242689189921407 0 11.242689189921407 88.972614385636348 0 0 0 0 2.0362480443459252 12.501415959953931 0 12.501415959953931 86.695849378183084 0 0 0 0 2.7599215165582889 7.3715651702331115 0 7.3715651702331115 87.690131108134665 0 0 0 0 2.7714938763512373 7.4550084671379864 0 7.4550084671379864 80.926900161905792 0 0 0 0 3.1362004344627086 6.4271570355601533 0 6.4271570355601533 81.961341808673978 0 0 0 0 4.2072065792989743 3.1592474375560187 0 3.1592474375560187 78.08037119999301 0 0 0 0 4.2080122278176821 2.9499465296887686 0 2.9499465296887686 84.432483855057626 0 0 0 0 3.7001824675150372 1.1017482453606817 0 1.1017482453606817 80.432099262716747 0 0 0 0 4.7891467260164351 -0.73842181585951039 0 -0.73842181585951039 77.954509815037454 0 0 0 0 4.3866222897393925 -3.8444145576373878 0 -3.8444145576373878 81.608194419899974 0 0 0 0 4.6521976423940199 -4.6285068969416443 0 -4.6285068969416443 80.641326872112245 0 0 0 0 4.6545887696174972 -5.7717252412877542 0 -5.7717252412877542 86.354810416535997 0 0 0 0 4.8011258664630319 -1.5082890378913287 0 -1.5082890378913287 83.993930484346947 0 0 0 0 4.3716460195993223 -2.6405829549049713 0 -2.6405829549049713 82.83006721839206 0 0 0 0 3.2542266577665648 -3.3770170316847725 0 -3.3770170316847725 87.263894950516715 0 0 0 0 3.7455158807633131 -1.1288384156780467 0 -1.1288384156780467 85.125789712308006 0 0 0 0 4.3690070749002192 -3.1064360309217567 0 -3.1064360309217567 87.203772755288355 0 0 0 0 4.3328417982321126 0.28070912761778999 0 0.28070912761778999 86.573289458495765 0 0 0 0 4.3393699645071582 0.63513429655711207 0 0.63513429655711207 81.700270278333619 0 0 0 0 3.2954234186201203 1.440499389940328 0 1.440499389940328 85.578863742520525 0 0 0 0 3.2840784747628691 1.2255210362402522 0 1.2255210362402522 89.066810176918352 0 0 0 0 2.7111291681295904 -0.34422236001477557 0 -0.34422236001477557 89.942702314790495 0 0 0 0 2.7176727893834096 -0.26796031049593694 0 -0.26796031049593694 87.584163969924703 0 0 0 0 3.7398188921227318 -1.3581108900140073 0 -1.3581108900140073 88.529438468528042 0 0 0 0 2.6382155240686367 -2.0166174289172432 0 -2.0166174289172432 88.136390275246413 0 0 0 0 3.2599913438496371 -3.6318242087096451 0 -3.6318242087096451 89.77531616878332 0 0 0 0 2.6389331199380721 -2.1168482723538098 0 -2.1168482723538098 90.156567787033964 0 0 0 0 1.5989975129820524 -1.1470606049825847 0 -1.1470606049825847 89.389676540540449 0 0 0 0 1.3334121436517576 -2.2372901201151763 0 -2.2372901201151763 90.449646602575513 0 0 0 0 1.3411187184637887 -2.4556377243350198 0 -2.4556377243350198 91.558849877873172 0 0 0 0 0.001210656616184683 -1.5547215275262261 0 -1.5547215275262261 90.963008398403645 0 0 0 0 1.5990074929735532 -1.1747974862988713 0 -1.1747974862988713 90.87244381822029 0 0 0 0 0.0012052976542492565 -0.63800120229848289 0 -0.63800120229848289 90.780862997719851 0 0 0 0 1.4465240746654568 0.092125898793597116 0 0.092125898793597116 89.882035287927692 0 0 0 0 1.4523089508846376 0.25974797099765823 0 0.25974797099765823 91.334971043726 0 0 0 0 0.00023775094720514907 -1.5230902038725844 0 -1.5230902038725844 49.142299306854511 0 0 0 0 0.16768042213056783 -2.4421786935428145 0 -2.4421786935428145 47.136679656330671 0 0 0 0 -0.022757716474492318 -2.6302013366261008 0 -2.6302013366261008 49.5855041020302 0 0 0 0 0.3833157284223212 -3.355870493045586 0 -3.355870493045586 94.273359312661213 0 0 0 0 0.0009809711510094831 -2.6837893210753387 0 -2.6837893210753387 93.311531725991244 0 0 0 0 0.73813461182860785 -3.1456418059101452 0 -3.1456418059101452 92.874672380132097 0 0 0 0 0.00038193505096786613 -2.3144805490251201 0 -2.3144805490251201 92.114069430178915 0 0 0 0 0.74625742229337622 -3.097892582353154 0 -3.097892582353154 92.973943147684395 0 0 0 0 0.68947711916076271 -2.9732357646506671 0 -2.9732357646506671 92.923310440458408 0 0 0 0 1.9120909853357491 -3.3903978810155877 0 -3.3903978810155877 91.511141034968091 0 0 0 0 1.9017499207339392 -3.2932769554142993 0 -3.2932769554142993 90.619897873443733 0 0 0 0 1.8470164164395975 -4.7933710471440918 0 -4.7933710471440918 92.489633313908371 0 0 0 0 0.87527881763965532 -3.8626259067500541 0 -3.8626259067500541 93.103073823032446 0 0 0 0 0.69860779770127479 -4.9854972121354422 0 -4.9854972121354422 96.3228407895092 0 0 0 0 0.61402795016909906 -3.7594068603893902 0 -3.7594068603893902 95.209722787136798 0 0 0 0 0.023780449507838419 -3.2260471838517333 0 -3.2260471838517333 47.604861393568235 0 0 0 0 -0.33459038645144368 -4.479772142750619 0 -4.479772142750619 48.161420394754714 0 0 0 0 -0.27296818880662155 -3.7434888984407735 0 -3.7434888984407735 50.490051528142317 0 0 0 0 -0.61092103729448688 -5.2274528410282528 0 -5.2274528410282528 51.617503471679989 0 0 0 0 -0.59328395041419402 -6.1435794652371385 0 -6.1435794652371385 48.391036492446574 0 0 0 0 0.78480690869917602 -6.8480008085163036 0 -6.8480008085163036 96.78207298489292 0 0 0 0 1.8241212967509506 -4.6369732224181632 0 -4.6369732224181632 92.068222080649548 0 0 0 0 1.0657359600796799 -6.0263796290672644 0 -6.0263796290672644 92.763385394419629 0 0 0 0 3.231681255904558 -5.7436057726813488 0 -5.7436057726813488 89.88986909651112 0 0 0 0 3.2418263423013687 -5.4679788073146121 0 -5.4679788073146121 87.176467396477392 0 0 0 0 2.6924234026312028 -8.4345428069648278 0 -8.4345428069648278 91.68234974858467 0 0 0 0 1.3130020585386077 -7.7390769037019709 0 -7.7390769037019709 92.106362671901252 0 0 0 0 4.3478345407100196 -9.2581543906987918 0 -9.2581543906987918 86.0802363212606 0 0 0 0 2.9410870907020041 -7.5902353281589257 0 -7.5902353281589257 88.446004513999014 0 0 0 0 1.6329908005149125 -12.176056149140777 0 -12.176056149140777 91.17758813143405 0 0 0 0 0.42119026156670536 -9.3883608440878561 0 -9.3883608440878561 99.321803222131848 0 0 0 0 -1.0429371308414703 -7.1933695773866759 0 -7.1933695773866759 53.376575656781142 0 0 0 0 -0.82160730243954028 -8.1297880604510624 0 -8.1297880604510624 49.660901611065874 0 0 0 0 -1.3560313527053141 -9.3912164157109999 0 -9.3912164157109999 56.087696456945991 0 0 0 0 -2.3380927842711543 -6.2724891252336192 0 -6.2724891252336192 56.055133276638912 0 0 0 0 -2.1027389903177953 -5.1703425317892311 0 -5.1703425317892311 53.396704711911674 0 0 0 0 -2.6380727163516831 -6.021763273299058 0 -6.021763273299058 57.627125728490341 0 0 0 0 -2.8652050362405297 -3.3221256215856556 0 -3.3221256215856556 57.494503179051918 0 0 0 0 -3.0883578325788861 -3.9769640734974985 0 -3.9769640734974985 60.617132726265254 0 0 0 0 -2.8912062444150459 -0.82334873047926749 0 -0.82334873047926749 60.659754042074496 0 0 0 0 -3.2508226749236391 -0.95800260476300991 0 -0.95800260476300991 57.882761249719692 0 0 0 0 -3.2826707432056272 -1.4712303647652334 0 -1.4712303647652334 59.600831741831485 0 0 0 0 -3.1143211027028048 -3.3451969202915848 0 -3.3451969202915848 57.963860365413893 0 0 0 0 -3.232114750533666 -1.1270534411325457 0 -1.1270534411325457 57.246377257106701 0 0 0 0 -2.9744477442592792 -0.87775560207001035 0 -0.87775560207001035 55.648396702031846 0 0 0 0 -2.6669051721181347 -2.5673444709415207 0 -2.5673444709415207 55.672769188133998 0 0 0 0 -2.7788000779214217 -2.8323646489631074 0 -2.8323646489631074 55.100025327785374 0 0 0 0 -2.1464114440219557 -4.7171334158899185 0 -4.7171334158899185 55.097684503405731 0 0 0 0 -1.724032905662618 -4.0827239122326091 0 -4.0827239122326091 51.626094620585739 0 0 0 0 -1.2223998264349403 -2.9920779239747617 0 -2.9920779239747617 50.519297675139441 0 0 0 0 -1.5869378696290646 -3.481279030294786 0 -3.481279030294786 53.316446839686023 0 0 0 0 -1.1047583151984941 -2.5098732170015978 0 -2.5098732170015978 51.917728007084861 0 0 0 0 -1.5187674913431133 -1.7082956600225714 0 -1.7082956600225714 52.069985432889325 0 0 0 0 -2.2747313599068266 -2.2320107173896986 0 -2.2320107173896986 53.326748373356864 0 0 0 0 -2.0280058971546246 -1.824866755110861 0 -1.824866755110861 53.995782119016781 0 0 0 0 -2.3318339351103212 -0.74491536962489135 0 -0.74491536962489135 54.023511177007435 0 0 0 0 -2.7268966458104642 -0.76901411336251613 0 -0.76901411336251613 55.283258098275724 0 0 0 0 -1.956757960769381 -0.47107584880976106 0 -0.47107584880976106 53.788405023041037 0 0 0 0 -1.2070629096162424 -1.2417703475015287 0 -1.2417703475015287 52.76326834302327 0 0 0 0 -1.2360600386230032 -0.67713333430583589 0 -0.67713333430583589 52.856716429779638 0 0 0 0 -1.1324898275356647 -0.504020289270386 0 -0.504020289270386 52.455330803517654 0 0 0 0 -0.0015660606367796756 -0.010695481926290995 0 -0.010695481926290995 52.658653538294402 0 0 0 0 -0.00023462925822574209 -0.7271149433561277 0 -0.7271149433561277 52.181614731734385 0 0 0 0 -0.89868271781946873 -1.5834490824194063 0 -1.5834490824194063 51.395921311758002 0 0 0 0 -0.0010727897069806288 -1.2543640444002904 0 -1.2543640444002904 50.982956213867055 0 0 0 0 -0.41803994461972849 -2.0914324897327106 0 -2.0914324897327106 49.7422195634106 0 0 0 0 -0.51308916672167715 -2.3092591346229483 0 -2.3092591346229483 49.786587674017255 0 0 0 0 -0.064792069306220057 -7.1507748227306251 0 -7.1507748227306251 50.489085779068589 0 0 0 0 4.6170262104315718 -14.635784563280595 0 -14.635784563280595 83.48534351043736 0 0 0 0 3.4531405796781733 -8.7096240313292128 0 -8.7096240313292128 88.080446100178051 0 0 0 0 2.4129232118948885 -10.079818993852882 0 -10.079818993852882 100.97817155813702 0 0 0 0 3.78789235819184 -1.969992337851977 0 -1.969992337851977 88.429411389479924 0 0 0 0 3.3384074191782922 0.012153900705470733 0 0.012153900705470733 97.122043446172214 0 0 0 0 2.8036702843493764 -4.928712161681176 0 -4.928712161681176 98.297041271624948 0 0 0 0 0.34523940584786317 -3.6560114140007727 0 -3.6560114140007727 49.14852063581251 0 0 0 0 -2.2158856168151009 -2.3605931671094638 0 -2.3605931671094638 59.109953859076654 0 0 0 0 -0.047424728995068222 -1.793303177406699 0 -1.793303177406699 55.833736696991991 0 0 0 0 -2.1690263273750183 -2.3850453034278871 0 -2.3850453034278871 56.251507236279309 0 0 0 0 -3.379591179171423 0.14904634351122859 0 0.14904634351122859 60.476755105516418 0 0 0 0 -3.5482153830726535 -3.5952677680233478 0 -3.5952677680233478 60.956241819337095 0 0 0 0 -0.37002761000047357 -6.44501137585425 0 -6.44501137585425 56.621290681501364 0 0 0 0 -1.1155213560043347 -10.575169050087595 0 -10.575169050087595 62.0989958650988 0 0 0 0 -2.4903229991355813 -6.0992604788095832 0 -6.0992604788095832 60.310466556352935 0 0 0 0 -3.7137324469735287 -3.1798573786555551 0 -3.1798573786555551 65.652348290771101 0 0 0 0 -1.732815482750893 -4.5448019264937329 0 -4.5448019264937329 67.270442719581695 0 0 0 0 -3.4656309655017847 -6.4752494162017413 0 -6.4752494162017413 75.986687314699566 0 0 0 0 4.2277325330594158 -25.426465162529439 0 -25.426465162529439 85.052774996762651 0 0 0 0 -2.7467348905456799 -6.2567204645706624 0 -6.2567204645706624 69.749003567292903 0 0 0 0 2.1138662665297079 -14.454421802888191 0 -14.454421802888191 63.09667260499441 0 0 0 0 4.9652925726714638 -7.1527210300573643 0 -7.1527210300573643 77.895949697872766 0 0 0 0 3.5522876683734017 -12.722120217858958 0 -12.722120217858958 87.518421629288014 0 0 0 0 6.0901009886278921 -7.225724785995908 0 -7.225724785995908 71.479398243949163 0 0 0 0 3.1088750706812043 -16.119876832577006 0 -16.119876832577006 86.135157483016087 0 0 0 0 0.52501727832564793 -12.508112265117347 0 -12.508112265117347 101.25662069549458 0 0 0 0 -0.52767038305924197 -15.469115635058131 0 -15.469115635058131 109.7228769678527 0 0 0 0 -1.3543242247797549 -12.600408015158706 0 -12.600408015158706 60.572248966848861 0 0 0 0 0.6717852972316749 -10.877841793715646 0 -10.877841793715646 54.861438483926349 0 0 0 0 -0.64078463451481227 -10.34778360766245 0 -10.34778360766245 50.628310347747416 0 0 0 0 0.67929110054887254 -9.4939392688737314 0 -9.4939392688737314 54.610282702939344 0 0 0 0 2.7522416192538817 -15.022578954734286 0 -15.022578954734286 61.070456483941598 0 0 0 0 5.5044832385077607 -25.434987093822883 0 -25.434987093822883 83.046830527218162 0 0 0 0 1.1048506128547828 -14.54793596731929 0 -14.54793596731929 109.22056540587906 0 0 0 0 8.2761390521812785 -6.4318675357694701 0 -6.4318675357694701 68.764250039932335 0 0 0 0 -0.51138499864712095 -6.7990266535212696 0 -6.7990266535212696 71.995639099603977 0 0 0 0 -0.2556924993235602 -5.596200080313702 0 -5.596200080313702 63.752097038728152 0 0 0 0 7.0031082425900486 -2.9432252850767782 0 -2.9432252850767782 65.499211192951293 0 0 0 0 -2.9940590407567909 -7.1031846976117947 0 -7.1031846976117947 61.389979621975272 0 0 0 0 -1.9033068008082923 -7.4751887750635433 0 -7.4751887750635433 58.800690301047524 0 0 0 0 -2.1814229968589531 -7.4566961676847541 0 -7.4566961676847541 67.270052812979031 0 0 0 0 -1.7137639104653659 -3.0846338533791027 0 -3.0846338533791027 66.163823114477282 0 0 0 0 -2.3423409343181989 -3.3160962847420592 0 -3.3160962847420592 60.76616269883813 0 0 0 0 -2.1357262587242998 -4.2089673675707786 0 -4.2089673675707786 63.305155080485861 0 0 0 0 -1.3847512817647736 -1.5322196140629387 0 -1.5322196140629387 65.597945350505825 0 0 0 0 -1.6018603642790454 -0.72907249227131388 0 -0.72907249227131388 62.62688198761704 0 0 0 0 -2.487812424925155 -1.6108776246234697 0 -1.6108776246234697 62.171538193162178 0 0 0 0 -0.35269521706509432 -2.373231698444215 0 -2.373231698444215 68.73238228199898 0 0 0 0 -0.17634760853254725 -2.1998448463892828 0 -2.1998448463892828 63.72966114373412 0 0 0 0 -0.041602135443571053 0.0088430298503112681 0 0.0088430298503112681 63.496209434720186 0 0 0 0 -0.083204270887142107 0.019300425641745278 0 0.019300425641745278 67.780231519067001 0 0 0 0 6.2967296744432018 -0.77389078767623687 0 -0.77389078767623687 64.737688549567679 0 0 0 0 6.2898812733641014 -1.4816657025591868 0 -1.4816657025591868 69.7659669961904 0 0 0 0 9.9706867942146271 -3.0061603840501618 0 -3.0061603840501618 73.013777515063111 0 0 0 0 9.9843142069182811 -1.9257423770154674 0 -1.9257423770154674 68.0751129273674 0 0 0 0 6.8468809452166965 -5.6330283368414023 0 -5.6330283368414023 73.629625535601235 0 0 0 0 8.6004590337417657 -7.1366844493102377 0 -7.1366844493102377 80.349020393021419 0 0 0 0 8.9209375760585221 -5.5823712913486361 0 -5.5823712913486361 73.151833601767862 0 0 0 0 6.6852167540428571 -11.733992625812718 0 -11.733992625812718 84.501552220229996 0 0 0 0 6.3403344976579419 -4.262280334838465 0 -4.262280334838465 87.112737809946339 0 0 0 0 8.6209618448840324 -0.11979056023426438 0 -0.11979056023426438 80.772775811470524 0 0 0 0 6.3722152390446034 -3.9847792928480885 0 -3.9847792928480885 85.128405722117236 0 0 0 0 10.442664713207158 -2.23326007070375 0 -2.23326007070375 73.753395297915972 0 0 0 0 10.410063427479988 -2.8812786603722316 0 -2.8812786603722316 76.991453350456254 0 0 0 0 11.720571586625905 0.060453492196984371 0 0.060453492196984371 73.222571777644589 0 0 0 0 11.930788131824455 -0.60179051811189765 0 -0.60179051811189765 69.513528448639704 0 0 0 0 11.92721346923901 -0.88027472573980958 0 -0.88027472573980958 72.06667368932176 0 0 0 0 12.634459032833654 0.0078314173055359301 0 0.0078314173055359301 70.805007238873259 0 0 0 0 11.940815287080371 0.89323096071620967 0 0.89323096071620967 72.057773493608693 0 0 0 0 11.940749071129543 0.57959762237560752 0 0.57959762237560752 69.544116372497911 0 0 0 0 11.703546503411406 -0.041215059773094254 0 -0.041215059773094254 73.215908287986167 0 0 0 0 10.444844716825603 2.8309932115645324 0 2.8309932115645324 77.074532775000876 0 0 0 0 10.464737593513028 2.1424477734837417 0 2.1424477734837417 73.778563155437269 0 0 0 0 6.497437396027415 3.9158725900066429 0 3.9158725900066429 84.738097818245478 0 0 0 0 6.4443662147141083 4.1384817906719036 0 4.1384817906719036 87.067783882403319 0 0 0 0 8.6526759161160633 0.11030487471794004 0 0.11030487471794004 80.510851726100213 0 0 0 0 8.9642804602895012 5.5037925856523771 0 5.5037925856523771 73.118798428294895 0 0 0 0 6.653866126038146 11.745281043837053 0 11.745281043837053 84.365074402579467 0 0 0 0 8.6130284112922482 7.0553807380265425 0 7.0553807380265425 80.070680348046835 0 0 0 0 6.9003681142792699 5.6750719811550425 0 5.6750719811550425 73.514661305978962 0 0 0 0 9.9875924929886466 1.8848891851302891 0 1.8848891851302891 68.099760597501472 0 0 0 0 9.97949417393205 2.9870953986027189 0 2.9870953986027189 72.976226256614723 0 0 0 0 10.19368809897645 0.0058988960599890561 0 0.0058988960599890561 70.78882807575917 0 0 0 0 6.2774480518495839 1.4692047352199324 0 1.4692047352199324 69.757324300745154 0 0 0 0 10.193687122102151 0.0038318610810392784 0 0.0038318610810392784 66.757238548850296 0 0 0 0 6.2836440358414611 0.77629550599419872 0 0.77629550599419872 64.783846123324111 0 0 0 0 -0.1791068234913292 2.2002873548227058 0 2.2002873548227058 63.81157797352023 0 0 0 0 -0.35821364698265867 2.3531097694814207 0 2.3531097694814207 68.756571548950546 0 0 0 0 -2.5905734403480305 1.4126491960342946 0 1.4126491960342946 62.3202439755988 0 0 0 0 -1.3985971791716161 1.4379378814892902 0 1.4379378814892902 65.605426526214501 0 0 0 0 -1.5283083209473798 0.76232188808980084 0 0.76232188808980084 62.104617995122567 0 0 0 0 -2.2233296006037495 4.0856996929757656 0 4.0856996929757656 63.504924440481687 0 0 0 0 -2.4062590214402322 3.097815685085493 0 3.097815685085493 60.599230556195721 0 0 0 0 -1.8405444687100845 3.0566310086564386 0 3.0566310086564386 65.985986450311088 0 0 0 0 -1.9021575848542258 7.3443108745239556 0 7.3443108745239556 58.820770833472807 0 0 0 0 -2.2232397299179518 7.4009949755755429 0 7.4009949755755429 67.232035123280525 0 0 0 0 -2.9555544682666204 7.0264318307831388 0 7.0264318307831388 61.468484613528517 0 0 0 0 7.005246026896029 2.9204672784612953 0 2.9204672784612953 65.534165202432177 0 0 0 0 -0.26153982800365405 5.628290182303715 0 5.628290182303715 63.762279818235413 0 0 0 0 -0.52307965600730699 6.8211743758870398 0 6.8211743758870398 72.050717143689553 0 0 0 0 8.3919249124758277 6.5460668691885076 0 6.5460668691885076 68.767860767904949 0 0 0 0 1.0776060260097822 14.458694222552595 0 14.458694222552595 109.33115356775306 0 0 0 0 5.5404601933845736 25.412359312228887 0 25.412359312228887 82.960969221025721 0 0 0 0 2.770230096692289 15.003175681902894 0 15.003175681902894 60.997854494194712 0 0 0 0 0.68800609747657582 9.5922198867298221 0 9.5922198867298221 54.665576783876531 0 0 0 0 -0.68217442740457379 10.253055028064949 0 10.253055028064949 50.865239861616715 0 0 0 0 0.69707347626931782 10.870063429986146 0 10.870063429986146 54.804786610784276 0 0 0 0 -1.3435985663624717 12.625291365576118 0 12.625291365576118 60.445826302367919 0 0 0 0 -0.67390642950160462 15.695430860342185 0 15.695430860342185 109.60957322156855 0 0 0 0 0.535722223676526 13.390799224976945 0 13.390799224976945 101.73047972323343 0 0 0 0 2.7800932131671265 16.052201376447556 0 16.052201376447556 85.777999263321817 0 0 0 0 3.4268317019990278 12.063439814631806 0 12.063439814631806 87.150055255765722 0 0 0 0 5.8512021773877692 6.7037030878621238 0 6.7037030878621238 71.392210773507941 0 0 0 0 5.5638918338951324 9.9836369734135815 0 9.9836369734135815 78.734790452613424 0 0 0 0 2.0808171010373449 14.471509616773005 0 14.471509616773005 63.031345240402061 0 0 0 0 -2.6665072891729089 6.1054426543634577 0 6.1054426543634577 69.791752184691632 0 0 0 0 4.1616342020746853 25.421846261663518 0 25.421846261663518 85.321201787349537 0 0 0 0 -3.236478616293085 6.6400397215616067 0 6.6400397215616067 75.873651119296028 0 0 0 0 -1.6182393081465438 4.5557253790599361 0 4.5557253790599361 67.335910402968864 0 0 0 0 -3.6860390519742534 3.2859044269245601 0 3.2859044269245601 65.849960797470544 0 0 0 0 -2.4942165881089431 6.19386280400267 0 6.19386280400267 60.397370893780248 0 0 0 0 -1.055772397669692 10.629861515068342 0 10.629861515068342 62.011537368602603 0 0 0 0 -0.30347095205600283 6.4853400330369482 0 6.4853400330369482 56.56821173938161 0 0 0 0 -3.5711200513573917 3.7460146437003345 0 3.7460146437003345 61.007094051424588 0 0 0 0 -3.3534107802250386 -0.046126262378663796 0 -0.046126262378663796 60.415018947559474 0 0 0 0 -0.039174684483587185 1.7353382836683977 0 1.7353382836683977 55.734107825027451 0 0 0 0 -2.1288051741481908 2.6702570549689995 0 2.6702570549689995 56.348074684983601 0 0 0 0 -2.1460240674746203 2.5583892397685872 0 2.5583892397685872 58.974639848199502 0 0 0 0 0.38305480803259684 3.8790496145915085 0 3.8790496145915085 49.141341653388167 0 0 0 0 0.25339443367298387 0.0722614428233328 0 0.0722614428233328 48.558484518894829 0 0 0 0 3.8209003115540838 2.0233872022715786 0 2.0233872022715786 88.207695728060571 0 0 0 0 3.3116430699347816 0.096486063483496309 0 0.096486063483496309 97.116969037789886 0 0 0 0 2.886750966152352 5.0416611521328605 0 5.0416611521328605 98.282683306776335 0 0 0 0 2.5026681353209241 10.074399434310578 0 10.074399434310578 100.77884818184521 0 0 0 0 3.5199372666148605 8.6919238246555324 0 8.6919238246555324 87.718974592331222 0 0 0 0 4.5838337438178307 14.482867709784273 0 14.482867709784273 83.292399986845624 0 0 0 0 0.035333172542367564 7.3365486447832495 0 7.3365486447832495 50.389424090922603 0 0 0 0 -0.51540430551219707 2.282317763188189 0 2.282317763188189 49.818154350140958 0 0 0 0 -0.42718363261213144 2.0653520434351549 0 2.0653520434351549 49.849055168981067 0 0 0 0 -0.001116511508705456 1.233045834477366 0 1.233045834477366 51.057640169729325 0 0 0 0 -0.88978928229016652 1.5545671251321664 0 1.5545671251321664 51.411934758792711 0 0 0 0 -0.0002142958094030675 0.68847669556526325 0 0.68847669556526325 52.243282055546842 0 0 0 0 -1.1418121869725442 0.48803917852285394 0 0.48803917852285394 52.462718657205414 0 0 0 0 -1.2309111783717026 0.61198728334528596 0 0.61198728334528596 52.933578654785606 0 0 0 0 -1.2164544079273449 1.1821416788177714 0 1.1821416788177714 52.796847644445506 0 0 0 0 -1.9575957362629253 0.39600889885502966 0 0.39600889885502966 53.758952421229367 0 0 0 0 -2.3477796590267457 0.63801827754883789 0 0.63801827754883789 54.091159109909313 0 0 0 0 -2.7367915706324819 0.64581676197587967 0 0.64581676197587967 55.278330458682319 0 0 0 0 -2.0630841846058603 1.7258933529701608 0 1.7258933529701608 54.089783043448826 0 0 0 0 -2.3145279610277192 2.1266802190452552 0 2.1266802190452552 53.459516653586661 0 0 0 0 -1.5390945798194546 1.634312756878046 0 1.634312756878046 52.202259992467589 0 0 0 0 -1.1278648705191729 2.4628578382564683 0 2.4628578382564683 51.997401007962935 0 0 0 0 -1.2629837165891238 2.9411819576054086 0 2.9411819576054086 50.646309207057243 0 0 0 0 -1.6446812948812468 3.3984943509192362 0 3.3984943509192362 53.456085802713346 0 0 0 0 -1.7762605179422648 4.0114777864244502 0 4.0114777864244502 51.70264904183415 0 0 0 0 -2.1682644917380776 4.6272738984185082 0 4.6272738984185082 55.235206002260725 0 0 0 0 -2.806384939896581 2.6871704509615597 0 2.6871704509615597 55.21663207490576 0 0 0 0 -2.6991520920309306 2.4433765005831845 0 2.4433765005831845 55.742067442367556 0 0 0 0 -2.9954726503453108 0.73365322991239168 0 0.73365322991239168 55.746907597646214 0 0 0 0 -3.2476289614627345 0.93868416227496709 0 0.93868416227496709 57.210495615960951 0 0 0 0 -3.1295940330240795 3.1949806508869756 0 3.1949806508869756 57.951346591118266 0 0 0 0 -3.2842333830495809 0.76097393441770578 0 0.76097393441770578 57.920005507779138 0 0 0 0 -3.3089009245138472 1.2226892104881131 0 1.2226892104881131 59.640710064759013 0 0 0 0 -2.9243032876464481 0.63227888354015249 0 0.63227888354015249 60.544786704957232 0 0 0 0 -3.0925110107029852 3.7556453469693452 0 3.7556453469693452 60.516595435847918 0 0 0 0 -2.9244726091584181 3.1100476687950334 0 3.1100476687950334 57.619786806632305 0 0 0 0 -2.1731610886295685 5.1342461144692493 0 5.1342461144692493 53.473692755083221 0 0 0 0 -2.6903376652645319 5.8682461770698637 0 5.8682461770698637 57.758086966012982 0 0 0 0 -2.3790791828809335 6.1508429167835175 0 6.1508429167835175 55.915143663126628 0 0 0 0 -1.4556514316335214 9.4212147639505588 0 9.4212147639505588 56.275417101602891 0 0 0 0 -0.85954387372180552 8.0842476806475361 0 8.0842476806475361 49.37002597956905 0 0 0 0 -1.0184569323705475 7.1081892590327698 0 7.1081892590327698 53.400740632293946 0 0 0 0 0.93432891598294177 9.8037725716350224 0 9.8037725716350224 98.740051959138214 0 0 0 0 2.1254321412530537 11.233149213301203 0 11.233149213301203 89.48703108015593 0 0 0 0 3.3503891647650637 9.1298046812220264 0 9.1298046812220264 89.508977110934666 0 0 0 0 4.1320717208390452 8.1494415592143241 0 8.1494415592143241 84.365440483121901 0 0 0 0 2.9299533152896391 7.0161374913661803 0 7.0161374913661803 91.312174575350582 0 0 0 0 1.5516568746585104 8.0800484834893496 0 8.0800484834893496 91.322780722094421 0 0 0 0 3.1130479689845654 6.0904342452749916 0 6.0904342452749916 87.556160504344007 0 0 0 0 2.4747935600177451 5.2842766684746039 0 5.2842766684746039 92.27304549849282 0 0 0 0 1.2001047097733988 5.7769223387538204 0 5.7769223387538204 92.27675394924654 0 0 0 0 0.96414957568630655 6.9430177890205869 0 6.9430177890205869 97.024092484181665 0 0 0 0 -0.60572982180303292 6.1022459321740143 0 6.1022459321740143 48.512046242090832 0 0 0 0 -0.61558434836762199 5.1993096384329647 0 5.1993096384329647 51.75764403512143 0 0 0 0 -0.29598956623679218 3.6926401138488245 0 3.6926401138488245 50.591918887470449 0 0 0 0 -0.35276337474797748 4.4401974707098759 0 4.4401974707098759 48.069701550638115 0 0 0 0 0.0028392367978047339 3.2201145442966776 0 3.2201145442966776 47.705726471183425 0 0 0 0 0.60538073879053567 3.7178215417272895 0 3.7178215417272895 95.41145294236685 0 0 0 0 0.85980430449669676 4.9687709519500913 0 4.9687709519500913 96.13940310127623 0 0 0 0 0.99230754422174439 4.0890365832173075 0 4.0890365832173075 92.759497698381892 0 0 0 0 1.8638652997926437 3.987386347514871 0 3.987386347514871 92.755266582464628 0 0 0 0 2.4093966365347885 4.4445418536129182 0 4.4445418536129182 89.523911903852422 0 0 0 0 1.6966643710241915 3.3515693634768695 0 3.3515693634768695 90.954154714221886 0 0 0 0 0.75559697402359838 3.1003043130160677 0 3.1003043130160677 93.115582276523071 0 0 0 0 0.7248154507780189 3.076516816732692 0 3.076516816732692 93.109587083343342 0 0 0 0 0.0010472556118534071 2.2268629696743574 0 2.2268629696743574 91.981875428785315 0 0 0 0 0.79281818951426131 3.1633725832758159 0 3.1633725832758159 92.888797229108604 0 0 0 0 0.00062685073614090429 2.639343463834166 0 2.639343463834166 93.378546683923332 0 0 0 0 0.40517369115739399 3.2971835752015295 0 3.2971835752015295 94.28968006623677 0 0 0 0 -0.007661852227119903 2.6405850271495979 0 2.6405850271495979 49.625321370327583 0 0 0 0 0.1801210854147568 2.4431416988497858 0 2.4431416988497858 47.144840033118612 0 0 0 0 0.00032824999885331746 1.5126473955735131 0 1.5126473955735131 49.185621475086919 0 0 0 0 1.2697239812446477 -0.13182086052779596 0 -0.13182086052779596 91.190228372678121 0 0 0 0 1.3656403231552636 -0.30453859991018817 0 -0.30453859991018817 90.912914491026186 0 0 0 0 0.0018649172830563512 0.63826980606245343 0 0.63826980606245343 90.723884175714147 0 0 0 0 0.00040419505288025236 1.5189478512291508 0 1.5189478512291508 90.91253870331002 0 0 0 0 1.3988209482986043 1.0987821007854564 0 1.0987821007854564 90.807246683537869 0 0 0 0 1.1813337058863604 2.4341246288570346 0 2.4341246288570346 91.621347660792026 0 0 0 0 1.524798656978855 2.0322357928596944 0 2.0322357928596944 90.20664332110664 0 0 0 0 1.5663050185337704 1.3805815632766212 0 1.3805815632766212 90.119885749211335 0 0 0 0 2.0682676205650656 2.6640431482483109 0 2.6640431482483109 90.823659494852734 0 0 0 0 2.7973491905375156 2.66910733705447 0 2.66910733705447 88.631406662886775 0 0 0 0 3.1361816431264691 3.2178867632208039 0 3.2178867632208039 89.513795967539238 0 0 0 0 2.9695183173197086 1.2991387596293862 0 1.2991387596293862 88.599489232840625 0 0 0 0 3.646444181629878 1.1745259279143738 0 1.1745259279143738 87.149968847947548 0 0 0 0 2.4737471976205629 1.0083045626589637 0 1.0083045626589637 89.286367505697854 0 0 0 0 2.2792922226971584 -0.19536478813347458 0 -0.19536478813347458 89.331621148262485 0 0 0 0 2.7670685200751257 -0.6507392199333708 0 -0.6507392199333708 89.309302171717036 0 0 0 0 3.2097476667819169 -0.91578497914156287 0 -0.91578497914156287 87.178340219976917 0 0 0 0 3.7399237064649498 -1.2965280636719854 0 -1.2965280636719854 86.929349453601688 0 0 0 0 3.9474767627398331 -1.9212837548230937 0 -1.9212837548230937 84.141305420393564 0 0 0 0 4.5918541172160516 1.3496162310601107 0 1.3496162310601107 84.084439777116359 0 0 0 0 3.9553528526157034 1.218932168200979 0 1.218932168200979 86.378332618314744 0 0 0 0 3.8163743947524109 3.5402635492167747 0 3.5402635492167747 86.344832413970607 0 0 0 0 3.9279722697812041 3.9957124088866749 0 3.9957124088866749 87.553558881544888 0 0 0 0 4.4887714497756503 0.95253043836078177 0 0.95253043836078177 83.02396678297697 0 0 0 0 4.7496881311705188 4.5843593689598947 0 4.5843593689598947 82.900462285759431 0 0 0 0 4.1802401632619279 4.7225037545113082 0 4.7225037545113082 84.533932865080857 0 0 0 0 5.187273652121398 5.4700666405749416 0 5.4700666405749416 78.477481404259834 0 0 0 0 3.8493965832188164 0.076919532702788729 0 0.076919532702788729 78.404633074900175 0 0 0 0 4.9272949901802914 1.5246964745169862 0 1.5246964745169862 80.083477080507919 0 0 0 0 4.3085556318600196 -2.0278011442218258 0 -2.0278011442218258 83.461018688517242 0 0 0 0 4.1543197880447815 -3.1335212247076925 0 -3.1335212247076925 80.014379909734373 0 0 0 0 3.720597069577376 -2.4437275107790128 0 -2.4437275107790128 78.917536585139942 0 0 0 0 3.186720269965754 -7.9758170450277817 0 -7.9758170450277817 78.968871343028923 0 0 0 0 2.9877182502276458 -6.0018089418798581 0 -6.0018089418798581 83.414771282366246 0 0 0 0 2.9669519511170885 -6.4792184571131202 0 -6.4792184571131202 85.128580577323646 0 0 0 0 1.0619517341858771 -10.613040867322297 0 -10.613040867322297 84.898232364414952 0 0 0 0 1.1317938364365412 -12.196230230660262 0 -12.196230230660262 90.053765463822856 0 0 0 0 -2.7993926566539846 -15.775134133164727 0 -15.775134133164727 89.667000242552376 0 0 0 0 -2.4544395763346532 -10.995843358616582 0 -10.995843358616582 92.685213820559738 0 0 0 0 -2.663436063966258 -12.833713075465312 0 -12.833713075465312 99.99012175432928 0 0 0 0 0.76613607573972575 -8.7188545346896262 0 -8.7188545346896262 92.595329894533279 0 0 0 0 -2.2438991061200642 -8.7512835209493005 0 -8.7512835209493005 99.999198640922486 0 0 0 0 -2.051724950571149 -7.3466014972862013 0 -7.3466014972862013 94.392918050333947 0 0 0 0 0.57700735006178716 -5.8978118167369757 0 -5.8978118167369757 94.446703146464642 0 0 0 0 0.63037942340349895 -7.4722286317883118 0 -7.4722286317883118 88.599151818059909 0 0 0 0 2.8067609150341202 -4.6758113493419842 0 -4.6758113493419842 88.57237126069117 0 0 0 0 2.4755014751473206 -3.9264220861375634 0 -3.9264220861375634 86.960123493055434 0 0 0 0 2.208474310364839 -3.0035621199057232 0 -3.0035621199057232 90.945522350830061 0 0 0 0 1.8489955301458043 -2.2587320487723446 0 -2.2587320487723446 89.426114627010932 0 0 0 0 1.3728678432603578 -1.73330361966174 0 -1.73330361966174 92.575949524114094 0 0 0 0 0.2869375290945273 -2.829532243977269 0 -2.829532243977269 92.856549943461914 0 0 0 0 0.44858507735603004 -4.80426498164843 0 -4.80426498164843 90.98425923025971 0 0 0 0 0.35166810577885399 -3.5803136839452918 0 -3.5803136839452918 95.528063381900665 0 0 0 0 -1.8642115929645799 -5.6441969415333233 0 -5.6441969415333233 99.992057197735903 0 0 0 0 -1.7799399009587868 -4.5032167503143228 0 -4.5032167503143228 95.602949898015368 0 0 0 0 -1.6991052531314328 -3.2528112843757526 0 -3.2528112843757526 100.01493071878758 0 0 0 0 -0.21092247955315435 -1.7830005130915652 0 -1.7830005130915652 96.262440941603245 0 0 0 0 -1.3701188380994411 -2.4435327718849749 0 -2.4435327718849749 96.523882693115809 0 0 0 0 -0.001373933143791244 -0.55876169978614598 0 -0.55876169978614598 96.77100059325312 0 0 0 0 -1.1753497111682258 -1.5533503065510672 0 -1.5533503065510672 99.934153584807291 0 0 0 0 -0.11247941938502848 -1.9724939827376602 0 -1.9724939827376602 95.75096204648753 0 0 0 0 0.00095835195043575026 -0.65800746881382111 0 -0.65800746881382111 93.846394749427873 0 0 0 0 1.1279277137162427 -1.1023497819780914 0 -1.1023497819780914 91.142598953216748 0 0 0 0 0.0002669910230837058 -0.1977460480488844 0 -0.1977460480488844 91.800780342762209 0 0 0 0 0.77114092193531381 -1.3795948783711083 0 -1.3795948783711083 93.174568779700621 0 0 0 0 -4.0869664812417401 -0.86710105673114413 0 -0.86710105673114413 65.685042502545002 0 0 0 0 -4.0875704257618892 -1.3264990371335428 0 -1.3264990371335428 68.252070999930993 0 0 0 0 -3.0474988583814628 -2.5517533810675559 0 -2.5517533810675559 66.48930199427798 0 0 0 0 -4.0770661975907183 -1.28481837703049 0 -1.28481837703049 66.164056820682219 0 0 0 0 -4.0775570485823964 -0.77602447477278247 0 -0.77602447477278247 64.758870163840129 0 0 0 0 -4.6449005219956909 -0.29349012240953698 0 -0.29349012240953698 65.503169233562346 0 0 0 0 -4.7135022645934148 -0.34252714090876069 0 -0.34252714090876069 66.496622859820945 0 0 0 0 -4.7064811711561729 0.19278318858305443 0 0.19278318858305443 64.96177490290745 0 0 0 0 -4.7192679824073087 -0.23103261107593198 0 -0.23103261107593198 64.476646537765191 0 0 0 0 -4.280769419975929 1.4409610747756432 0 1.4409610747756432 62.434125796749754 0 0 0 0 -4.3071860294021755 0.93874951415491914 0 0.93874951415491914 64.671189651857389 0 0 0 0 -4.3093066388831041 1.0156411404975643 0 1.0156411404975643 64.761414196398164 0 0 0 0 -4.3162289926376944 0.46870451935634483 0 0.46870451935634483 67.876807518882856 0 0 0 0 -3.5091523433457432 -0.24271662555634066 0 -0.24271662555634066 66.810796167914589 0 0 0 0 -3.4227059286095667 2.5632215816344228 0 2.5632215816344228 65.052878062225204 0 0 0 0 -3.4442379518855271 2.251603554773169 0 2.251603554773169 70.415316577778697 0 0 0 0 -5.0567978215517728 1.2153478131445394 0 1.2153478131445394 74.362576490958418 0 0 0 0 -3.5123030489074711 -0.56515749286342043 0 -0.56515749286342043 70.461437701174361 0 0 0 0 -2.5283989107758877 0.88523929004377233 0 0.88523929004377233 68.484194059920924 0 0 0 0 3.1724582909808481 4.1775796961067044 0 4.1775796961067044 79.700496677057515 0 0 0 0 1.1726623823117928 1.1584396280545661 0 1.1584396280545661 70.386101090909506 0 0 0 0 3.5123772673015985 5.4868609806833319 0 5.4868609806833319 73.907513852780539 0 0 0 0 0.15463003612296466 0.46315917888637159 0 0.46315917888637159 69.743241243964576 0 0 0 0 0.53048964448438829 -0.96749094819961101 0 -0.96749094819961101 75.184221690018063 0 0 0 0 3.2715152950408095 1.4294377107806326 0 1.4294377107806326 75.476170432370054 0 0 0 0 0.009428742778150756 -4.1093364557592622 0 -4.1093364557592622 69.666281183070282 0 0 0 0 0.25984869628261142 -2.8302232785898696 0 -2.8302232785898696 76.181024592510767 0 0 0 0 2.8482168811778679 -4.2479436817966416 0 -4.2479436817966416 75.197536934438602 0 0 0 0 -2.4236033577349465 -1.8168803899869204 0 -1.8168803899869204 68.65317270090685 0 0 0 0 -4.8472067154698912 -1.8978394689144125 0 -1.8978394689144125 73.853988226831689 0 0 0 0 -3.0474988583814646 -2.8555906809763769 0 -2.8555906809763769 70.060537200014437 0 0 0 0 -2.1233678146934771 -4.5435832554168769 0 -4.5435832554168769 67.803367584298712 0 0 0 0 -1.929924296908399 -5.823026280484271 0 -5.823026280484271 69.216259961574508 0 0 0 0 -4.2467356293869543 -5.2659684973416461 0 -5.2659684973416461 73.703026224790392 0 0 0 0 -1.3232922118999078 -11.475960229046791 0 -11.475960229046791 74.586780808498247 0 0 0 0 -0.66164610594995388 -8.5360708028381964 0 -8.5360708028381964 65.694830309935469 0 0 0 0 2.2160685483609011 -7.4164289157197345 0 -7.4164289157197345 80.216327832586785 0 0 0 0 1.0016350859785854 -5.8846491164176769 0 -5.8846491164176769 69.919378648154861 0 0 0 0 2.5094189579745079 -9.0670830237769451 0 -9.0670830237769451 73.512920013214227 0 0 0 0 2.3621259435829831 -13.919066069184737 0 -13.919066069184737 78.781044547288133 0 0 0 0 4.1040484287646519 -13.273536412654266 0 -13.273536412654266 69.363002175805832 0 0 0 0 2.0482942320630819 -16.627089896246503 0 -16.627089896246503 86.430123282994828 0 0 0 0 -0.79937015578020298 -25.920888195376108 0 -25.920888195376108 99.928199618413146 0 0 0 0 -1.5895412575495649 -22.077699534566932 0 -22.077699534566932 84.826543646556729 0 0 0 0 -2.9336204462712923 -18.56146208208304 0 -18.56146208208304 100.00906904670319 0 0 0 0 0.38978868411997103 -9.683344200206129 0 -9.683344200206129 66.736679104548671 0 0 0 0 9.9458414749071036 -30.073129273351469 0 -30.073129273351469 80.878505831775556 0 0 0 0 4.9729207374535527 -17.755576412490143 0 -17.755576412490143 60.213371728413904 0 0 0 0 4.9362463941727208 -12.647859249529802 0 -12.647859249529802 50.034611745774328 0 0 0 0 4.4519257215599533 -11.54299552617077 0 -11.54299552617077 59.686718115780423 0 0 0 0 3.5819109700832565 -7.712595015179545 0 -7.712595015179545 50.000586779747735 0 0 0 0 3.3556834939729878 -6.5254299178629935 0 -6.5254299178629935 56.38281558400422 0 0 0 0 0.25006580005574131 -8.6090823611513798 0 -8.6090823611513798 58.673006055250994 0 0 0 0 -0.93641449418923717 -5.6632316551711028 0 -5.6632316551711028 64.225927419086759 0 0 0 0 -1.0541171245937035 -4.8960989950830154 0 -4.8960989950830154 60.420869357917468 0 0 0 0 -3.0973611959447584 -2.630766066661236 0 -2.630766066661236 64.287172788175326 0 0 0 0 -3.0732770368304188 -3.1022916281206676 0 -3.1022916281206676 67.133403868237053 0 0 0 0 -1.9694167631223558 -5.2721784321496905 0 -5.2721784321496905 64.100060438585956 0 0 0 0 -3.4646175252029852 -0.35566983273801078 0 -0.35566983273801078 64.068739892994245 0 0 0 0 -2.4614047680219735 -1.808892744559671 0 -1.808892744559671 61.956682933796685 0 0 0 0 -2.4161039227495209 -2.3918169449326001 0 -2.3918169449326001 63.794825556000035 0 0 0 0 -1.1115294231495212 -0.45646178009053529 0 -0.45646178009053529 60.109687940606079 0 0 0 0 0.43611810737599832 -2.7365411530392407 0 -2.7365411530392407 56.572584842174592 0 0 0 0 0.49035457600563515 -3.5174935037567252 0 -3.5174935037567252 58.147714869980916 0 0 0 0 2.9576208843705345 -3.7419888828902401 0 -3.7419888828902401 50.002525915226443 0 0 0 0 2.5446558529114234 -0.048059186445101432 0 -0.048059186445101432 50.00650278324963 0 0 0 0 2.720539551681981 -1.7830464657628227 0 -1.7830464657628227 55.931822897312486 0 0 0 0 2.7417333001077591 1.8320199998103419 0 1.8320199998103419 55.97306602121887 0 0 0 0 2.9907717653891144 3.8188000136728704 0 3.8188000136728704 50.00230458933521 0 0 0 0 0.57340689617742768 3.3466331679143195 0 3.3466331679143195 58.352775788938601 0 0 0 0 0.26746933405311735 2.4230534996399342 0 2.4230534996399342 56.367805136791333 0 0 0 0 4.4101750924315324 11.50465013491538 0 11.50465013491538 59.639379093934963 0 0 0 0 3.4840805391539589 7.4473573509799849 0 7.4473573509799849 50.000989256496318 0 0 0 0 3.3178341942608274 6.4406038678255015 0 6.4406038678255015 56.407892449641906 0 0 0 0 0.26308292144231959 8.5005628252877443 0 8.5005628252877443 58.585699079360609 0 0 0 0 -0.96024331235210858 5.4435359276743611 0 5.4435359276743611 64.010833275437676 0 0 0 0 -1.0752489162830121 4.6956133273124649 0 4.6956133273124649 60.368433182988895 0 0 0 0 -3.1144946179608475 2.6006604684412196 0 2.6006604684412196 64.243087309616527 0 0 0 0 -1.9699698249856161 5.2623078801970564 0 5.2623078801970564 64.093088032761131 0 0 0 0 -3.1136989379149136 3.0277192655379292 0 3.0277192655379292 67.022365372307661 0 0 0 0 -1.0811982592487803 0.27809325307157717 0 0.27809325307157717 60.077072275703927 0 0 0 0 -2.4758719012571877 2.1357159029411719 0 2.1357159029411719 63.536919980959169 0 0 0 0 -3.4703990486928999 0.22594867433119803 0 0.22594867433119803 63.991824775602481 0 0 0 0 -2.449501455230978 1.6148338585361444 0 1.6148338585361444 62.035297056200591 0 0 0 0 -4.095033490329663 0.70154652470316137 0 0.70154652470316137 64.752745119207191 0 0 0 0 -4.6455239136276365 0.24930133331645662 0 0.24930133331645662 65.441772979371535 0 0 0 0 -4.0966864350708168 1.2188285721615666 0 1.2188285721615666 66.062146445012672 0 0 0 0 -3.0653695756924204 2.5402612988969793 0 2.5402612988969793 66.471075664122964 0 0 0 0 -4.1089281565500055 1.3459725052318152 0 1.3459725052318152 68.185812936419893 0 0 0 0 -4.1427104750686574 0.81987337047442566 0 0.81987337047442566 65.626555781197908 0 0 0 0 -4.3544182193078615 -1.0023337540657333 0 -1.0023337540657333 64.68847564710552 0 0 0 0 -4.3579196756375334 -0.42322903811981405 0 -0.42322903811981405 67.686040074568353 0 0 0 0 -3.5548042601313004 0.17562766737003699 0 0.17562766737003699 66.756004529529093 0 0 0 0 -3.4692738120444666 -2.5716917514570241 0 -2.5716917514570241 64.970517696176387 0 0 0 0 -4.3037037272086049 -0.78969533374475986 0 -0.78969533374475986 64.432632324068777 0 0 0 0 -4.3054227122148419 -1.309422730961785 0 -1.309422730961785 62.461302418659102 0 0 0 0 -4.7194133966964209 0.26921056913107178 0 0.26921056913107178 64.419537517311596 0 0 0 0 -4.7320479757900156 -0.19618259251402037 0 -0.19618259251402037 64.959481738093984 0 0 0 0 -4.7229056459727436 0.35214241454025341 0 0.35214241454025341 66.363923603932164 0 0 0 0 0.59554647883617529 0.82014782228549166 0 0.82014782228549166 75.442652934486546 0 0 0 0 0.38559519705987144 -0.28095090883115859 0 -0.28095090883115859 69.873968470908949 0 0 0 0 3.3025140690090788 -4.1390411849590407 0 -4.1390411849590407 80.023071598183662 0 0 0 0 3.6349446515723285 -5.6135001949862726 0 -5.6135001949862726 74.362737478920309 0 0 0 0 1.4148041309849173 -1.2012847504175568 0 -1.2012847504175568 70.597558083273498 0 0 0 0 -3.4991670007698925 -2.2373961963768352 0 -2.2373961963768352 70.21035301131198 0 0 0 0 -2.5141470687754457 -0.90762261011840906 0 -0.90762261011840906 68.443070534033666 0 0 0 0 -3.5256422037223989 0.60716034168152078 0 0.60716034168152078 70.386356871077226 0 0 0 0 -5.0282941375508887 -1.3132710495382298 0 -1.3132710495382298 74.234097364866614 0 0 0 0 -4.8314405312040352 1.8838644299708078 0 1.8838644299708078 73.72005241635361 0 0 0 0 -2.415720265602018 1.7842503533981642 0 1.7842503533981642 68.670911141170308 0 0 0 0 -3.0663788523635649 2.8397839699923395 0 2.8397839699923395 70.091790071505613 0 0 0 0 0.384103480052707 2.5467880785219279 0 2.5467880785219279 75.631936074872669 0 0 0 0 0.070210921002765936 3.9075917901001276 0 3.9075917901001276 69.753259484465502 0 0 0 0 3.5407880948112935 -1.3828952693051235 0 -1.3828952693051235 75.601960979492901 0 0 0 0 2.8958501033203321 4.2310170012854087 0 4.2310170012854087 75.411455525837596 0 0 0 0 2.1675584529175018 7.362837237725941 0 7.362837237725941 80.227191078804879 0 0 0 0 2.3409285179346631 8.9719728963309535 0 8.9719728963309535 74.064812732221895 0 0 0 0 0.7374617529863956 5.5853363244560512 0 5.5853363244560512 69.977099717116289 0 0 0 0 2.4039106515211586 13.69851591844926 0 13.69851591844926 78.714987131826263 0 0 0 0 -2.1381642584721021 4.582018298005039 0 4.582018298005039 67.809889535558426 0 0 0 0 -1.9525314436280738 5.7448926801410778 0 5.7448926801410778 69.085482559847435 0 0 0 0 -4.2763285169442051 5.5574759330035022 0 5.5574759330035022 73.715888011953382 0 0 0 0 -1.3048146779933134 11.55152713994579 0 11.55152713994579 74.619709661974724 0 0 0 0 -0.65240733899665582 8.5371335007743312 0 8.5371335007743312 65.619369062375938 0 0 0 0 0.45630560117460506 9.7527196515025771 0 9.7527196515025771 66.700106261467624 0 0 0 0 9.909520731290705 30.07092816520257 0 30.07092816520257 80.882654422474616 0 0 0 0 4.9547603656453525 17.74846134170275 0 17.74846134170275 60.244138439380606 0 0 0 0 4.8878005343925448 12.610055558036933 0 12.610055558036933 50.03428670330203 0 0 0 0 2.0197392889971666 16.514428448059164 0 16.514428448059164 86.50646565475688 0 0 0 0 4.0822656880349735 13.283849870244808 0 13.283849870244808 69.374364341495266 0 0 0 0 -0.75175442994379871 25.8785026202155 0 25.8785026202155 99.928780673654728 0 0 0 0 -1.5384489118116882 22.002745401285722 0 22.002745401285722 84.6232169465369 0 0 0 0 -2.8857653522568643 18.388678119054362 0 18.388678119054362 100.00841377799065 0 0 0 0 -2.7843030694474478 15.770062930400911 0 15.770062930400911 89.659467794529519 0 0 0 0 1.1621769804843654 12.032930361511575 0 12.032930361511575 89.909061256468419 0 0 0 0 0.73604459986598636 8.7216435373745185 0 8.7216435373745185 92.587738815797977 0 0 0 0 -2.4648694903939945 11.028802396718618 0 11.028802396718618 92.7308512221623 0 0 0 0 -2.6715796411930497 12.811191125390721 0 12.811191125390721 99.990497439424018 0 0 0 0 -2.2484186320969819 8.7578658217789496 0 8.7578658217789496 99.999031742743114 0 0 0 0 -2.0913298550667196 7.3799562917847652 0 7.3799562917847652 94.591870240184363 0 0 0 0 0.47832390423648385 5.9438626700435009 0 5.9438626700435009 94.559122275406736 0 0 0 0 0.56267973950244599 7.526574615091846 0 7.526574615091846 88.85145951538982 0 0 0 0 2.4211261320443151 3.9581620682183427 0 3.9581620682183427 86.995165754338046 0 0 0 0 2.7712693817809422 4.7008940776192389 0 4.7008940776192389 88.547742922815303 0 0 0 0 3.0031979877263471 5.9430320401193768 0 5.9430320401193768 83.528510494084458 0 0 0 0 3.0175606122976326 6.3789407573693779 0 6.3789407573693779 85.020635158198914 0 0 0 0 3.2311651581994139 7.9073697917454666 0 7.9073697917454666 78.915862856036767 0 0 0 0 1.0649740287672942 10.570938663830191 0 10.570938663830191 85.048443655524181 0 0 0 0 -0.13797993588971069 1.995405020435264 0 1.995405020435264 95.780916072384116 0 0 0 0 -0.0013483325736693013 0.56378590341410284 0 0.56378590341410284 96.830873834398389 0 0 0 0 -1.1852804102183703 1.5233817557709628 0 1.5233817557709628 99.933997616759854 0 0 0 0 -1.3963376715310591 2.4294721347349721 0 2.4294721347349721 96.594328321234414 0 0 0 0 -0.24387745266389915 1.7920152383671777 0 1.7920152383671777 96.429905995801889 0 0 0 0 -1.7511897826551948 3.2167817009802278 0 3.2167817009802278 100.01503711613289 0 0 0 0 -1.8404204305665146 4.5438511745644234 0 4.5438511745644234 95.798952371175631 0 0 0 0 -1.9232227607945376 5.6230375781133262 0 5.6230375781133262 99.992155415738083 0 0 0 0 0.25739586892601651 3.5618445580235658 0 3.5618445580235658 95.690795070613703 0 0 0 0 0.35259838980770697 4.8285503157207827 0 4.8285503157207827 91.202874958730519 0 0 0 0 2.1467086886815219 3.0790445088050973 0 3.0790445088050973 91.144164775849902 0 0 0 0 1.7628963846346859 2.2779636217452577 0 2.2779636217452577 89.505992516282546 0 0 0 0 1.3145584551197786 1.7764394974686368 0 1.7764394974686368 92.815431240119878 0 0 0 0 0.19586580223418082 2.8301273190403862 0 2.8301273190403862 93.055472546748177 0 0 0 0 1.0802826447794835 1.0792262191629902 0 1.0792262191629902 91.113014383003858 0 0 0 0 0.78496556061618761 1.3701021023027948 0 1.3701021023027948 93.186614370738468 0 0 0 0 0.00035832388203371133 0.16463036661528954 0 0.16463036661528954 91.725140940175748 0 0 0 0 0.00086244658671529159 0.67461919656950731 0 0.67461919656950731 93.952887858500631 0 0 0 0 0.0018702304147550032 -0.63715874213903978 0 -0.63715874213903978 90.710621475819863 0 0 0 0 1.2606197060220776 0.12337123990397458 0 0.12337123990397458 91.169322217342696 0 0 0 0 1.3622558415381572 0.31621522556624626 0 0.31621522556624626 91.003022790264765 0 0 0 0 2.4073976223613629 -1.0136790086240808 0 -1.0136790086240808 89.313009220272775 0 0 0 0 2.2456307119218142 0.18159766403444166 0 0.18159766403444166 89.369678976060655 0 0 0 0 2.7210918552412862 0.65116924705949231 0 0.65116924705949231 89.322454638139305 0 0 0 0 3.2147584886459253 0.90451368892640005 0 0.90451368892640005 87.251506369862028 0 0 0 0 3.6228606059924267 -1.2037413020885737 0 -1.2037413020885737 87.212096961783828 0 0 0 0 3.0728325741577631 -3.2675158145537679 0 -3.2675158145537679 89.618138928535558 0 0 0 0 2.7474396526683531 -2.7361988673051769 0 -2.7361988673051769 88.757616831389143 0 0 0 0 1.9982311472600731 -2.6901885074938932 0 -2.6901885074938932 90.945656343237403 0 0 0 0 2.9322744189166898 -1.349580104762893 0 -1.349580104762893 88.698110721966202 0 0 0 0 1.567516763296037 -1.4342664830229026 0 -1.4342664830229026 90.211913942674968 0 0 0 0 1.4846367164938035 -2.0627098276589351 0 -2.0627098276589351 90.271224501589984 0 0 0 0 1.1205920776255169 -2.426135664330225 0 -2.426135664330225 91.646915615582387 0 0 0 0 0.00035530027166850563 -1.5488410926749403 0 -1.5488410926749403 90.960577983638785 0 0 0 0 1.3417911450532465 -1.0983640703806807 0 -1.0983640703806807 90.812589277028977 0 0 0 0 4.9329830556626906 -1.4074941058364345 0 -1.4074941058364345 80.235230974139483 0 0 0 0 3.8258980915350396 2.4172603059853799 0 2.4172603059853799 78.904349058850585 0 0 0 0 4.2969551492075375 2.0371452685407831 0 2.0371452685407831 83.46567409859523 0 0 0 0 4.1666867743302731 3.0894122672630431 0 3.0894122672630431 80.210093062741137 0 0 0 0 3.9360933849794919 1.9217692534895008 0 1.9217692534895008 84.171377310593925 0 0 0 0 3.7182323728529356 1.2927226263172145 0 1.2927226263172145 86.984582203752083 0 0 0 0 4.5731132863877795 -1.3370396163593909 0 -1.3370396163593909 84.227969479886823 0 0 0 0 3.9387892259641055 -1.255788615380979 0 -1.255788615380979 86.405966119992314 0 0 0 0 3.7852884025880069 -3.6044905863801091 0 -3.6044905863801091 86.51097439724451 0 0 0 0 3.876425294037924 -3.9713692785400241 0 -3.9713692785400241 87.537548124471073 0 0 0 0 4.2430095349110779 -4.5753752023519496 0 -4.5753752023519496 84.512489810110935 0 0 0 0 4.7085206299667774 -4.6001850359339755 0 -4.6001850359339755 83.189240405244476 0 0 0 0 4.5034656745935502 -0.94938072208675806 0 -0.94938072208675806 83.105658128382402 0 0 0 0 3.9349561233751178 -0.13602815287785575 0 -0.13602815287785575 78.821292688171752 0 0 0 0 5.1976575637675548 -5.3953692498616874 0 -5.3953692498616874 78.694629368782287 0 0 0 0 3.3479300555682769 -9.0428014200769837 0 -9.0428014200769837 89.730667767647788 0 0 0 0 2.053563719780966 -11.284046413159672 0 -11.284046413159672 89.648102446675693 0 0 0 0 1.4825012770584109 -8.0498130739725582 0 -8.0498130739725582 91.417086657190026 0 0 0 0 4.0179235197268346 -8.1177507522263141 0 -8.1177507522263141 84.486143975627442 0 0 0 0 2.9480354076819424 -7.0861934044385322 0 -7.0861934044385322 91.417435012241754 0 0 0 0 3.107297408497768 -6.1625971186023776 0 -6.1625971186023776 87.667372997775999 0 0 0 0 2.4233923088246465 -5.2930426076749342 0 -5.2930426076749342 92.33859392340122 0 0 0 0 1.1980149621291014 -5.7707925174389487 0 -5.7707925174389487 92.356975470592744 0 0 0 0 0.94340823633891269 -6.923495169452039 0 -6.923495169452039 97.007321936732524 0 0 0 0 -0.60222556960161722 -5.2381463235703123 0 -5.2381463235703123 51.60734192916405 0 0 0 0 -0.59231612797176858 -6.1005384438144148 0 -6.1005384438144148 48.503660968366283 0 0 0 0 -0.84114996440012746 -8.0853305627208414 0 -8.0853305627208414 49.350168644805038 0 0 0 0 -0.99581772229910159 -7.1387938247847202 0 -7.1387938247847202 53.357418686849201 0 0 0 0 -1.4472264621092359 -9.4405370724454087 0 -9.4405370724454087 56.231978757576371 0 0 0 0 0.88827503542222885 -9.6236778472600406 0 -9.6236778472600406 98.700337289610047 0 0 0 0 0.00064626133021334969 -2.6481022399135377 0 -2.6481022399135377 93.401415776873407 0 0 0 0 0.77478139736235985 -3.1690048806869768 0 -3.1690048806869768 92.916374135764841 0 0 0 0 0.0010517174829438646 -2.2433477593899642 0 -2.2433477593899642 92.012325280859898 0 0 0 0 0.71404801582165867 -3.0754120122380897 0 -3.0754120122380897 93.138846166882018 0 0 0 0 0.74024963248721187 -3.0981275556235204 0 -3.0981275556235204 93.143380449757743 0 0 0 0 1.6478676491699105 -3.3441459980208279 0 -3.3441459980208279 91.02553409207087 0 0 0 0 2.3735923471793203 -4.4830928114697883 0 -4.4830928114697883 89.672148739575732 0 0 0 0 1.7972772989579333 -3.9676651747477649 0 -3.9676651747477649 92.832677620739986 0 0 0 0 0.99221918813360688 -4.0994701746964637 0 -4.0994701746964637 92.840553378524859 0 0 0 0 0.84506361008502928 -4.9517642384378888 0 -4.9517642384378888 96.127412997662901 0 0 0 0 -0.27018515032463908 -3.7396911202049594 0 -3.7396911202049594 50.440421228921878 0 0 0 0 -0.30501035924752617 -4.425620616250427 0 -4.425620616250427 48.063706498831429 0 0 0 0 0.047732769754321946 -3.1940394304471589 0 -3.1940394304471589 47.701501047235617 0 0 0 0 0.58259284447879489 -3.6940216786541065 0 -3.6940216786541065 95.403002094471248 0 0 0 0 0.013425692141430856 -2.6328845820466764 0 -2.6328845820466764 49.581792525820468 0 0 0 0 0.19323759101717169 -2.4198290690076099 0 -2.4198290690076099 47.15053181554579 0 0 0 0 0.00028173640675600918 -1.5215371552366554 0 -1.5215371552366554 49.140071497699687 0 0 0 0 0.39684140698533915 -3.2960237398500221 0 -3.2960237398500221 94.30106363109158 0 0 0 0 -0.0010197831840040585 -1.2670097518865848 0 -1.2670097518865848 50.955541907273322 0 0 0 0 -0.88642178737355382 -1.5731541106028537 0 -1.5731541106028537 51.397998896689685 0 0 0 0 -0.4871366060067257 -2.301118502214635 0 -2.301118502214635 49.790135209156269 0 0 0 0 -0.39919443363384843 -2.0863336840502171 0 -2.0863336840502171 49.714934296978761 0 0 0 0 -1.4895415068583198 -1.7065555720174856 0 -1.7065555720174856 52.015102213641612 0 0 0 0 -1.061235821878046 -2.4940097497020979 0 -2.4940097497020979 51.840444903715159 0 0 0 0 -1.1919162263449046 -2.9574768897558101 0 -2.9574768897558101 50.524534798970748 0 0 0 0 -1.5921781782722495 -3.4548317860961504 0 -3.4548317860961504 53.295135085680442 0 0 0 0 -2.273879352326754 -2.1994542282486051 0 -2.1994542282486051 53.337095587519926 0 0 0 0 -2.0019673043499568 -1.778416611754146 0 -1.778416611754146 53.97313321927281 0 0 0 0 -2.7363372547246945 -0.64936655607928628 0 -0.64936655607928628 55.198831136382246 0 0 0 0 -2.2908475926933072 -0.66102437481702481 0 -0.66102437481702481 54.098061826165122 0 0 0 0 -1.9356767273146649 -0.39796331537055352 0 -0.39796331537055352 53.707682716361923 0 0 0 0 -1.1693520375363931 -1.2132534594392617 0 -1.2132534594392617 52.765372916696059 0 0 0 0 -1.2190773759040447 -0.65900056790569295 0 -0.65900056790569295 52.844486059670665 0 0 0 0 -1.1143255978625533 -0.4846550321459695 0 -0.4846550321459695 52.468742404093405 0 0 0 0 -0.00028221996620722702 -0.70333862767708155 0 -0.70333862767708155 52.231650216524308 0 0 0 0 -2.9426959600378297 -3.055628888379573 0 -3.055628888379573 57.670339930972858 0 0 0 0 -2.3947595588396 -6.0572430989326023 0 -6.0572430989326023 56.002981675049767 0 0 0 0 -2.6830601804604779 -5.8449786198958407 0 -5.8449786198958407 57.651847614191908 0 0 0 0 -2.1504578799188767 -5.130722927830071 0 -5.130722927830071 53.480473642387636 0 0 0 0 -2.1343052938414351 -4.680242334029991 0 -4.680242334029991 55.04783357646636 0 0 0 0 -1.7117636802510772 -4.0543859220118748 0 -4.0543859220118748 51.634207302560867 0 0 0 0 -2.7960038397823075 -2.7107757273574293 0 -2.7107757273574293 55.257086834466172 0 0 0 0 -2.6739962603508678 -2.4773713745197625 0 -2.4773713745197625 55.70331941106457 0 0 0 0 -2.9817009156735859 -0.73445993270658505 0 -0.73445993270658505 55.71023778952565 0 0 0 0 -3.2394060443300572 -0.94334685392325923 0 -0.94334685392325923 57.194299747861898 0 0 0 0 -3.2822336914417782 -0.77315620708634469 0 -0.77315620708634469 57.923204725021918 0 0 0 0 -3.3122477967510475 -1.2104416047822326 0 -1.2104416047822326 59.528774008169698 0 0 0 0 -3.1393617634997919 -3.168150750754009 0 -3.168150750754009 57.884716952044528 0 0 0 0 -3.1098659492639209 -3.7132492197137452 0 -3.7132492197137452 60.534514616814192 0 0 0 0 -2.9695658126552997 -0.62147074960932969 0 -0.62147074960932969 60.54099813811581 0 0 0 0 -2.6058984741272901 -1.4126002974168443 0 -1.4126002974168443 62.190549266876111 0 0 0 0 -1.5741466705071026 -0.62245916050972738 0 -0.62245916050972738 62.375960183804636 0 0 0 0 -1.4165480217861179 -1.3304309728604409 0 -1.3304309728604409 65.529316613929723 0 0 0 0 -2.1536204189762227 -4.008533524646424 0 -4.008533524646424 63.195354329046211 0 0 0 0 -2.3748640155361951 -3.0651606328949725 0 -3.0651606328949725 60.571265432687113 0 0 0 0 -1.7340775784447298 -2.880728591407447 0 -2.880728591407447 65.954215007009111 0 0 0 0 -2.2255258608598361 -7.3803843205182318 0 -7.3803843205182318 67.240212819511612 0 0 0 0 -1.8934709708215673 -7.3047492008068389 0 -7.3047492008068389 58.707510014830859 0 0 0 0 -2.9769848509147998 -6.9002072926154199 0 -6.9002072926154199 61.49312584939095 0 0 0 0 8.7725680235090717 -6.7609807499921999 0 -6.7609807499921999 68.798149182636053 0 0 0 0 -0.45772652114511442 -6.9195355350648278 0 -6.9195355350648278 72.069272188450327 0 0 0 0 -0.2288632605725579 -5.6442510510073589 0 -5.6442510510073589 63.7288037868218 0 0 0 0 7.2833708814397742 -2.9733983583207646 0 -2.9733983583207646 65.796230857497847 0 0 0 0 -0.30197540844501586 -2.4123117623814485 0 -2.4123117623814485 68.726154663892316 0 0 0 0 -0.15098770422250757 -2.2831911967431324 0 -2.2831911967431324 63.763423466592144 0 0 0 0 6.509644498200208 -0.70046303167237056 0 -0.70046303167237056 64.857674760047303 0 0 0 0 6.547842306579251 -1.5763632782390573 0 -1.5763632782390573 69.821275480678821 0 0 0 0 10.150760325430772 -2.9459985611271122 0 -2.9459985611271122 73.092781463842243 0 0 0 0 10.152905724792706 -1.8579759630178501 0 -1.8579759630178501 68.347033106737626 0 0 0 0 12.634459081929961 -0.0027217655738240865 0 -0.0027217655738240865 70.910927051611793 0 0 0 0 12.017867504601799 -0.82128412830991238 0 -0.82128412830991238 72.061756512305465 0 0 0 0 12.01786436774287 -0.53931459489263034 0 -0.53931459489263034 69.726937150488311 0 0 0 0 11.703888925274454 0.16728315131051896 0 0.16728315131051896 73.307741686567624 0 0 0 0 10.469291753196877 -2.5932111518716852 0 -2.5932111518716852 77.033589022985097 0 0 0 0 10.469298747028724 -1.9645764340199325 0 -1.9645764340199325 74.094780321656572 0 0 0 0 6.5039890162482301 -3.6455626469623894 0 -3.6455626469623894 84.74742782934311 0 0 0 0 6.4303783805604162 -3.8038817720412226 0 -3.8038817720412226 87.237716119609445 0 0 0 0 8.6513572627497659 0.07095962610364559 0 0.07095962610364559 80.589189543998828 0 0 0 0 7.0805616399595506 -5.7049620449167335 0 -5.7049620449167335 73.686292571163904 0 0 0 0 8.5646325639036824 -6.8687860703889783 0 -6.8687860703889783 80.389637494612714 0 0 0 0 8.9994614750540691 -5.4738770541190434 0 -5.4738770541190434 73.418528819988239 0 0 0 0 6.4921228538290627 -11.577533438495664 0 -11.577533438495664 84.553476439805536 0 0 0 0 4.7166406698247947 -14.559126390647521 0 -14.559126390647521 83.398885729382528 0 0 0 0 3.4776530623897219 -8.72324949853774 0 -8.72324949853774 87.901566252831117 0 0 0 0 2.5544367169041422 -9.8264137286637094 0 -9.8264137286637094 100.82327146957562 0 0 0 0 -0.041497517213043622 -7.1673376927039669 0 -7.1673376927039669 50.411635734787957 0 0 0 0 3.7742174644683644 -2.0597084297933179 0 -2.0597084297933179 88.252851429898612 0 0 0 0 2.859525624543835 -4.6143742922725437 0 -4.6143742922725437 98.318380679777874 0 0 0 0 0.35305739335981912 -3.653132594312126 0 -3.653132594312126 49.159190339888937 0 0 0 0 -2.1498808632297077 -2.3726505362759553 0 -2.3726505362759553 56.187617944392116 0 0 0 0 -0.040286988860316342 -1.8042542078235329 0 -1.8042542078235329 55.799555466374841 0 0 0 0 -2.1946000368206873 -2.3556655723191078 0 -2.3556655723191078 59.089080871644398 0 0 0 0 -3.3587340670021106 0.15769205619233073 0 0.15769205619233073 60.451661302330535 0 0 0 0 -1.1190564060301078 -10.598558179278172 0 -10.598558179278172 62.085942935719686 0 0 0 0 -2.4743159028092094 -6.1112303889556756 0 -6.1112303889556756 60.29265895170829 0 0 0 0 -0.34028788214936334 -6.447626628304306 0 -6.447626628304306 56.579676421193426 0 0 0 0 -3.5467808949764272 -3.5916331694602945 0 -3.5916331694602945 60.94414194148132 0 0 0 0 -3.7138019976187655 -3.1822488255143107 0 -3.1822488255143107 65.66081508224903 0 0 0 0 -1.5820318778910667 -4.5487474357258293 0 -4.5487474357258293 67.258511270628247 0 0 0 0 2.0305311340821777 -14.455585715453481 0 -14.455585715453481 63.117811774002149 0 0 0 0 -2.7431340183918493 -6.2431253373975366 0 -6.2431253373975366 69.769299887156421 0 0 0 0 4.0610622681643473 -25.473479952832406 0 -25.473479952832406 85.390653079484451 0 0 0 0 -3.1640637557821396 -6.7414233818616598 0 -6.7414233818616598 75.829363806852712 0 0 0 0 6.142628153000036 -6.809020012814301 0 -6.809020012814301 71.448443158775603 0 0 0 0 5.4674019849480366 -9.9132158381910358 0 -9.9132158381910358 78.936572964481499 0 0 0 0 3.2694304985603013 -11.837846270452559 0 -11.837846270452559 87.38571556448278 0 0 0 0 2.8974977879242232 -16.27972216605491 0 -16.27972216605491 86.163233926049472 0 0 0 0 -0.61519405867349719 -15.753483640044976 0 -15.753483640044976 109.50690203186934 0 0 0 0 0.45215989885858487 -13.170072551694346 0 -13.170072551694346 101.90287183560616 0 0 0 0 -0.73241887750632051 -10.144916684879334 0 -10.144916684879334 50.951435917803167 0 0 0 0 -1.4023785894692287 -12.556152117841776 0 -12.556152117841776 60.606340093783956 0 0 0 0 0.65469356532374512 -10.817292340984572 0 -10.817292340984572 54.753451015934672 0 0 0 0 2.7534326315030047 -14.990880765008512 0 -14.990880765008512 61.001888797799239 0 0 0 0 1.158967107541087 -14.433880700654711 0 -14.433880700654711 109.2693675347781 0 0 0 0 5.5068652630060058 -25.439842339215033 0 -25.439842339215033 82.909546102192422 0 0 0 0 0.66173677253186525 -9.5296245313717591 0 -9.5296245313717591 54.634683767389049 0 0 0 0 
</DataArray>
<DataArray type="Float64" Name="displacement_divergence" format="ascii">
0.96779816173021338 0.98705828080588587 0.95567221872401864 0.95850040027988048 0.9508142855296795 0.98234498588473473 0.97892978829152755 0.9415381207446929 0.95092551041358464 0.94397091662139021 0.93220201268023162 0.93376700632897114 0.9104521567815218 0.93297338058222834 0.92953506417020548 0.9392822099290743 0.91926201078216696 0.94217510836653628 0.88588109887134703 0.88884331043929254 0.90617036018756192 0.967834836665459 0.93009418771629404 0.97471852320795627 0.93000708083636963 0.93762028898615535 0.92756297742731308 0.91278046621130882 0.90246380770144574 0.86449716171437951 0.89228433370066185 0.90058443766757268 0.8504003879527291 0.8342616343392022 0.88770792800511611 0.83891359382377928 0.81986944886488899 0.88297661111698167 0.85750419952807322 0.88654719979325547 0.90718595811401603 0.91438206836438218 0.8871693008751711 0.90416362907031589 0.869400087986409 0.88563107912051553 0.90899195213099304 0.84886245233223079 0.82425716589212339 0.85570469418569362 0.90764291924852791 0.9280317836032882 0.91288139014114922 0.92300710433472144 0.90224102367760028 0.92646369216897717 0.92799517477929339 0.9071439365125693 0.92218940928712412 0.9302646552702889 0.91780654185220045 0.90964203033545465 0.90937524939361314 0.92497293133587133 0.92928193310760965 0.92103229490183269 0.93637444315162599 0.93742401267217379 0.93312946085542614 0.93629145575387152 0.94687105168456487 0.99127343131844126 0.94640706438116273 0.98250305365777046 0.95680376261135192 1.0027732149929065 0.95294506229450526 0.95829204987807792 0.9703046777027311 0.94011329014336975 0.94298662564130376 0.9341996329219856 0.92544104065502486 0.93077035563067567 0.90348940945573286 0.93822553871510628 0.93946629382100078 0.90256195783890725 0.93450924093165533 0.94242890937204038 0.92795631948751467 0.91440457224188254 0.99778112273840991 1.0461151438579868 0.97665953596285571 1.0923546525027508 0.97545268860475121 0.95609330196731657 1.0189585508259462 0.99806712052146207 1.0572013486189924 1.0473872769397121 1.0707483926249903 1.0240763613984094 1.0984406267439697 1.0918508897553836 1.1472377916818397 1.0932900871345037 1.1242820922887713 1.0913813867045601 1.1496340874824647 1.0580797923927352 1.0785970272632479 1.0532360435788863 1.0503341400567916 1.0380853079976513 1.0369709307355026 1.0331758112162017 1.0273540247327635 1.0532893647162702 1.0429016409881904 1.0307823557907811 1.0307309995324649 1.0190599884428024 1.0104432789704434 0.98545522191034052 0.98568812799870298 1.0158193700074984 1.0327220387600029 0.98554691379470838 1.020406462814559 1.0097471075927948 0.80726495771834372 0.82426155325150496 0.91106273801710724 0.88817380136642932 0.91144943272476464 0.89232275881662115 0.93806945384567086 0.87398407241002829 0.84684920963577071 0.85078428166962539 0.84081024526861192 0.81751203902422453 0.8126764595055489 0.83243480562983674 0.78386263229916509 0.77252226752102349 0.76368141415244661 0.67613472421837084 0.71334577933819254 1.269636392686964 1.2722476936789846 0.6845667645927449 1.1899215548828239 1.2171053585710894 1.2818159795209096 1.2173392196187294 1.1632901609459845 1.285422039805356 1.2990559229104326 1.1372171956868664 1.1659954478863199 0.72910281002990107 1.2695540553649005 0.77359797412950115 0.71602955483501241 1.1037910424167618 0.88447332325470729 1.2757832865407632 1.106603347497753 1.0010971238957911 1.1106802819007493 1.1774404980562536 1.0909685617994143 1.0183747153146621 0.89035855033656031 0.7693623806959895 0.91242480529773484 0.82371559438916186 1.3422609582504403 1.3043798645511124 0.8941723494373317 0.72405424130369633 1.3106955435422791 1.2423358825667989 1.1515439676993688 1.1288903233456367 1.1578260320223599 1.222773374981867 1.0081042298324103 0.91069948759159303 1.0333585208877496 0.88088746796931616 0.92152472367378913 1.0114379757188541 0.98895253535304251 0.97571580333035079 1.0839279767680674 1.1157685092884559 1.1391563796029489 1.1434106652913112 1.1628872134448445 1.1955308953197612 1.2050642709237076 1.2360404758562806 1.2064749826457017 1.2333677282607507 1.2709985329767353 1.2667350113450544 1.2093798801084965 1.2318714940844799 1.2848683554218798 1.2688977223821896 1.2435384831537206 1.2130738600860793 1.2176088981814797 0.78372513818627088 0.779316831324945 0.81765353570056609 0.7273316473966096 0.71107550154271015 0.69476809573203058 1.3382786161605402 1.3216585776561622 1.3392576252235555 1.3243870522070402 1.3425213132617548 0.68782653075826161 0.70719431680368183 0.77749487945605988 0.77032500784076685 0.79836998024836658 0.8119062283763685 0.77418777824059948 0.71224165791380845 0.73034107536706472 0.69706009848671213 1.314271448000583 1.3453650064110736 1.2974524969568324 1.342726272351495 1.0990459006345938 1.3042981288224729 0.90577554088385526 0.89238084043975352 0.72914209213670933 0.99296254415741725 0.83830106482242783 0.96925397899468846 1.1771500144817457 1.1891922442777787 1.2116964182896819 1.2284819937640652 1.2235924376561131 1.2833223452074023 1.2429978102426364 1.2630524286264615 1.1861704845436991 1.1779239953909784 1.2806173571017159 1.1890308612175264 1.0717153819842169 1.0617585419858013 1.1390767162524291 1.1748607896369858 1.0520155658879098 1.1698893129220722 1.1716675074414109 1.058837342533959 1.1727686146135987 1.135902056026648 1.1806607297219092 1.2246486179802929 1.1867809744889328 1.211397471579259 1.2804781170801345 1.2414266491637891 1.2232841067992446 1.1862572917304428 1.2633071196607872 1.1779001846468691 1.1922371723086314 1.0711056247809534 1.2814743983182879 1.3040334741385777 1.09961632453272 0.90583707276828918 1.3441885210527751 0.96987933497950785 0.83762445469059088 0.99263881134689202 0.89283005751214661 0.72860257558011643 0.79867912931630514 0.71281643954954177 0.81236981855239421 0.77372890855868803 1.2969640243814364 0.73013241338479418 0.69727999727841272 1.3137447564134561 1.3449610697997656 1.3410506432708367 0.68803244302786837 1.3235964089192951 0.77918477417620302 0.70795845547827696 0.77178651848193702 0.78241929397066912 0.78832183412809265 0.71384095401313274 0.73271755497550117 0.82189912476653681 1.3214316090959315 1.3371389647573704 0.69504098568671502 1.3342839247073179 1.2302772956642007 1.2672288498423558 1.2643126406438983 1.2068919398482834 1.202645847703125 1.1632162255409249 1.1941514516419431 1.2045474982252156 1.2328369017088718 1.2160047596519732 1.2123134099410624 1.2396180372647621 1.2677766640982551 1.2825335634212518 1.2300923409789819 0.91896165439162658 0.93934005884822547 0.92937087888208225 0.94200080017689736 0.95572878569694097 0.98710916030364226 0.96772729420911929 0.95064805974741518 0.95851376373561692 0.98218567489438868 0.94267905119567175 0.97809609718823154 0.95146338205954617 0.94460274243646403 0.93304279054864203 0.93247564173432806 0.91186230839410243 0.93378645724484421 0.91482875784931217 0.86675241676597992 0.89237315737514677 0.93004407304857573 0.90535672708019987 0.93717032991517257 0.93172909611079824 0.97478759028093265 0.93082819365743941 0.90633186907178143 0.96860354804394078 0.88752777845013853 0.88629519887411501 0.88732097422528966 0.90450052624692745 0.83698394038257362 0.85097542243136814 0.8228757777929232 0.88640496082875231 0.84132281730231817 0.82743656541054023 0.85994816709639466 0.85293524514506203 0.91009399186152962 0.88795056350809887 0.87201713237991463 0.90518121608283231 0.8887130559307117 0.91572779830188367 0.90906131256728173 0.86039640242841031 0.88874287161140586 0.92350888651681196 0.92653831482920523 0.90301836759307896 0.92269257360650769 0.90774605799314401 0.93035307512632492 0.92795500906971995 0.90988674053522445 0.91783058746227475 0.92899968596336358 0.90964219055019768 0.92471451311194031 0.90782068295374252 0.91328559362593431 0.92787279994610827 0.98285074115603521 0.94608720156922033 0.99125492771111468 0.94656675041083327 0.93312512697141869 0.93612806991960795 0.92114451365229755 0.93720200569977763 0.93612787559619193 0.93423232020304248 0.92521647794178108 0.94336649730347766 0.93978352640672291 0.97021448587210202 0.95823750737305602 0.95257283686152172 0.95653660016606068 1.0043416667867149 1.0201316486877099 0.95595505084065024 0.97566879893592429 0.93892343377400067 0.93829121354499101 0.93121550352415916 0.90418293738779454 0.94374773151215674 0.93419364730439991 0.90428070861971044 0.91387091604700998 0.92810578931948839 0.99742993483698328 1.0466727705187946 0.97678588617252771 1.0946333020848122 1.0743408098473566 1.0258793144318779 1.0997810602427762 1.0925859628562238 1.1505754978737297 1.1553709559531882 1.0926387714959223 1.1263632199725186 1.0969907852542224 1.0802852501314604 1.0534789791554537 1.0601172803203163 1.0464245049972796 1.059025461187673 0.99804123429845926 0.98593795697409004 1.0345901794011354 1.0162593938377285 1.0110243588309267 1.0210403402690027 1.0393555244372408 1.0338335448379432 1.0511272290493068 1.0366329412454327 1.0311241086681375 1.0324131278231312 1.0264568195196375 1.0531417495531521 1.0436276020495185 1.0099447718787733 1.0196376684832007 0.98648359237581884 0.98546997014591398 1.0084858741952472 0.88102369720869156 0.91533586679856249 1.0339109477003185 0.92217303747671586 1.0046045086535045 1.0110071155597407 0.98987520083320468 1.1378813648452297 1.1157262393599368 1.0816496181780879 1.1419432785269024 1.1481605287252901 1.125025261430018 1.219669490181893 1.1564028711443459 1.2387723168759557 1.3107525447366157 0.72521056349197721 0.89280507529822639 1.3400453735349416 1.304210777430483 0.82861242270544189 0.91070709297661523 0.77569499232577144 0.89244032553697306 1.0178163797382034 1.0919520658479343 1.1843584948413834 1.1106644756231603 0.99975051426465267 1.1057914760697667 1.2764539620639113 0.88551313765726114 1.1032541601873378 0.77040389092113681 0.71484254100956868 1.2699280907880954 0.72502319435541285 1.1679184116243686 1.1379476700047868 1.3017725963224009 1.2890011840802371 1.1684764352903991 1.2233885764352337 1.284263881374816 1.220500432466761 1.193674515364739 0.68379687064934114 1.2710662707040328 1.2690921459855335 0.67697027248179964 0.71034418224010931 0.7605584826955436 0.82984464309277683 0.78059427134285553 0.80476506480818166 0.88949479426763034 0.82072771177826542 0.91186768974272958 0.9345307230760409 0.89393737656354411 0.91500620961161783 0.84196060011122942 0.87401516777936195 0.84943143364270313 0.81444316580463916 0.8399388715856082 0.83439466271707019 0.83998588780689065 0.81484865443627719 0.84919454791397531 0.87519377491826411 0.84243300748950212 0.912355352142729 0.93512150097117264 0.89163527642216156 0.82083078888584637 0.91018940528617875 0.88683708759339197 0.80415029420257955 0.78087353090490197 0.82955720430546709 0.80982516174735508 0.76034772352594615 0.76950925670952408 0.7106749015916547 1.272649423000578 0.68398357901968065 1.1945934107050147 1.284136586940857 1.211526193483504 1.2256318967975588 1.1638594306951102 1.2829088396320198 1.1383722649723751 1.3001759078672528 1.1702586029052391 0.72539411229328188 1.2700147998046338 0.71527637487682405 0.77159785680380821 1.1040875959376262 0.88501429414410371 1.2753616918177393 1.1070716576270598 1.0036613086842436 1.110037201741072 1.1820445547201111 1.0893566679206703 1.0226620194691005 0.88558092476488781 0.90576886957764779 0.77243412950895518 0.84298682286508786 1.3022432468287874 1.3425048979103753 0.89482835989424636 0.726371725030031 1.3143534218964472 1.2432784349099304 1.1580630861134278 1.2191152994186556 1.1252948157465124 1.1487194800013443 1.1412321633466878 1.1138986628108767 1.0843853902167089 1.1365723156144991 0.99048792922841677 0.97623757905135733 0.92028596039614641 1.0042861210772465 1.0116943427292853 1.0328151631716604 0.91238911858946015 0.87876233730663378 1.0084951452692987 0.98605500089257703 0.98843743072737311 1.021130473164412 1.0104429095300507 1.0448613551947545 1.0264181294046573 1.0340533495282749 1.0316078647303648 1.0360271336993212 1.0348675890176509 1.0508307777609927 1.0405339771768598 1.0228997738511829 1.0132633082529594 1.0173907227488748 0.98766650980936177 1.0362280901566407 0.99852777047783758 1.0613388302104561 1.0482049427001847 1.0608583070067361 1.0550286989460211 1.0792573330899622 1.0964350511618834 1.092715442494594 1.1266361828049012 1.1524096683462144 1.1484816885029006 1.0939062839494795 1.0260106333290722 1.101354986014969 1.070721289604915 1.096395313399386 0.97020964211694505 1.0476456739984694 0.99674380875120616 0.91612463221408902 0.92859366275699529 0.88497512203961159 0.94242127890640148 0.92874437596752912 0.90669208473328311 0.94747839058510763 0.93476858659020223 0.97988242059868114 0.95812632840575773 1.0228411937350772 1.0059185864246705 0.9543387635178 0.95417131415962331 0.96016833681157365 0.96999207405772836 0.93751805242603581 0.94619131882257079 0.91933308540387415 0.92650819085246283 0.93871179250546932 0.93834402534121253 0.91982922684396939 0.93681615418622854 0.93379173534659454 0.94694853757394526 0.9923531903620102 0.94649922237066519 0.98371899450171796 0.92459952353922858 0.9227855481418139 0.90725749092996999 0.90912942898362914 0.9220606763183703 0.92802681366678286 0.91731441978085115 0.91686190767744691 0.92891927115417827 0.91428755853424093 0.92649977610665712 0.91569007550160442 0.90796413029577394 0.91760114703318507 0.9161091337095999 0.9207637069179242 0.90388087886759294 0.90669273160067221 0.88088782183133318 0.88676293894332403 0.90333685470930547 0.90161206808722838 0.91481531151326123 0.87512738232752718 0.87650150416930117 0.8871417302834268 0.83664755056381424 0.82254029658119521 0.8501077207068839 0.8776957432037733 0.84168699697779026 0.82638133654717549 0.82155591612994527 0.8640248953259384 0.88095532528440756 0.85960184098600867 0.911855593002592 0.86867607585898554 0.90230774244225032 0.97326685690362924 0.93361465970272661 0.97755299534802731 0.92341193099762719 0.95023710496526093 0.89229531241463533 0.91379132175725175 0.89435624968202998 0.93153996661195038 0.91275110157156547 0.9394881736737446 0.9314348747255643 0.91432844307615435 0.95879731487679365 0.98127845604771835 0.93823009997056417 0.98315825465656559 0.96051518462050334 0.95153763855016571 0.96769626660108443 0.98758803873639067 0.95638482627102661 0.93847353101378417 0.92270526666932895 0.91801047333784958 0.93945709701636204 1.2319615204260659 1.2832900114833805 1.2688360627179289 1.2417398124618275 1.2136262623051559 1.2171653742313326 1.2356624119045474 1.2051058746350272 1.1951475711071575 1.1630671275354754 1.2072800724491035 1.2090421511503004 1.271211570524903 1.2660328764913764 1.232603442672314 1.3394215725178649 0.69305778669406592 1.3389826930453363 1.3191159029828974 0.82872954968038504 0.71558763473220921 0.7741989112008234 0.69897871280087465 0.75714711334502582 0.78747685727410754 0.69675709925848395 0.76440873288792943 0.7804575381561647 1.3245913868634371 0.69006781511361837 1.340260766832662 1.3135999953921047 1.3457267132933222 0.69456290595403303 0.73263488596598503 1.3006636840797103 0.82432396380947459 0.70921013734133531 0.76022338971189241 0.81143170490870986 0.73467050604570261 0.88478417515057828 0.99128829462632595 0.83237002389007353 0.97075448600431891 1.3425293557733724 0.90824347306682451 1.3037258493173534 1.0994171627989395 1.2827728767468045 1.0716499549966203 1.1947699815595438 1.178461437106133 1.2657902584979475 1.1873350446664777 1.2237962318446129 1.2812025366281334 1.2426128735092714 1.2120824473558223 1.1899055633154951 1.2275744326650102 1.1799631703491311 1.140174058991013 1.1727613889197332 1.0592029359919408 1.0510231727232231 1.1730472489798882 1.1742959864265305 1.0598615270944887 1.1785236537023214 1.1327054894168902 1.2809910837273293 1.0697013959130044 1.1945145328780526 1.1769756400160585 1.2610117992617109 1.1858636853341178 1.222571853833113 1.2424623641555081 1.2781733286878554 1.1799174803291024 1.2212209615940406 1.2104285145381937 1.1917159120193919 1.2131542325775513 1.2159249813148758 1.2393092001988357 1.2681141217686118 1.2815376955973985 1.2296769061225854 1.206681148555953 1.266562407978614 1.2640240053879572 1.230024877682637 1.2025785719372042 1.1631175941288854 1.194002482412305 1.2045486752460812 1.2328203591591889 0.76038199413322793 0.70259563667968727 0.83325585667192703 0.77997682130492751 0.72012362214258463 1.3342237202108422 1.3185784693051641 1.3372142933470972 0.69205803227315776 0.68888611885149587 1.3251038175113656 1.3405082243828406 0.76016039554925463 0.69823470405468191 0.79142749074304142 0.78307305629157931 0.82394749531722322 0.76405741250156445 0.70714561470102666 0.81118897783347421 1.3134345055417276 1.3426590223243875 0.69439559495009284 0.73314894983981471 1.2993392344675856 1.3431282372528432 0.9079217515376552 1.3039779761005179 1.0984417447538908 0.88526204943753939 0.73456630029530157 0.99177026243710831 0.83084768034725287 0.97122648425733793 0.86875164725082055 0.91071238236952889 0.93323783415663975 0.90265981731768274 0.97318917798230942 0.9775061311064619 0.92500540385117658 0.9503744617964327 0.89414139254892255 0.89416291886382337 0.91319012304596281 0.86531708481810865 0.88038195770496519 0.82147028014236234 0.86113417684291527 0.95642936136494416 0.9682952550182472 0.98748717206541481 0.95197990649703335 0.9618602854313798 0.98263847333477683 0.93958531940609125 0.9806893265494353 0.95948190939539735 0.91555473348538285 0.93290873464531454 0.912688889009172 0.94129989695239669 0.93251338348982349 0.92193297027783316 0.93971579931354654 0.91725499264057775 0.93953750305087336 0.90712491706234633 0.92429941923364778 0.92365278631802905 0.91720406842634106 0.91615309687982449 0.92043546493380601 0.9046626485850795 0.90834957567776242 0.92690971502693298 0.91505056484057501 0.9294388749049749 0.91630385140882908 0.91779430705970988 0.9175586121808379 0.92767507693207896 0.90960933283910461 0.92154380422082227 0.85168214029802125 0.82730247150385638 0.87762629247802737 0.84376779837071492 0.88107470695573431 0.90702814576604995 0.88801082766274597 0.90344755345956518 0.90296262799832527 0.9141397341850892 0.88755499345022049 0.8789776103521123 0.87609123802975963 0.8275624881154684 0.83892286932549953 0.93078597823216036 0.91701666166456697 0.9289958793424844 0.88504067495354155 0.94365470419923669 0.90774670406273783 0.94761986232225892 0.93554990432721841 0.97950730173071499 1.0201023271912479 0.95822689680789019 0.97018037360809706 1.0472320192910018 1.0956950459093422 0.99588612325032289 0.93402062038203626 0.93691155533127191 0.92013376998342833 0.93852894182703661 0.93883630082244973 0.9267340174124078 0.92045741086755017 0.94629954919697967 0.93832772566658496 0.96972476607747948 1.0034047215719448 0.95517392279167834 0.95498467633979867 0.95985594938950036 0.9919043643592379 0.94687538813125927 0.98280706468212864 0.94697905038076924 1.0190904424817864 1.0102315421863226 0.98605997206299079 0.9863147972668983 1.0105112141356654 1.0155841816367426 0.98665237145251705 1.0340591381481641 1.0212643247038642 1.0394233182984567 1.0492498776331514 1.0361442846694366 1.0354401197809453 1.0319204175831929 1.0325081736753323 1.027088336124617 1.044627359931162 1.0945528794187003 1.072164442324202 1.0993757486746287 1.0266003152493761 1.0582705656524993 0.99844887244619562 1.0492216598936779 1.0605864630142743 1.0545707374770412 1.0790978740706367 1.0928194206716029 1.1243305242283728 1.0949071037708946 1.1484929733510043 1.1514286465092098 1.1916930158549772 1.2160362702659508 1.2822553718428722 1.2208346782013995 1.1639280283430189 1.2844027485712886 1.3002937391730347 1.1362807808801847 1.1703228199695224 0.77570717206145101 0.71611545667305165 1.2699988105249842 0.73079601738937683 0.68424179255447193 1.2722487152473922 0.71367319258247619 0.76369117787258034 0.83243541789272779 0.78499938831530258 0.83545386133541566 0.84079624016907228 0.8174480151823138 0.85011630611842293 0.87502880776181868 0.84564079068685061 0.91251416845591571 0.93668094500169818 0.89240546806748711 0.80766854211123373 0.88954270058516194 0.82417990295042376 0.91045599293634627 0.88115526399206878 0.91379219315220972 1.0337770818648 1.0074027643514969 0.92027068894366826 1.0117790630432175 0.99024495466497464 1.0807547416232466 1.1151853695502911 1.1378896166964747 1.1418585447065688 1.2193377305937929 1.1563668609779816 1.1247877707808787 1.1479472209300976 1.2389402616926031 1.3135295878547435 1.3029668581616884 1.3405233173752915 0.89451715347648841 0.72665300051070592 0.77591071311775739 0.84403974949429506 0.90655146063043013 0.89060731713973751 1.0889170797319583 1.0235503173446485 1.0043803408059366 1.1840792300862937 1.1081628916251676 1.2751064285860427 1.104283346423192 0.88416411365198444 1.1059284107984189 
</DataArray>
</CellData>
</Piece>
</UnstructuredGrid>
</VTKFile>
