<?xml version="1.0"?>
<VTKFile type="UnstructuredGrid" version="0.1" byte_order="LittleEndian">
<UnstructuredGrid>
<Piece NumberOfPoints="1416" NumberOfCells="472">
<Points>
<DataArray type="Float64" NumberOfComponents="3" format="ascii">
0 0 0 0.10457868679590381 0.1045786867961369 0 0 0.14285714285773729 0 0 0 0 0.10457868679590381 0.1045786867961369 0 0.14285714285686729 0 0 0 0.14285714285773729 0 0.1205280434882494 0.2198107335145128 0 0 0.28571428571547469 0 0.10457868679590381 0.1045786867961369 0 0 0.14285714285773729 0 0.1205280434882494 0.2198107335145128 0 0.10457868679590381 0.1045786867961369 0 0.1205280434882494 0.2198107335145128 0 0.23239159885774061 0.13190444287250189 0 0.1205280434882494 0.2198107335145128 0 0.23239159885774061 0.13190444287250189 0 0.24676305227411319 0.28687957031901817 0 0.23239159885774061 0.13190444287250189 0 0.14285714285686729 0 0 0.28571428571359381 0 0 0.10457868679590381 0.1045786867961369 0 0.23239159885774061 0.13190444287250189 0 0.14285714285686729 0 0 0 0.42857142857321201 0 0.12318626960338119 0.35806369368234708 0 0.1237179148261041 0.50000000000170131 0 0.1205280434882494 0.2198107335145128 0 0 0.28571428571547469 0 0.12318626960338119 0.35806369368234708 0 0 0.42857142857321201 0 0 0.28571428571547469 0 0.12318626960338119 0.35806369368234708 0 0.12318626960338119 0.35806369368234708 0 0.24676305227411319 0.28687957031901817 0 0.24734722211536869 0.42872490132986318 0 0.1205280434882494 0.2198107335145128 0 0.12318626960338119 0.35806369368234708 0 0.24676305227411319 0.28687957031901817 0 0.12318626960338119 0.35806369368234708 0 0.24734722211536869 0.42872490132986318 0 0.1237179148261041 0.50000000000170131 0 0.24734722211536869 0.42872490132986318 0 0.37092720430330528 0.3575352362405908 0 0.36988311095923349 0.50220080181584725 0 0.24676305227411319 0.28687957031901817 0 0.24734722211536869 0.42872490132986318 0 0.37092720430330528 0.3575352362405908 0 0.24676305227411319 0.28687957031901817 0 0.37092720430330528 0.3575352362405908 0 0.36915712373071241 0.21636596932123339 0 0.37092720430330528 0.3575352362405908 0 0.49672432738210071 0.28393829206612331 0 0.49462213035585811 0.42900362539316111 0 0.37092720430330528 0.3575352362405908 0 0.49672432738210071 0.28393829206612331 0 0.36915712373071241 0.21636596932123339 0 0.37092720430330528 0.3575352362405908 0 0.49462213035585811 0.42900362539316111 0 0.36988311095923349 0.50220080181584725 0 0.23239159885774061 0.13190444287250189 0 0.28571428571359381 0 0 0.35859653742646141 0.095659861108573122 0 0.28571428571359381 0 0 0.35859653742646141 0.095659861108573122 0 0.42857142857032021 0 0 0.23239159885774061 0.13190444287250189 0 0.35859653742646141 0.095659861108573122 0 0.36915712373071241 0.21636596932123339 0 0.23239159885774061 0.13190444287250189 0 0.24676305227411319 0.28687957031901817 0 0.36915712373071241 0.21636596932123339 0 0.35859653742646141 0.095659861108573122 0 0.36915712373071241 0.21636596932123339 0 0.49780213970257631 0.12951344063459669 0 0.49672432738210071 0.28393829206612331 0 0.36915712373071241 0.21636596932123339 0 0.49780213970257631 0.12951344063459669 0 0.49780213970257631 0.12951344063459669 0 0.42857142857032021 0 0 0.57142857142744297 0 0 0.35859653742646141 0.095659861108573122 0 0.49780213970257631 0.12951344063459669 0 0.42857142857032021 0 0 0.49780213970257631 0.12951344063459669 0 0.57142857142744297 0 0 0.63660835508033609 0.094591959883232241 0 0.71428571428496201 0 0 0.63660835508033609 0.094591959883232241 0 0.77046111744085066 0.12953438606218601 0 0.57142857142744297 0 0 0.71428571428496201 0 0 0.63660835508033609 0.094591959883232241 0 0.62906423254584809 0.2139119727193784 0 0.74962020231513216 0.28479798582519888 0 0.77046111744085066 0.12953438606218601 0 0.63660835508033609 0.094591959883232241 0 0.62906423254584809 0.2139119727193784 0 0.77046111744085066 0.12953438606218601 0 0.49780213970257631 0.12951344063459669 0 0.63660835508033609 0.094591959883232241 0 0.62906423254584809 0.2139119727193784 0 0.49672432738210071 0.28393829206612331 0 0.49780213970257631 0.12951344063459669 0 0.62906423254584809 0.2139119727193784 0 0.49672432738210071 0.28393829206612331 0 0.62906423254584809 0.2139119727193784 0 0.61877313365430409 0.35729950808777972 0 0.49672432738210071 0.28393829206612331 0 0.49462213035585811 0.42900362539316111 0 0.61877313365430409 0.35729950808777972 0 0.49462213035585811 0.42900362539316111 0 0.61877313365430409 0.35729950808777972 0 0.61994046021572546 0.50050770882833406 0 0.61877313365430409 0.35729950808777972 0 0.74395712453556107 0.42868954426104389 0 0.61994046021572546 0.50050770882833406 0 0.62906423254584809 0.2139119727193784 0 0.61877313365430409 0.35729950808777972 0 0.74962020231513216 0.28479798582519888 0 0.61877313365430409 0.35729950808777972 0 0.74395712453556107 0.42868954426104389 0 0.74962020231513216 0.28479798582519888 0 0.74962020231513216 0.28479798582519888 0 0.87039329201519555 0.35777862987572301 0 0.88067757021423154 0.21876991540137231 0 0.74395712453556107 0.42868954426104389 0 0.74962020231513216 0.28479798582519888 0 0.87039329201519555 0.35777862987572301 0 0.74395712453556107 0.42868954426104389 0 0.87039329201519555 0.35777862987572301 0 0.87402660110768737 0.50072468068975784 0 0.87039329201519555 0.35777862987572301 0 0.87402660110768737 0.50072468068975784 0 1 0.42857142857032021 0 0.87039329201519555 0.35777862987572301 0 1 0.28571428571359381 0 1 0.42857142857032021 0 0.87039329201519555 0.35777862987572301 0 0.88067757021423154 0.21876991540137231 0 1 0.28571428571359381 0 0.88067757021423154 0.21876991540137231 0 1 0.14285714285686729 0 1 0.28571428571359381 0 0.88067757021423154 0.21876991540137231 0 0.89542131320405993 0.10457868679576519 0 1 0.14285714285686729 0 0.89542131320405993 0.10457868679576519 0 0.85714285714248095 0 0 1 0 0 0.89542131320405993 0.10457868679576519 0 1 0.14285714285686729 0 1 0 0 0.71428571428496201 0 0 0.85714285714248095 0 0 0.77046111744085066 0.12953438606218601 0 0.89542131320405993 0.10457868679576519 0 0.85714285714248095 0 0 0.77046111744085066 0.12953438606218601 0 0.74962020231513216 0.28479798582519888 0 0.88067757021423154 0.21876991540137231 0 0.77046111744085066 0.12953438606218601 0 0.88067757021423154 0.21876991540137231 0 0.89542131320405993 0.10457868679576519 0 0.77046111744085066 0.12953438606218601 0 0.77107999172528308 0.87126586664953709 0 0.88289663992475431 0.7838324948760429 0 0.75462543859776565 0.71847561378613189 0 0.77107999172528308 0.87126586664953709 0 0.89597942421617771 0.89597942421617771 0 0.88289663992475431 0.7838324948760429 0 0.77107999172528308 0.87126586664953709 0 0.89597942421617771 0.89597942421617771 0 0.85714285714248095 1 0 0.77107999172528308 0.87126586664953709 0 0.71428571428496201 1 0 0.85714285714248095 1 0 0.89597942421617771 0.89597942421617771 0 1 1 0 1 0.85714285714248095 0 0.89597942421617771 0.89597942421617771 0 0.85714285714248095 1 0 1 1 0 0.88289663992475431 0.7838324948760429 0 1 0.71428571428496201 0 1 0.85714285714248095 0 0.89597942421617771 0.89597942421617771 0 0.88289663992475431 0.7838324948760429 0 1 0.85714285714248095 0 0.88289663992475431 0.7838324948760429 0 0.87569498500930032 0.64584549317696871 0 1 0.71428571428496201 0 0.87569498500930032 0.64584549317696871 0 1 0.57142857142744297 0 1 0.71428571428496201 0 0.87402660110768737 0.50072468068975784 0 1 0.42857142857032021 0 1 0.57142857142744297 0 0.87569498500930032 0.64584549317696871 0 0.87402660110768737 0.50072468068975784 0 1 0.57142857142744297 0 0.87569498500930032 0.64584549317696871 0 0.87402660110768737 0.50072468068975784 0 0.75217156042298328 0.57142857143374093 0 0.74395712453556107 0.42868954426104389 0 0.87402660110768737 0.50072468068975784 0 0.75217156042298328 0.57142857143374093 0 0.88289663992475431 0.7838324948760429 0 0.87569498500930032 0.64584549317696871 0 0.75462543859776565 0.71847561378613189 0 0.87569498500930032 0.64584549317696871 0 0.75217156042298328 0.57142857143374093 0 0.75462543859776565 0.71847561378613189 0 0.75462543859776565 0.71847561378613189 0 0.62020719605389174 0.64337743701966787 0 0.62820860079938645 0.78795395941460822 0 0.75217156042298328 0.57142857143374093 0 0.75462543859776565 0.71847561378613189 0 0.62020719605389174 0.64337743701966787 0 0.74395712453556107 0.42868954426104389 0 0.75217156042298328 0.57142857143374093 0 0.61994046021572546 0.50050770882833406 0 0.75217156042298328 0.57142857143374093 0 0.61994046021572546 0.50050770882833406 0 0.62020719605389174 0.64337743701966787 0 0.49462213035585811 0.42900362539316111 0 0.61994046021572546 0.50050770882833406 0 0.49336243329648061 0.57404262755753699 0 0.61994046021572546 0.50050770882833406 0 0.62020719605389174 0.64337743701966787 0 0.49336243329648061 0.57404262755753699 0 0.62020719605389174 0.64337743701966787 0 0.49336243329648061 0.57404262755753699 0 0.49462248589941132 0.72194975613875201 0 0.62020719605389174 0.64337743701966787 0 0.62820860079938645 0.78795395941460822 0 0.49462248589941132 0.72194975613875201 0 0.62820860079938645 0.78795395941460822 0 0.49817729930567289 0.8734572123725528 0 0.49462248589941132 0.72194975613875201 0 0.62820860079938645 0.78795395941460822 0 0.63663603550854941 0.90653540768733964 0 0.49817729930567289 0.8734572123725528 0 0.77107999172528308 0.87126586664953709 0 0.62820860079938645 0.78795395941460822 0 0.63663603550854941 0.90653540768733964 0 0.77107999172528308 0.87126586664953709 0 0.75462543859776565 0.71847561378613189 0 0.62820860079938645 0.78795395941460822 0 0.77107999172528308 0.87126586664953709 0 0.63663603550854941 0.90653540768733964 0 0.71428571428496201 1 0 0.63663603550854941 0.90653540768733964 0 0.71428571428496201 1 0 0.57142857142744297 1 0 0.63663603550854941 0.90653540768733964 0 0.49817729930567289 0.8734572123725528 0 0.57142857142744297 1 0 0.49817729930567289 0.8734572123725528 0 0.35714285714195693 0.91161422340059473 0 0.42857142857032021 1 0 0.49817729930567289 0.8734572123725528 0 0.42857142857032021 1 0 0.57142857142744297 1 0 0.49817729930567289 0.8734572123725528 0 0.36830736131566921 0.79637781586757328 0 0.49462248589941132 0.72194975613875201 0 0.49817729930567289 0.8734572123725528 0 0.36830736131566921 0.79637781586757328 0 0.35714285714195693 0.91161422340059473 0 0.36830736131566921 0.79637781586757328 0 0.35714285714195693 0.91161422340059473 0 0.23134730558288971 0.87272440266253748 0 0.36830736131566921 0.79637781586757328 0 0.2437647729866553 0.72095762992813051 0 0.23134730558288971 0.87272440266253748 0 0.35714285714195693 0.91161422340059473 0 0.42857142857032021 1 0 0.28571428571359381 1 0 0.35714285714195693 0.91161422340059473 0 0.23134730558288971 0.87272440266253748 0 0.28571428571359381 1 0 0.49462213035585811 0.42900362539316111 0 0.49336243329648061 0.57404262755753699 0 0.36988311095923349 0.50220080181584725 0 0.49336243329648061 0.57404262755753699 0 0.36733467197449221 0.65305064773421995 0 0.36988311095923349 0.50220080181584725 0 0.36830736131566921 0.79637781586757328 0 0.49462248589941132 0.72194975613875201 0 0.36733467197449221 0.65305064773421995 0 0.49336243329648061 0.57404262755753699 0 0.49462248589941132 0.72194975613875201 0 0.36733467197449221 0.65305064773421995 0 0.36733467197449221 0.65305064773421995 0 0.24743582965178351 0.57142857143075443 0 0.2437647729866553 0.72095762992813051 0 0.36830736131566921 0.79637781586757328 0 0.36733467197449221 0.65305064773421995 0 0.2437647729866553 0.72095762992813051 0 0.36733467197449221 0.65305064773421995 0 0.36988311095923349 0.50220080181584725 0 0.24743582965178351 0.57142857143075443 0 0.24734722211536869 0.42872490132986318 0 0.36988311095923349 0.50220080181584725 0 0.24743582965178351 0.57142857143075443 0 0.24743582965178351 0.57142857143075443 0 0.1244455545696076 0.6464500561593125 0 0.1237179148261041 0.50000000000170131 0 0.24734722211536869 0.42872490132986318 0 0.24743582965178351 0.57142857143075443 0 0.1237179148261041 0.50000000000170131 0 0.24743582965178351 0.57142857143075443 0 0.2437647729866553 0.72095762992813051 0 0.1244455545696076 0.6464500561593125 0 0.2437647729866553 0.72095762992813051 0 0.1244455545696076 0.6464500561593125 0 0.1237179148254899 0.78571428571438473 0 0.1244455545696076 0.6464500561593125 0 0 0.71428571428630883 0 0.1237179148254899 0.78571428571438473 0 0.1244455545696076 0.6464500561593125 0 0 0.71428571428630883 0 0 0.57142857143015668 0 0.1244455545696076 0.6464500561593125 0 0.1237179148261041 0.50000000000170131 0 0 0.57142857143015668 0 0 0.42857142857321201 0 0.1237179148261041 0.50000000000170131 0 0 0.57142857143015668 0 0.23134730558288971 0.87272440266253748 0 0.1045786867952702 0.89542131320454943 0 0.14285714285686729 1 0 0.23134730558288971 0.87272440266253748 0 0.14285714285686729 1 0 0.28571428571359381 1 0 0.2437647729866553 0.72095762992813051 0 0.23134730558288971 0.87272440266253748 0 0.1237179148254899 0.78571428571438473 0 0.23134730558288971 0.87272440266253748 0 0.1237179148254899 0.78571428571438473 0 0.1045786867952702 0.89542131320454943 0 0.1237179148254899 0.78571428571438473 0 0 0.85714285714246041 0 0.1045786867952702 0.89542131320454943 0 0 0.71428571428630883 0 0.1237179148254899 0.78571428571438473 0 0 0.85714285714246041 0 0.1045786867952702 0.89542131320454943 0 0 1 0 0.14285714285686729 1 0 0 0.85714285714246041 0 0.1045786867952702 0.89542131320454943 0 0 1 0 0 1 0 0.1045786867955264 1.1045786867956 0 0 1.142857142857143 0 0 1 0 0.1045786867955264 1.1045786867956 0 0.14285714285686729 1 0 0.14285714285686729 1 0 0.21715807700202711 1.1165487808367209 0 0.28571428571359381 1 0 0.1045786867955264 1.1045786867956 0 0.14285714285686729 1 0 0.21715807700202711 1.1165487808367209 0 0.1045786867955264 1.1045786867956 0 0.21715807700202711 1.1165487808367209 0 0.12817051038898589 1.2304843984160669 0 0.21715807700202711 1.1165487808367209 0 0.12817051038898589 1.2304843984160669 0 0.28318912013054198 1.239801768054871 0 0.1045786867955264 1.1045786867956 0 0.12817051038898589 1.2304843984160669 0 0 1.142857142857143 0 0.12817051038898589 1.2304843984160669 0 0 1.142857142857143 0 0 1.285714285714286 0 0.088385776599928662 1.3571428571428581 0 0 1.285714285714286 0 0 1.428571428571429 0 0.12817051038898589 1.2304843984160669 0 0.088385776599928662 1.3571428571428581 0 0 1.285714285714286 0 0 1.428571428571429 0 0.1265427876282578 1.4981772993068549 0 0 1.5714285714285721 0 0.088385776599928662 1.3571428571428581 0 0 1.428571428571429 0 0.1265427876282578 1.4981772993068549 0 0.1265427876282578 1.4981772993068549 0 0.20858437319686679 1.3627973047133719 0 0.27804612003647611 1.494591548660305 0 0.088385776599928662 1.3571428571428581 0 0.1265427876282578 1.4981772993068549 0 0.20858437319686679 1.3627973047133719 0 0.12817051038898589 1.2304843984160669 0 0.20858437319686679 1.3627973047133719 0 0.28318912013054198 1.239801768054871 0 0.12817051038898589 1.2304843984160669 0 0.088385776599928662 1.3571428571428581 0 0.20858437319686679 1.3627973047133719 0 0.35404229584497182 1.3659139839396599 0 0.4277245950738956 1.242992467502205 0 0.28318912013054198 1.239801768054871 0 0.20858437319686679 1.3627973047133719 0 0.35404229584497182 1.3659139839396599 0 0.28318912013054198 1.239801768054871 0 0.35404229584497182 1.3659139839396599 0 0.27804612003647611 1.494591548660305 0 0.42593700932761092 1.493210541712801 0 0.20858437319686679 1.3627973047133719 0 0.35404229584497182 1.3659139839396599 0 0.27804612003647611 1.494591548660305 0 0.35404229584497182 1.3659139839396599 0 0.42593700932761092 1.493210541712801 0 0.49769215192747779 1.3691228671960749 0 0.42593700932761092 1.493210541712801 0 0.49769215192747779 1.3691228671960749 0 0.57098124216803381 1.49447102461245 0 0.49769215192747779 1.3691228671960749 0 0.4277245950738956 1.242992467502205 0 0.57147965461975991 1.2472291216834761 0 0.35404229584497182 1.3659139839396599 0 0.49769215192747779 1.3691228671960749 0 0.4277245950738956 1.242992467502205 0 0.4277245950738956 1.242992467502205 0 0.35723491808527968 1.1204089262615491 0 0.50105200202129985 1.1231105411754949 0 0.42857142857032021 1 0 0.35723491808527968 1.1204089262615491 0 0.50105200202129985 1.1231105411754949 0 0.21715807700202711 1.1165487808367209 0 0.35723491808527968 1.1204089262615491 0 0.28571428571359381 1 0 0.42857142857032021 1 0 0.35723491808527968 1.1204089262615491 0 0.28571428571359381 1 0 0.4277245950738956 1.242992467502205 0 0.35723491808527968 1.1204089262615491 0 0.28318912013054198 1.239801768054871 0 0.21715807700202711 1.1165487808367209 0 0.35723491808527968 1.1204089262615491 0 0.28318912013054198 1.239801768054871 0 0.21616732492381829 1.8828959187492971 0 0.14285714285686729 2 0 0.28571428571359381 2 0 0.21616732492381829 1.8828959187492971 0 0.14285714285686729 2 0 0.1040205757871361 1.895979424212789 0 0.14285714285686729 2 0 0 2 0 0.1040205757871361 1.895979424212789 0 0 2 0 0.1040205757871361 1.895979424212789 0 0 1.857142857142857 0 0 1.857142857142857 0 0.12873413335171649 1.7710799917251949 0 0 1.7142857142857151 0 0.1040205757871361 1.895979424212789 0 0 1.857142857142857 0 0.12873413335171649 1.7710799917251949 0 0.21616732492381829 1.8828959187492971 0 0.12873413335171649 1.7710799917251949 0 0.2815234200304022 1.7546180202569051 0 0.21616732492381829 1.8828959187492971 0 0.1040205757871361 1.895979424212789 0 0.12873413335171649 1.7710799917251949 0 0.12873413335171649 1.7710799917251949 0 0.21204462330902621 1.628197822617433 0 0.2815234200304022 1.7546180202569051 0 0.12873413335171649 1.7710799917251949 0 0.21204462330902621 1.628197822617433 0 0.093464308857800105 1.636633879872754 0 0.12873413335171649 1.7710799917251949 0 0 1.7142857142857151 0 0.093464308857800105 1.636633879872754 0 0 1.7142857142857151 0 0.093464308857800105 1.636633879872754 0 0 1.5714285714285721 0 0.1265427876282578 1.4981772993068549 0 0.093464308857800105 1.636633879872754 0 0 1.5714285714285721 0 0.1265427876282578 1.4981772993068549 0 0.21204462330902621 1.628197822617433 0 0.093464308857800105 1.636633879872754 0 0.1265427876282578 1.4981772993068549 0 0.27804612003647611 1.494591548660305 0 0.21204462330902621 1.628197822617433 0 0.27804612003647611 1.494591548660305 0 0.42593700932761092 1.493210541712801 0 0.35661818314176041 1.620173464197844 0 0.27804612003647611 1.494591548660305 0 0.21204462330902621 1.628197822617433 0 0.35661818314176041 1.620173464197844 0 0.42593700932761092 1.493210541712801 0 0.49948637524749001 1.619889960661181 0 0.57098124216803381 1.49447102461245 0 0.42593700932761092 1.493210541712801 0 0.35661818314176041 1.620173464197844 0 0.49948637524749001 1.619889960661181 0 0.35661818314176041 1.620173464197844 0 0.49948637524749001 1.619889960661181 0 0.42857142856854918 1.752171560420507 0 0.49948637524749001 1.619889960661181 0 0.42857142856854918 1.752171560420507 0 0.57126208756431573 1.744657680515606 0 0.21204462330902621 1.628197822617433 0 0.35661818314176041 1.620173464197844 0 0.2815234200304022 1.7546180202569051 0 0.35661818314176041 1.620173464197844 0 0.2815234200304022 1.7546180202569051 0 0.42857142856854918 1.752171560420507 0 0.2815234200304022 1.7546180202569051 0 0.42857142856854918 1.752171560420507 0 0.3541543918031938 1.8756980763008939 0 0.21616732492381829 1.8828959187492971 0 0.2815234200304022 1.7546180202569051 0 0.3541543918031938 1.8756980763008939 0 0.42857142856854918 1.752171560420507 0 0.49927531931007862 1.8740599863056251 0 0.57126208756431573 1.744657680515606 0 0.42857142856854918 1.752171560420507 0 0.49927531931007862 1.8740599863056251 0 0.3541543918031938 1.8756980763008939 0 0.49927531931007862 1.8740599863056251 0 0.42857142857032021 2 0 0.3541543918031938 1.8756980763008939 0 0.49927531931007862 1.8740599863056251 0 0.42857142857032021 2 0 0.57142857142744297 2 0 0.42857142857032021 2 0 0.28571428571359381 2 0 0.3541543918031938 1.8756980763008939 0 0.21616732492381829 1.8828959187492971 0 0.28571428571359381 2 0 0.3541543918031938 1.8756980763008939 0 0.71428571428496201 2 0 0.64222861727828595 1.8697178032968009 0 0.78018926648514753 1.874409050805993 0 0.71428571428496201 2 0 0.57142857142744297 2 0 0.64222861727828595 1.8697178032968009 0 0.49927531931007862 1.8740599863056251 0 0.57142857142744297 2 0 0.64222861727828595 1.8697178032968009 0 0.49927531931007862 1.8740599863056251 0 0.64222861727828595 1.8697178032968009 0 0.57126208756431573 1.744657680515606 0 0.64222861727828595 1.8697178032968009 0 0.71331043726850574 1.7441868901497639 0 0.78018926648514753 1.874409050805993 0 0.64222861727828595 1.8697178032968009 0 0.71331043726850574 1.7441868901497639 0 0.57126208756431573 1.744657680515606 0 0.71331043726850574 1.7441868901497639 0 0.57126208756431573 1.744657680515606 0 0.64269698385324436 1.618739532771454 0 0.71331043726850574 1.7441868901497639 0 0.64269698385324436 1.618739532771454 0 0.78571428571188906 1.618589574132371 0 0.49948637524749001 1.619889960661181 0 0.57126208756431573 1.744657680515606 0 0.64269698385324436 1.618739532771454 0 0.49948637524749001 1.619889960661181 0 0.64269698385324436 1.618739532771454 0 0.57098124216803381 1.49447102461245 0 0.64269698385324436 1.618739532771454 0 0.78571428571188906 1.618589574132371 0 0.71428571428344345 1.494871659305963 0 0.64269698385324436 1.618739532771454 0 0.57098124216803381 1.49447102461245 0 0.71428571428344345 1.494871659305963 0 0.78571428571188906 1.618589574132371 0 0.71428571428344345 1.494871659305963 0 0.8719485907575063 1.497549379121567 0 0.78571428571188906 1.618589574132371 0 0.90513610409542944 1.632892404366493 0 0.8719485907575063 1.497549379121567 0 0.90513610409542944 1.632892404366493 0 0.8719485907575063 1.497549379121567 0 1 1.571428571428571 0 0.90513610409542944 1.632892404366493 0 0.86801764400775205 1.7626087828642429 0 1 1.714285714285714 0 0.90513610409542944 1.632892404366493 0 1 1.714285714285714 0 1 1.571428571428571 0 0.71331043726850574 1.7441868901497639 0 0.78571428571188906 1.618589574132371 0 0.86801764400775205 1.7626087828642429 0 0.78571428571188906 1.618589574132371 0 0.90513610409542944 1.632892404366493 0 0.86801764400775205 1.7626087828642429 0 0.71331043726850574 1.7441868901497639 0 0.86801764400775205 1.7626087828642429 0 0.78018926648514753 1.874409050805993 0 0.86801764400775205 1.7626087828642429 0 0.78018926648514753 1.874409050805993 0 0.89542131320410701 1.8954213132042079 0 0.86801764400775205 1.7626087828642429 0 1 1.857142857142857 0 1 1.714285714285714 0 0.86801764400775205 1.7626087828642429 0 0.89542131320410701 1.8954213132042079 0 1 1.857142857142857 0 0.89542131320410701 1.8954213132042079 0 0.85714285714248095 2 0 1 2 0 0.89542131320410701 1.8954213132042079 0 1 2 0 1 1.857142857142857 0 0.78018926648514753 1.874409050805993 0 0.89542131320410701 1.8954213132042079 0 0.85714285714248095 2 0 0.71428571428496201 2 0 0.78018926648514753 1.874409050805993 0 0.85714285714248095 2 0 0.71318645322083063 1.246702098928443 0 0.64211163998861909 1.1230850406615951 0 0.78018926648585252 1.1205280434881351 0 0.71318645322083063 1.246702098928443 0 0.64211163998861909 1.1230850406615951 0 0.57147965461975991 1.2472291216834761 0 0.71428571428496201 1 0 0.64211163998861909 1.1230850406615951 0 0.57142857142744297 1 0 0.71428571428496201 1 0 0.64211163998861909 1.1230850406615951 0 0.78018926648585252 1.1205280434881351 0 0.64211163998861909 1.1230850406615951 0 0.50105200202129985 1.1231105411754949 0 0.57142857142744297 1 0 0.42857142857032021 1 0 0.50105200202129985 1.1231105411754949 0 0.57142857142744297 1 0 0.64211163998861909 1.1230850406615951 0 0.50105200202129985 1.1231105411754949 0 0.57147965461975991 1.2472291216834761 0 0.4277245950738956 1.242992467502205 0 0.50105200202129985 1.1231105411754949 0 0.57147965461975991 1.2472291216834761 0 0.49769215192747779 1.3691228671960749 0 0.57147965461975991 1.2472291216834761 0 0.6424810153757925 1.370780813604048 0 0.49769215192747779 1.3691228671960749 0 0.57098124216803381 1.49447102461245 0 0.6424810153757925 1.370780813604048 0 0.57098124216803381 1.49447102461245 0 0.71428571428344345 1.494871659305963 0 0.6424810153757925 1.370780813604048 0 0.71428571428344345 1.494871659305963 0 0.6424810153757925 1.370780813604048 0 0.78389141510410076 1.3690804396262211 0 0.71318645322083063 1.246702098928443 0 0.6424810153757925 1.370780813604048 0 0.78389141510410076 1.3690804396262211 0 0.71318645322083063 1.246702098928443 0 0.57147965461975991 1.2472291216834761 0 0.6424810153757925 1.370780813604048 0 0.78389141510410076 1.3690804396262211 0 0.90448333979397377 1.359152564409229 0 0.8681417582656602 1.2323719363648691 0 0.71318645322083063 1.246702098928443 0 0.78389141510410076 1.3690804396262211 0 0.8681417582656602 1.2323719363648691 0 0.78389141510410076 1.3690804396262211 0 0.8719485907575063 1.497549379121567 0 0.90448333979397377 1.359152564409229 0 0.71428571428344345 1.494871659305963 0 0.78389141510410076 1.3690804396262211 0 0.8719485907575063 1.497549379121567 0 0.8719485907575063 1.497549379121567 0 0.90448333979397377 1.359152564409229 0 1 1.4285714285714279 0 0.8719485907575063 1.497549379121567 0 1 1.4285714285714279 0 1 1.571428571428571 0 0.90448333979397377 1.359152564409229 0 1 1.2857142857142849 0 1 1.4285714285714279 0 0.90448333979397377 1.359152564409229 0 0.8681417582656602 1.2323719363648691 0 1 1.2857142857142849 0 0.8681417582656602 1.2323719363648691 0 1 1.142857142857143 0 1 1.2857142857142849 0 0.8681417582656602 1.2323719363648691 0 0.89542131320410689 1.104578686795793 0 1 1.142857142857143 0 0.8681417582656602 1.2323719363648691 0 0.78018926648585252 1.1205280434881351 0 0.89542131320410689 1.104578686795793 0 0.71318645322083063 1.246702098928443 0 0.8681417582656602 1.2323719363648691 0 0.78018926648585252 1.1205280434881351 0 0.71428571428496201 1 0 0.78018926648585252 1.1205280434881351 0 0.85714285714248095 1 0 0.78018926648585252 1.1205280434881351 0 0.85714285714248095 1 0 0.89542131320410689 1.104578686795793 0 0.85714285714248095 1 0 0.89542131320410689 1.104578686795793 0 1 1 0 0.89542131320410689 1.104578686795793 0 1 1 0 1 1.142857142857143 0 1 1 0 1.104578686795554 1.104578686795554 0 1 1.142857142857143 0 1 1 0 1.104578686795554 1.104578686795554 0 1.142857142857143 1 0 1.142857142857143 1 0 1.219810733513544 1.120528043487883 0 1.285714285714286 1 0 1.104578686795554 1.104578686795554 0 1.142857142857143 1 0 1.219810733513544 1.120528043487883 0 1.104578686795554 1.104578686795554 0 1.219810733513544 1.120528043487883 0 1.1319230446001269 1.2323522036059911 0 1.219810733513544 1.120528043487883 0 1.1319230446001269 1.2323522036059911 0 1.2868377830098621 1.2466881061330779 0 1.104578686795554 1.104578686795554 0 1.1319230446001269 1.2323522036059911 0 1 1.142857142857143 0 1.1319230446001269 1.2323522036059911 0 1 1.142857142857143 0 1 1.2857142857142849 0 1 1.2857142857142849 0 1.095673538468863 1.3585634207364541 0 1 1.4285714285714279 0 1.1319230446001269 1.2323522036059911 0 1 1.2857142857142849 0 1.095673538468863 1.3585634207364541 0 1 1.4285714285714279 0 1.1295855542741751 1.4974062502171921 0 1 1.571428571428571 0 1.095673538468863 1.3585634207364541 0 1 1.4285714285714279 0 1.1295855542741751 1.4974062502171921 0 1.1295855542741751 1.4974062502171921 0 1.2165379687279541 1.3689563031111329 0 1.283830123940078 1.4960028536238279 0 1.095673538468863 1.3585634207364541 0 1.1295855542741751 1.4974062502171921 0 1.2165379687279541 1.3689563031111329 0 1.1319230446001269 1.2323522036059911 0 1.095673538468863 1.3585634207364541 0 1.2165379687279541 1.3689563031111329 0 1.1319230446001269 1.2323522036059911 0 1.2165379687279541 1.3689563031111329 0 1.2868377830098621 1.2466881061330779 0 1.357664402013393 1.370696856833961 0 1.4285203453789539 1.247229121683411 0 1.2868377830098621 1.2466881061330779 0 1.2165379687279541 1.3689563031111329 0 1.357664402013393 1.370696856833961 0 1.2868377830098621 1.2466881061330779 0 1.2165379687279541 1.3689563031111329 0 1.357664402013393 1.370696856833961 0 1.283830123940078 1.4960028536238279 0 1.357664402013393 1.370696856833961 0 1.283830123940078 1.4960028536238279 0 1.4291884114524669 1.494373075047676 0 1.357664402013393 1.370696856833961 0 1.4291884114524669 1.494373075047676 0 1.5023078480707981 1.369122867196213 0 1.357664402013393 1.370696856833961 0 1.4285203453789539 1.247229121683411 0 1.5023078480707981 1.369122867196213 0 1.4285203453789539 1.247229121683411 0 1.4989479979775799 1.123110541175516 0 1.5722754049247569 1.2429924675024751 0 1.4285203453789539 1.247229121683411 0 1.4989479979775799 1.123110541175516 0 1.357888360010425 1.123085040661465 0 1.4989479979775799 1.123110541175516 0 1.428571428571429 1 0 1.357888360010425 1.123085040661465 0 1.4989479979775799 1.123110541175516 0 1.428571428571429 1 0 1.5714285714285721 1 0 1.219810733513544 1.120528043487883 0 1.357888360010425 1.123085040661465 0 1.285714285714286 1 0 1.428571428571429 1 0 1.357888360010425 1.123085040661465 0 1.285714285714286 1 0 1.4285203453789539 1.247229121683411 0 1.357888360010425 1.123085040661465 0 1.2868377830098621 1.2466881061330779 0 1.219810733513544 1.120528043487883 0 1.357888360010425 1.123085040661465 0 1.2868377830098621 1.2466881061330779 0 1.216145381820789 1.88103109715887 0 1.142857142857143 2 0 1.2857142857142849 2 0 1.216145381820789 1.88103109715887 0 1.142857142857143 2 0 1.103773871582159 1.896226128417843 0 1 2 0 1.103773871582159 1.896226128417843 0 1 1.857142857142857 0 1.142857142857143 2 0 1 2 0 1.103773871582159 1.896226128417843 0 1.103773871582159 1.896226128417843 0 1 1.857142857142857 0 1.130119705833043 1.7651652404678491 0 1 1.857142857142857 0 1.130119705833043 1.7651652404678491 0 1 1.714285714285714 0 1.216145381820789 1.88103109715887 0 1.130119705833043 1.7651652404678491 0 1.2812394475956559 1.7505389596817531 0 1.216145381820789 1.88103109715887 0 1.103773871582159 1.896226128417843 0 1.130119705833043 1.7651652404678491 0 1.130119705833043 1.7651652404678491 0 1.213562818228437 1.624903527712154 0 1.2812394475956559 1.7505389596817531 0 1.130119705833043 1.7651652404678491 0 1.0966556989971969 1.6428571428571419 0 1.213562818228437 1.624903527712154 0 1.130119705833043 1.7651652404678491 0 1.0966556989971969 1.6428571428571419 0 1 1.714285714285714 0 1.0966556989971969 1.6428571428571419 0 1 1.714285714285714 0 1 1.571428571428571 0 1.1295855542741751 1.4974062502171921 0 1.0966556989971969 1.6428571428571419 0 1 1.571428571428571 0 1.1295855542741751 1.4974062502171921 0 1.0966556989971969 1.6428571428571419 0 1.213562818228437 1.624903527712154 0 1.1295855542741751 1.4974062502171921 0 1.283830123940078 1.4960028536238279 0 1.213562818228437 1.624903527712154 0 1.283830123940078 1.4960028536238279 0 1.4291884114524669 1.494373075047676 0 1.3564415889440451 1.6196811088208509 0 1.283830123940078 1.4960028536238279 0 1.213562818228437 1.624903527712154 0 1.3564415889440451 1.6196811088208509 0 1.4291884114524669 1.494373075047676 0 1.3564415889440451 1.6196811088208509 0 1.5002085607630711 1.6196906823475781 0 1.3564415889440451 1.6196811088208509 0 1.4258910619820611 1.7448328391661969 0 1.5002085607630711 1.6196906823475781 0 1.4258910619820611 1.7448328391661969 0 1.57109391646305 1.7442952446683879 0 1.5002085607630711 1.6196906823475781 0 1.213562818228437 1.624903527712154 0 1.3564415889440451 1.6196811088208509 0 1.2812394475956559 1.7505389596817531 0 1.3564415889440451 1.6196811088208509 0 1.4258910619820611 1.7448328391661969 0 1.2812394475956559 1.7505389596817531 0 1.4258910619820611 1.7448328391661969 0 1.2812394475956559 1.7505389596817531 0 1.3531678373424461 1.8742562543857739 0 1.216145381820789 1.88103109715887 0 1.2812394475956559 1.7505389596817531 0 1.3531678373424461 1.8742562543857739 0 1.4258910619820611 1.7448328391661969 0 1.498530108073209 1.8729348231800089 0 1.57109391646305 1.7442952446683879 0 1.4258910619820611 1.7448328391661969 0 1.3531678373424461 1.8742562543857739 0 1.498530108073209 1.8729348231800089 0 1.3531678373424461 1.8742562543857739 0 1.498530108073209 1.8729348231800089 0 1.4285714285714279 2 0 1.498530108073209 1.8729348231800089 0 1.4285714285714279 2 0 1.571428571428571 2 0 1.3531678373424461 1.8742562543857739 0 1.4285714285714279 2 0 1.2857142857142849 2 0 1.216145381820789 1.88103109715887 0 1.3531678373424461 1.8742562543857739 0 1.2857142857142849 2 0 1.714285714285714 2 0 1.6421576172291299 1.8693783291179169 0 1.780189266486458 1.87434361581751 0 1.714285714285714 2 0 1.571428571428571 2 0 1.6421576172291299 1.8693783291179169 0 1.498530108073209 1.8729348231800089 0 1.571428571428571 2 0 1.6421576172291299 1.8693783291179169 0 1.498530108073209 1.8729348231800089 0 1.6421576172291299 1.8693783291179169 0 1.57109391646305 1.7442952446683879 0 1.6421576172291299 1.8693783291179169 0 1.7133888590203961 1.744009140962433 0 1.780189266486458 1.87434361581751 0 1.6421576172291299 1.8693783291179169 0 1.7133888590203961 1.744009140962433 0 1.57109391646305 1.7442952446683879 0 1.7133888590203961 1.744009140962433 0 1.57109391646305 1.7442952446683879 0 1.643335685458571 1.6184935184144349 0 1.7133888590203961 1.744009140962433 0 1.643335685458571 1.6184935184144349 0 1.7857142857142889 1.61858957413174 0 1.57109391646305 1.7442952446683879 0 1.5002085607630711 1.6196906823475781 0 1.643335685458571 1.6184935184144349 0 1.4291884114524669 1.494373075047676 0 1.5002085607630711 1.6196906823475781 0 1.5740912662740569 1.4931942167857211 0 1.5002085607630711 1.6196906823475781 0 1.643335685458571 1.6184935184144349 0 1.5740912662740569 1.4931942167857211 0 1.643335685458571 1.6184935184144349 0 1.7857142857142889 1.61858957413174 0 1.7219056762667611 1.4941033353868309 0 1.643335685458571 1.6184935184144349 0 1.5740912662740569 1.4931942167857211 0 1.7219056762667611 1.4941033353868309 0 1.7857142857142889 1.61858957413174 0 1.7219056762667611 1.4941033353868309 0 1.873185845995041 1.4969442903745009 0 1.7857142857142889 1.61858957413174 0 1.905385795765048 1.632764438497625 0 1.873185845995041 1.4969442903745009 0 2 1.5714285714285721 0 1.905385795765048 1.632764438497625 0 1.873185845995041 1.4969442903745009 0 2 1.5714285714285721 0 1.905385795765048 1.632764438497625 0 2 1.7142857142857151 0 1.905385795765048 1.632764438497625 0 2 1.7142857142857151 0 1.8680288471159121 1.762574042267598 0 1.7857142857142889 1.61858957413174 0 1.905385795765048 1.632764438497625 0 1.8680288471159121 1.762574042267598 0 1.7133888590203961 1.744009140962433 0 1.7857142857142889 1.61858957413174 0 1.8680288471159121 1.762574042267598 0 1.7133888590203961 1.744009140962433 0 1.8680288471159121 1.762574042267598 0 1.780189266486458 1.87434361581751 0 1.8680288471159121 1.762574042267598 0 1.780189266486458 1.87434361581751 0 1.8954213132044451 1.8954213132044451 0 2 1.7142857142857151 0 1.8680288471159121 1.762574042267598 0 2 1.857142857142857 0 1.8680288471159121 1.762574042267598 0 2 1.857142857142857 0 1.8954213132044451 1.8954213132044451 0 2 2 0 1.8954213132044451 1.8954213132044451 0 1.857142857142857 2 0 2 1.857142857142857 0 2 2 0 1.8954213132044451 1.8954213132044451 0 1.714285714285714 2 0 1.780189266486458 1.87434361581751 0 1.857142857142857 2 0 1.780189266486458 1.87434361581751 0 1.8954213132044451 1.8954213132044451 0 1.857142857142857 2 0 1.7167999698727541 1.239731972755882 0 1.642763263581051 1.12039729371186 0 1.782841922996929 1.1165487808372889 0 1.7167999698727541 1.239731972755882 0 1.642763263581051 1.12039729371186 0 1.5722754049247569 1.2429924675024751 0 1.7142857142857151 1 0 1.642763263581051 1.12039729371186 0 1.782841922996929 1.1165487808372889 0 1.7142857142857151 1 0 1.642763263581051 1.12039729371186 0 1.5714285714285721 1 0 1.4989479979775799 1.123110541175516 0 1.642763263581051 1.12039729371186 0 1.5714285714285721 1 0 1.4989479979775799 1.123110541175516 0 1.642763263581051 1.12039729371186 0 1.5722754049247569 1.2429924675024751 0 1.4285203453789539 1.247229121683411 0 1.5722754049247569 1.2429924675024751 0 1.5023078480707981 1.369122867196213 0 1.5722754049247569 1.2429924675024751 0 1.5023078480707981 1.369122867196213 0 1.645945505858496 1.3657820825118669 0 1.4291884114524669 1.494373075047676 0 1.5023078480707981 1.369122867196213 0 1.5740912662740569 1.4931942167857211 0 1.5023078480707981 1.369122867196213 0 1.5740912662740569 1.4931942167857211 0 1.645945505858496 1.3657820825118669 0 1.7219056762667611 1.4941033353868309 0 1.645945505858496 1.3657820825118669 0 1.7913623651234289 1.3625104343460019 0 1.5740912662740569 1.4931942167857211 0 1.7219056762667611 1.4941033353868309 0 1.645945505858496 1.3657820825118669 0 1.7167999698727541 1.239731972755882 0 1.5722754049247569 1.2429924675024751 0 1.645945505858496 1.3657820825118669 0 1.7167999698727541 1.239731972755882 0 1.645945505858496 1.3657820825118669 0 1.7913623651234289 1.3625104343460019 0 1.7167999698727541 1.239731972755882 0 1.7913623651234289 1.3625104343460019 0 1.8718294896102901 1.230484398416303 0 1.7913623651234289 1.3625104343460019 0 1.9104848285497229 1.358106546840288 0 1.8718294896102901 1.230484398416303 0 1.7913623651234289 1.3625104343460019 0 1.873185845995041 1.4969442903745009 0 1.9104848285497229 1.358106546840288 0 1.7219056762667611 1.4941033353868309 0 1.7913623651234289 1.3625104343460019 0 1.873185845995041 1.4969442903745009 0 1.873185845995041 1.4969442903745009 0 2 1.428571428571429 0 1.9104848285497229 1.358106546840288 0 2 1.5714285714285721 0 1.873185845995041 1.4969442903745009 0 2 1.428571428571429 0 1.9104848285497229 1.358106546840288 0 2 1.285714285714286 0 1.8718294896102901 1.230484398416303 0 2 1.428571428571429 0 1.9104848285497229 1.358106546840288 0 2 1.285714285714286 0 2 1.142857142857143 0 1.8718294896102901 1.230484398416303 0 1.895421313204446 1.104578686795554 0 2 1.285714285714286 0 2 1.142857142857143 0 1.8718294896102901 1.230484398416303 0 1.8718294896102901 1.230484398416303 0 1.782841922996929 1.1165487808372889 0 1.895421313204446 1.104578686795554 0 1.7167999698727541 1.239731972755882 0 1.8718294896102901 1.230484398416303 0 1.782841922996929 1.1165487808372889 0 1.7142857142857151 1 0 1.782841922996929 1.1165487808372889 0 1.857142857142857 1 0 1.782841922996929 1.1165487808372889 0 1.857142857142857 1 0 1.895421313204446 1.104578686795554 0 2 1.142857142857143 0 2 1 0 1.895421313204446 1.104578686795554 0 1.857142857142857 1 0 2 1 0 1.895421313204446 1.104578686795554 0 2 1 0 1.895421313204702 0.89542131320459539 0 2 0.85714285714246041 0 1.857142857142857 1 0 2 1 0 1.895421313204702 0.89542131320459539 0 2 0.85714285714246041 0 1.8762820851745099 0.78571428571438473 0 2 0.71428571428630883 0 1.895421313204702 0.89542131320459539 0 2 0.85714285714246041 0 1.8762820851745099 0.78571428571438473 0 1.895421313204702 0.89542131320459539 0 1.8762820851745099 0.78571428571438473 0 1.768652694417534 0.87272440266303286 0 1.8762820851745099 0.78571428571438473 0 1.768652694417534 0.87272440266303286 0 1.756239446550119 0.72095711511373584 0 1.7142857142857151 1 0 1.857142857142857 1 0 1.768652694417534 0.87272440266303286 0 1.857142857142857 1 0 1.895421313204702 0.89542131320459539 0 1.768652694417534 0.87272440266303286 0 1.7142857142857151 1 0 1.768652694417534 0.87272440266303286 0 1.642857142857143 0.91161422340073883 0 1.7142857142857151 1 0 1.5714285714285721 1 0 1.642857142857143 0.91161422340073883 0 1.768652694417534 0.87272440266303286 0 1.6317122618965649 0.79637337101919514 0 1.756239446550119 0.72095711511373584 0 1.768652694417534 0.87272440266303286 0 1.642857142857143 0.91161422340073883 0 1.6317122618965649 0.79637337101919514 0 1.6317122618965649 0.79637337101919514 0 1.501956522282162 0.87342776029090685 0 1.5054085274983611 0.72194187149245215 0 1.642857142857143 0.91161422340073883 0 1.6317122618965649 0.79637337101919514 0 1.501956522282162 0.87342776029090685 0 1.5714285714285721 1 0 1.642857142857143 0.91161422340073883 0 1.501956522282162 0.87342776029090685 0 1.428571428571429 1 0 1.5714285714285721 1 0 1.501956522282162 0.87342776029090685 0 1.5066538916308021 0.57407090316079068 0 1.6301168890407629 0.50220080181550997 0 1.505475819208991 0.42917327901520119 0 1.5066538916308021 0.57407090316079068 0 1.6326710220336891 0.65305200369586036 0 1.6301168890407629 0.50220080181550997 0 1.6317122618965649 0.79637337101919514 0 1.5054085274983611 0.72194187149245215 0 1.6326710220336891 0.65305200369586036 0 1.5066538916308021 0.57407090316079068 0 1.5054085274983611 0.72194187149245215 0 1.6326710220336891 0.65305200369586036 0 1.6326710220336891 0.65305200369586036 0 1.752564170348099 0.57142857143056203 0 1.756239446550119 0.72095711511373584 0 1.6317122618965649 0.79637337101919514 0 1.6326710220336891 0.65305200369586036 0 1.756239446550119 0.72095711511373584 0 1.6326710220336891 0.65305200369586036 0 1.6301168890407629 0.50220080181550997 0 1.752564170348099 0.57142857143056203 0 1.6301168890407629 0.50220080181550997 0 1.752564170348099 0.57142857143056203 0 1.7526527778847281 0.42872490132975188 0 1.752564170348099 0.57142857143056203 0 1.8755544454303199 0.64645005615938045 0 1.8762820851739579 0.50000000000166922 0 1.752564170348099 0.57142857143056203 0 1.8762820851739579 0.50000000000166922 0 1.7526527778847281 0.42872490132975188 0 1.8762820851745099 0.78571428571438473 0 1.756239446550119 0.72095711511373584 0 1.8755544454303199 0.64645005615938045 0 1.752564170348099 0.57142857143056203 0 1.756239446550119 0.72095711511373584 0 1.8755544454303199 0.64645005615938045 0 1.8762820851745099 0.78571428571438473 0 1.8755544454303199 0.64645005615938045 0 2 0.71428571428630883 0 1.8755544454303199 0.64645005615938045 0 2 0.71428571428630883 0 2 0.57142857143015668 0 1.8755544454303199 0.64645005615938045 0 1.8762820851739579 0.50000000000166922 0 2 0.57142857143015668 0 1.8762820851739579 0.50000000000166922 0 2 0.57142857143015668 0 2 0.42857142857321201 0 1.8762820851739579 0.50000000000166922 0 2 0.42857142857321201 0 1.876813730396715 0.35806369368239999 0 2 0.28571428571547469 0 1.876813730396715 0.35806369368239999 0 1.879471956511813 0.21981073351466429 0 2 0.42857142857321201 0 2 0.28571428571547469 0 1.876813730396715 0.35806369368239999 0 1.876813730396715 0.35806369368239999 0 1.753250940521041 0.28690380655078462 0 1.879471956511813 0.21981073351466429 0 1.876813730396715 0.35806369368239999 0 1.753250940521041 0.28690380655078462 0 1.7526527778847281 0.42872490132975188 0 1.8762820851739579 0.50000000000166922 0 1.876813730396715 0.35806369368239999 0 1.7526527778847281 0.42872490132975188 0 2 0 0 1.8954213132040689 0.10457868679609091 0 2 0.14285714285773729 0 2 0 0 1.8954213132040689 0.10457868679609091 0 1.857142857142857 0 0 2 0.28571428571547469 0 2 0.14285714285773729 0 1.879471956511813 0.21981073351466429 0 1.8954213132040689 0.10457868679609091 0 2 0.14285714285773729 0 1.879471956511813 0.21981073351466429 0 1.753250940521041 0.28690380655078462 0 1.879471956511813 0.21981073351466429 0 1.767634152009756 0.1319344354676312 0 1.8954213132040689 0.10457868679609091 0 1.879471956511813 0.21981073351466429 0 1.767634152009756 0.1319344354676312 0 1.8954213132040689 0.10457868679609091 0 1.767634152009756 0.1319344354676312 0 1.857142857142857 0 0 1.767634152009756 0.1319344354676312 0 1.857142857142857 0 0 1.714285714285714 0 0 1.714285714285714 0 0 1.641434069801228 0.095674845394396482 0 1.571428571428571 0 0 1.767634152009756 0.1319344354676312 0 1.714285714285714 0 0 1.641434069801228 0.095674845394396482 0 1.767634152009756 0.1319344354676312 0 1.641434069801228 0.095674845394396482 0 1.6310091395475219 0.21655168125592689 0 1.753250940521041 0.28690380655078462 0 1.767634152009756 0.1319344354676312 0 1.6310091395475219 0.21655168125592689 0 1.6310091395475219 0.21655168125592689 0 1.502593749782573 0.1295855542762408 0 1.503934447226754 0.28383162542713097 0 1.641434069801228 0.095674845394396482 0 1.6310091395475219 0.21655168125592689 0 1.502593749782573 0.1295855542762408 0 1.641434069801228 0.095674845394396482 0 1.502593749782573 0.1295855542762408 0 1.571428571428571 0 0 1.502593749782573 0.1295855542762408 0 1.571428571428571 0 0 1.4285714285714279 0 0 1.6301168890407629 0.50220080181550997 0 1.7526527778847281 0.42872490132975188 0 1.6291567524667829 0.3576806536311482 0 1.753250940521041 0.28690380655078462 0 1.6310091395475219 0.21655168125592689 0 1.6291567524667829 0.3576806536311482 0 1.753250940521041 0.28690380655078462 0 1.7526527778847281 0.42872490132975188 0 1.6291567524667829 0.3576806536311482 0 1.6310091395475219 0.21655168125592689 0 1.6291567524667829 0.3576806536311482 0 1.503934447226754 0.28383162542713097 0 1.6291567524667829 0.3576806536311482 0 1.503934447226754 0.28383162542713097 0 1.505475819208991 0.42917327901520119 0 1.6301168890407629 0.50220080181550997 0 1.6291567524667829 0.3576806536311482 0 1.505475819208991 0.42917327901520119 0 1.505475819208991 0.42917327901520119 0 1.3802852902972891 0.35643808088643081 0 1.3802588180989579 0.50020264484033383 0 1.503934447226754 0.28383162542713097 0 1.505475819208991 0.42917327901520119 0 1.3802852902972891 0.35643808088643081 0 1.503934447226754 0.28383162542713097 0 1.3802852902972891 0.35643808088643081 0 1.3750859320573681 0.21356050349783851 0 1.3802852902972891 0.35643808088643081 0 1.3750859320573681 0.21356050349783851 0 1.2494061032605699 0.28122351189747269 0 1.3802852902972891 0.35643808088643081 0 1.2548711393591701 0.42579895584072741 0 1.2494061032605699 0.28122351189747269 0 1.2548711393591701 0.42579895584072741 0 1.3802588180989579 0.50020264484033383 0 1.2543832690154351 0.57113866035583183 0 1.3802852902972891 0.35643808088643081 0 1.2548711393591701 0.42579895584072741 0 1.3802588180989579 0.50020264484033383 0 1.502593749782573 0.1295855542762408 0 1.4285714285714279 0 0 1.357142857142857 0.09665569899944787 0 1.502593749782573 0.1295855542762408 0 1.3750859320573681 0.21356050349783851 0 1.357142857142857 0.09665569899944787 0 1.502593749782573 0.1295855542762408 0 1.503934447226754 0.28383162542713097 0 1.3750859320573681 0.21356050349783851 0 1.3750859320573681 0.21356050349783851 0 1.357142857142857 0.09665569899944787 0 1.2348347595333411 0.13011970583437851 0 1.3750859320573681 0.21356050349783851 0 1.2348347595333411 0.13011970583437851 0 1.2494061032605699 0.28122351189747269 0 1.4285714285714279 0 0 1.2857142857142849 0 0 1.357142857142857 0.09665569899944787 0 1.2857142857142849 0 0 1.357142857142857 0.09665569899944787 0 1.2348347595333411 0.13011970583437851 0 1.142857142857143 0 0 1.2348347595333411 0.13011970583437851 0 1.1037738715822589 0.1037738715821834 0 1.2857142857142849 0 0 1.142857142857143 0 0 1.2348347595333411 0.13011970583437851 0 1.2348347595333411 0.13011970583437851 0 1.1189454311765621 0.21612891637515011 0 1.2494061032605699 0.28122351189747269 0 1.2348347595333411 0.13011970583437851 0 1.1189454311765621 0.21612891637515011 0 1.1037738715822589 0.1037738715821834 0 1.1189454311765621 0.21612891637515011 0 1 0.14285714285686729 0 1 0.28571428571359381 0 1.1189454311765621 0.21612891637515011 0 1 0.14285714285686729 0 1.1037738715822589 0.1037738715821834 0 1.142857142857143 0 0 1 0 0 1.1037738715822589 0.1037738715821834 0 1 0.14285714285686729 0 1 0 0 1.1037738715822589 0.1037738715821834 0 1.2548711393591701 0.42579895584072741 0 1.126694634720383 0.4979421513039991 0 1.1256578526831991 0.35308498036640512 0 1.2548711393591701 0.42579895584072741 0 1.126694634720383 0.4979421513039991 0 1.2543832690154351 0.57113866035583183 0 1.1189454311765621 0.21612891637515011 0 1.2494061032605699 0.28122351189747269 0 1.1256578526831991 0.35308498036640512 0 1.2548711393591701 0.42579895584072741 0 1.2494061032605699 0.28122351189747269 0 1.1256578526831991 0.35308498036640512 0 1.1189454311765621 0.21612891637515011 0 1.1256578526831991 0.35308498036640512 0 1 0.28571428571359381 0 1.1256578526831991 0.35308498036640512 0 1 0.28571428571359381 0 1 0.42857142857032021 0 1.126694634720383 0.4979421513039991 0 1.1256578526831991 0.35308498036640512 0 1 0.42857142857032021 0 1.126694634720383 0.4979421513039991 0 1 0.42857142857032021 0 1 0.57142857142744297 0 1.126694634720383 0.4979421513039991 0 1 0.57142857142744297 0 1.1249180082932411 0.64154736580034655 0 1.126694634720383 0.4979421513039991 0 1.1249180082932411 0.64154736580034655 0 1.2543832690154351 0.57113866035583183 0 1.1249180082932411 0.64154736580034655 0 1.1206017064478631 0.78020338314488047 0 1.2504066190377161 0.71350574666905386 0 1.1249180082932411 0.64154736580034655 0 1.2543832690154351 0.57113866035583183 0 1.2504066190377161 0.71350574666905386 0 1 0.57142857142744297 0 1.1249180082932411 0.64154736580034655 0 1 0.71428571428496201 0 1.1249180082932411 0.64154736580034655 0 1 0.71428571428496201 0 1.1206017064478631 0.78020338314488047 0 1 0.71428571428496201 0 1 0.85714285714248095 0 1.1206017064478631 0.78020338314488047 0 1 0.85714285714248095 0 1.1206017064478631 0.78020338314488047 0 1.104578686795793 0.89542131320410678 0 1 1 0 1 0.85714285714248095 0 1.104578686795793 0.89542131320410678 0 1 1 0 1.142857142857143 1 0 1.104578686795793 0.89542131320410678 0 1.142857142857143 1 0 1.104578686795793 0.89542131320410678 0 1.2348069249981111 0.86828947631167996 0 1.142857142857143 1 0 1.285714285714286 1 0 1.2348069249981111 0.86828947631167996 0 1.1206017064478631 0.78020338314488047 0 1.104578686795793 0.89542131320410678 0 1.2348069249981111 0.86828947631167996 0 1.1206017064478631 0.78020338314488047 0 1.2348069249981111 0.86828947631167996 0 1.2504066190377161 0.71350574666905386 0 1.2348069249981111 0.86828947631167996 0 1.3580796082637261 0.90318160544595827 0 1.381410425870252 0.78571428571776047 0 1.2348069249981111 0.86828947631167996 0 1.381410425870252 0.78571428571776047 0 1.2504066190377161 0.71350574666905386 0 1.285714285714286 1 0 1.2348069249981111 0.86828947631167996 0 1.3580796082637261 0.90318160544595827 0 1.428571428571429 1 0 1.285714285714286 1 0 1.3580796082637261 0.90318160544595827 0 1.428571428571429 1 0 1.501956522282162 0.87342776029090685 0 1.3580796082637261 0.90318160544595827 0 1.501956522282162 0.87342776029090685 0 1.3580796082637261 0.90318160544595827 0 1.381410425870252 0.78571428571776047 0 1.501956522282162 0.87342776029090685 0 1.5054085274983611 0.72194187149245215 0 1.381410425870252 0.78571428571776047 0 1.5066538916308021 0.57407090316079068 0 1.5054085274983611 0.72194187149245215 0 1.3798287378191809 0.64333130562085483 0 1.5054085274983611 0.72194187149245215 0 1.381410425870252 0.78571428571776047 0 1.3798287378191809 0.64333130562085483 0 1.5066538916308021 0.57407090316079068 0 1.505475819208991 0.42917327901520119 0 1.3802588180989579 0.50020264484033383 0 1.5066538916308021 0.57407090316079068 0 1.3798287378191809 0.64333130562085483 0 1.3802588180989579 0.50020264484033383 0 1.3798287378191809 0.64333130562085483 0 1.3802588180989579 0.50020264484033383 0 1.2543832690154351 0.57113866035583183 0 1.3798287378191809 0.64333130562085483 0 1.2543832690154351 0.57113866035583183 0 1.2504066190377161 0.71350574666905386 0 1.381410425870252 0.78571428571776047 0 1.3798287378191809 0.64333130562085483 0 1.2504066190377161 0.71350574666905386 0 
</DataArray>
</Points>
<Cells>
<DataArray type="UInt32" Name="connectivity" format="ascii">
0 1 2 3 4 5 6 7 8 9 10 11 12 13 14 15 16 17 18 19 20 21 22 23 24 25 26 27 28 29 30 31 32 33 34 35 36 37 38 39 40 41 42 43 44 45 46 47 48 49 50 51 52 53 54 55 56 57 58 59 60 61 62 63 64 65 66 67 68 69 70 71 72 73 74 75 76 77 78 79 80 81 82 83 84 85 86 87 88 89 90 91 92 93 94 95 96 97 98 99 100 101 102 103 104 105 106 107 108 109 110 111 112 113 114 115 116 117 118 119 120 121 122 123 124 125 126 127 128 129 130 131 132 133 134 135 136 137 138 139 140 141 142 143 144 145 146 147 148 149 150 151 152 153 154 155 156 157 158 159 160 161 162 163 164 165 166 167 168 169 170 171 172 173 174 175 176 177 178 179 180 181 182 183 184 185 186 187 188 189 190 191 192 193 194 195 196 197 198 199 200 201 202 203 204 205 206 207 208 209 210 211 212 213 214 215 216 217 218 219 220 221 222 223 224 225 226 227 228 229 230 231 232 233 234 235 236 237 238 239 240 241 242 243 244 245 246 247 248 249 250 251 252 253 254 255 256 257 258 259 260 261 262 263 264 265 266 267 268 269 270 271 272 273 274 275 276 277 278 279 280 281 282 283 284 285 286 287 288 289 290 291 292 293 294 295 296 297 298 299 300 301 302 303 304 305 306 307 308 309 310 311 312 313 314 315 316 317 318 319 320 321 322 323 324 325 326 327 328 329 330 331 332 333 334 335 336 337 338 339 340 341 342 343 344 345 346 347 348 349 350 351 352 353 354 355 356 357 358 359 360 361 362 363 364 365 366 367 368 369 370 371 372 373 374 375 376 377 378 379 380 381 382 383 384 385 386 387 388 389 390 391 392 393 394 395 396 397 398 399 400 401 402 403 404 405 406 407 408 409 410 411 412 413 414 415 416 417 418 419 420 421 422 423 424 425 426 427 428 429 430 431 432 433 434 435 436 437 438 439 440 441 442 443 444 445 446 447 448 449 450 451 452 453 454 455 456 457 458 459 460 461 462 463 464 465 466 467 468 469 470 471 472 473 474 475 476 477 478 479 480 481 482 483 484 485 486 487 488 489 490 491 492 493 494 495 496 497 498 499 500 501 502 503 504 505 506 507 508 509 510 511 512 513 514 515 516 517 518 519 520 521 522 523 524 525 526 527 528 529 530 531 532 533 534 535 536 537 538 539 540 541 542 543 544 545 546 547 548 549 550 551 552 553 554 555 556 557 558 559 560 561 562 563 564 565 566 567 568 569 570 571 572 573 574 575 576 577 578 579 580 581 582 583 584 585 586 587 588 589 590 591 592 593 594 595 596 597 598 599 600 601 602 603 604 605 606 607 608 609 610 611 612 613 614 615 616 617 618 619 620 621 622 623 624 625 626 627 628 629 630 631 632 633 634 635 636 637 638 639 640 641 642 643 644 645 646 647 648 649 650 651 652 653 654 655 656 657 658 659 660 661 662 663 664 665 666 667 668 669 670 671 672 673 674 675 676 677 678 679 680 681 682 683 684 685 686 687 688 689 690 691 692 693 694 695 696 697 698 699 700 701 702 703 704 705 706 707 708 709 710 711 712 713 714 715 716 717 718 719 720 721 722 723 724 725 726 727 728 729 730 731 732 733 734 735 736 737 738 739 740 741 742 743 744 745 746 747 748 749 750 751 752 753 754 755 756 757 758 759 760 761 762 763 764 765 766 767 768 769 770 771 772 773 774 775 776 777 778 779 780 781 782 783 784 785 786 787 788 789 790 791 792 793 794 795 796 797 798 799 800 801 802 803 804 805 806 807 808 809 810 811 812 813 814 815 816 817 818 819 820 821 822 823 824 825 826 827 828 829 830 831 832 833 834 835 836 837 838 839 840 841 842 843 844 845 846 847 848 849 850 851 852 853 854 855 856 857 858 859 860 861 862 863 864 865 866 867 868 869 870 871 872 873 874 875 876 877 878 879 880 881 882 883 884 885 886 887 888 889 890 891 892 893 894 895 896 897 898 899 900 901 902 903 904 905 906 907 908 909 910 911 912 913 914 915 916 917 918 919 920 921 922 923 924 925 926 927 928 929 930 931 932 933 934 935 936 937 938 939 940 941 942 943 944 945 946 947 948 949 950 951 952 953 954 955 956 957 958 959 960 961 962 963 964 965 966 967 968 969 970 971 972 973 974 975 976 977 978 979 980 981 982 983 984 985 986 987 988 989 990 991 992 993 994 995 996 997 998 999 1000 1001 1002 1003 1004 1005 1006 1007 1008 1009 1010 1011 1012 1013 1014 1015 1016 1017 1018 1019 1020 1021 1022 1023 1024 1025 1026 1027 1028 1029 1030 1031 1032 1033 1034 1035 1036 1037 1038 1039 1040 1041 1042 1043 1044 1045 1046 1047 1048 1049 1050 1051 1052 1053 1054 1055 1056 1057 1058 1059 1060 1061 1062 1063 1064 1065 1066 1067 1068 1069 1070 1071 1072 1073 1074 1075 1076 1077 1078 1079 1080 1081 1082 1083 1084 1085 1086 1087 1088 1089 1090 1091 1092 1093 1094 1095 1096 1097 1098 1099 1100 1101 1102 1103 1104 1105 1106 1107 1108 1109 1110 1111 1112 1113 1114 1115 1116 1117 1118 1119 1120 1121 1122 1123 1124 1125 1126 1127 1128 1129 1130 1131 1132 1133 1134 1135 1136 1137 1138 1139 1140 1141 1142 1143 1144 1145 1146 1147 1148 1149 1150 1151 1152 1153 1154 1155 1156 1157 1158 1159 1160 1161 1162 1163 1164 1165 1166 1167 1168 1169 1170 1171 1172 1173 1174 1175 1176 1177 1178 1179 1180 1181 1182 1183 1184 1185 1186 1187 1188 1189 1190 1191 1192 1193 1194 1195 1196 1197 1198 1199 1200 1201 1202 1203 1204 1205 1206 1207 1208 1209 1210 1211 1212 1213 1214 1215 1216 1217 1218 1219 1220 1221 1222 1223 1224 1225 1226 1227 1228 1229 1230 1231 1232 1233 1234 1235 1236 1237 1238 1239 1240 1241 1242 1243 1244 1245 1246 1247 1248 1249 1250 1251 1252 1253 1254 1255 1256 1257 1258 1259 1260 1261 1262 1263 1264 1265 1266 1267 1268 1269 1270 1271 1272 1273 1274 1275 1276 1277 1278 1279 1280 1281 1282 1283 1284 1285 1286 1287 1288 1289 1290 1291 1292 1293 1294 1295 1296 1297 1298 1299 1300 1301 1302 1303 1304 1305 1306 1307 1308 1309 1310 1311 1312 1313 1314 1315 1316 1317 1318 1319 1320 1321 1322 1323 1324 1325 1326 1327 1328 1329 1330 1331 1332 1333 1334 1335 1336 1337 1338 1339 1340 1341 1342 1343 1344 1345 1346 1347 1348 1349 1350 1351 1352 1353 1354 1355 1356 1357 1358 1359 1360 1361 1362 1363 1364 1365 1366 1367 1368 1369 1370 1371 1372 1373 1374 1375 1376 1377 1378 1379 1380 1381 1382 1383 1384 1385 1386 1387 1388 1389 1390 1391 1392 1393 1394 1395 1396 1397 1398 1399 1400 1401 1402 1403 1404 1405 1406 1407 1408 1409 1410 1411 1412 1413 1414 1415 
</DataArray>
<DataArray type="UInt32" Name="offsets" format="ascii">
3 6 9 12 15 18 21 24 27 30 33 36 39 42 45 48 51 54 57 60 63 66 69 72 75 78 81 84 87 90 93 96 99 102 105 108 111 114 117 120 123 126 129 132 135 138 141 144 147 150 153 156 159 162 165 168 171 174 177 180 183 186 189 192 195 198 201 204 207 210 213 216 219 222 225 228 231 234 237 240 243 246 249 252 255 258 261 264 267 270 273 276 279 282 285 288 291 294 297 300 303 306 309 312 315 318 321 324 327 330 333 336 339 342 345 348 351 354 357 360 363 366 369 372 375 378 381 384 387 390 393 396 399 402 405 408 411 414 417 420 423 426 429 432 435 438 441 444 447 450 453 456 459 462 465 468 471 474 477 480 483 486 489 492 495 498 501 504 507 510 513 516 519 522 525 528 531 534 537 540 543 546 549 552 555 558 561 564 567 570 573 576 579 582 585 588 591 594 597 600 603 606 609 612 615 618 621 624 627 630 633 636 639 642 645 648 651 654 657 660 663 666 669 672 675 678 681 684 687 690 693 696 699 702 705 708 711 714 717 720 723 726 729 732 735 738 741 744 747 750 753 756 759 762 765 768 771 774 777 780 783 786 789 792 795 798 801 804 807 810 813 816 819 822 825 828 831 834 837 840 843 846 849 852 855 858 861 864 867 870 873 876 879 882 885 888 891 894 897 900 903 906 909 912 915 918 921 924 927 930 933 936 939 942 945 948 951 954 957 960 963 966 969 972 975 978 981 984 987 990 993 996 999 1002 1005 1008 1011 1014 1017 1020 1023 1026 1029 1032 1035 1038 1041 1044 1047 1050 1053 1056 1059 1062 1065 1068 1071 1074 1077 1080 1083 1086 1089 1092 1095 1098 1101 1104 1107 1110 1113 1116 1119 1122 1125 1128 1131 1134 1137 1140 1143 1146 1149 1152 1155 1158 1161 1164 1167 1170 1173 1176 1179 1182 1185 1188 1191 1194 1197 1200 1203 1206 1209 1212 1215 1218 1221 1224 1227 1230 1233 1236 1239 1242 1245 1248 1251 1254 1257 1260 1263 1266 1269 1272 1275 1278 1281 1284 1287 1290 1293 1296 1299 1302 1305 1308 1311 1314 1317 1320 1323 1326 1329 1332 1335 1338 1341 1344 1347 1350 1353 1356 1359 1362 1365 1368 1371 1374 1377 1380 1383 1386 1389 1392 1395 1398 1401 1404 1407 1410 1413 1416 
</DataArray>
<DataArray type="UInt32" Name="types" format="ascii">
5 5 5 5 5 5 5 5 5 5 5 5 5 5 5 5 5 5 5 5 5 5 5 5 5 5 5 5 5 5 5 5 5 5 5 5 5 5 5 5 5 5 5 5 5 5 5 5 5 5 5 5 5 5 5 5 5 5 5 5 5 5 5 5 5 5 5 5 5 5 5 5 5 5 5 5 5 5 5 5 5 5 5 5 5 5 5 5 5 5 5 5 5 5 5 5 5 5 5 5 5 5 5 5 5 5 5 5 5 5 5 5 5 5 5 5 5 5 5 5 5 5 5 5 5 5 5 5 5 5 5 5 5 5 5 5 5 5 5 5 5 5 5 5 5 5 5 5 5 5 5 5 5 5 5 5 5 5 5 5 5 5 5 5 5 5 5 5 5 5 5 5 5 5 5 5 5 5 5 5 5 5 5 5 5 5 5 5 5 5 5 5 5 5 5 5 5 5 5 5 5 5 5 5 5 5 5 5 5 5 5 5 5 5 5 5 5 5 5 5 5 5 5 5 5 5 5 5 5 5 5 5 5 5 5 5 5 5 5 5 5 5 5 5 5 5 5 5 5 5 5 5 5 5 5 5 5 5 5 5 5 5 5 5 5 5 5 5 5 5 5 5 5 5 5 5 5 5 5 5 5 5 5 5 5 5 5 5 5 5 5 5 5 5 5 5 5 5 5 5 5 5 5 5 5 5 5 5 5 5 5 5 5 5 5 5 5 5 5 5 5 5 5 5 5 5 5 5 5 5 5 5 5 5 5 5 5 5 5 5 5 5 5 5 5 5 5 5 5 5 5 5 5 5 5 5 5 5 5 5 5 5 5 5 5 5 5 5 5 5 5 5 5 5 5 5 5 5 5 5 5 5 5 5 5 5 5 5 5 5 5 5 5 5 5 5 5 5 5 5 5 5 5 5 5 5 5 5 5 5 5 5 5 5 5 5 5 5 5 5 5 5 5 5 5 5 5 5 5 5 5 5 5 5 5 5 5 5 5 5 5 5 5 5 5 5 5 5 5 5 5 5 5 5 5 5 5 5 5 5 5 5 5 5 5 5 5 5 5 5 5 5 
</DataArray>
</Cells>
<PointData Scalars="" Vectors="displacement," Tensors="">
<DataArray type="Float64" Name="displacement" NumberOfComponents="3" format="ascii">
7.1424764826337258e-05 7.1405521367239703e-05 0 0.10573002158329151 0.10570342331731526 0 0.14284051658274374 0.000162992343574989 0 7.1424764826337258e-05 7.1405521367239703e-05 0 0.10573002158329151 0.10570342331731526 0 0.00016285954857488591 0.14284045729461201 0 0.14284051658274374 0.000162992343574989 0 0.22200062981976684 0.12286143660639041 0 0.28572261315385128 0.00013965143667472066 0 0.10573002158329151 0.10570342331731526 0 0.14284051658274374 0.000162992343574989 0 0.22200062981976684 0.12286143660639041 0 0.10573002158329151 0.10570342331731526 0 0.22200062981976684 0.12286143660639041 0 0.13457627157076035 0.23482097631730656 0 0.22200062981976684 0.12286143660639041 0 0.13457627157076035 0.23482097631730656 0 0.29169403557492735 0.25155634052127634 0 0.13457627157076035 0.23482097631730656 0 0.00016285954857488591 0.14284045729461201 0 0.00014008689953050056 0.28572270597459232 0 0.10573002158329151 0.10570342331731526 0 0.13457627157076035 0.23482097631730656 0 0.00016285954857488591 0.14284045729461201 0 0.42857569949330737 0.00014703093122153777 0 0.36139344011326718 0.12679754055465142 0 0.50570736988135989 0.12884042892954239 0 0.22200062981976684 0.12286143660639041 0 0.28572261315385128 0.00013965143667472066 0 0.36139344011326718 0.12679754055465142 0 0.42857569949330737 0.00014703093122153777 0 0.28572261315385128 0.00013965143667472066 0 0.36139344011326718 0.12679754055465142 0 0.36139344011326718 0.12679754055465142 0 0.29169403557492735 0.25155634052127634 0 0.43617430309134975 0.25381266384322526 0 0.22200062981976684 0.12286143660639041 0 0.36139344011326718 0.12679754055465142 0 0.29169403557492735 0.25155634052127634 0 0.36139344011326718 0.12679754055465142 0 0.43617430309134975 0.25381266384322526 0 0.50570736988135989 0.12884042892954239 0 0.43617430309134975 0.25381266384322526 0 0.36514976572396096 0.37866600832798025 0 0.51471657914604863 0.37841363313344534 0 0.29169403557492735 0.25155634052127634 0 0.43617430309134975 0.25381266384322526 0 0.36514976572396096 0.37866600832798025 0 0.29169403557492735 0.25155634052127634 0 0.36514976572396096 0.37866600832798025 0 0.22187629564434899 0.37465315250676556 0 0.36514976572396096 0.37866600832798025 0 0.29156993084428262 0.50765849946219399 0 0.43881859540752366 0.507391641361437 0 0.36514976572396096 0.37866600832798025 0 0.29156993084428262 0.50765849946219399 0 0.22187629564434899 0.37465315250676556 0 0.36514976572396096 0.37866600832798025 0 0.43881859540752366 0.507391641361437 0 0.51471657914604863 0.37841363313344534 0 0.13457627157076035 0.23482097631730656 0 0.00014008689953050056 0.28572270597459232 0 0.098683524209323498 0.36123312529088941 0 0.00014008689953050056 0.28572270597459232 0 0.098683524209323498 0.36123312529088941 0 0.00014661543517323906 0.42857547196182172 0 0.13457627157076035 0.23482097631730656 0 0.098683524209323498 0.36123312529088941 0 0.22187629564434899 0.37465315250676556 0 0.13457627157076035 0.23482097631730656 0 0.29169403557492735 0.25155634052127634 0 0.22187629564434899 0.37465315250676556 0 0.098683524209323498 0.36123312529088941 0 0.22187629564434899 0.37465315250676556 0 0.13506399747034381 0.50370654036573392 0 0.29156993084428262 0.50765849946219399 0 0.22187629564434899 0.37465315250676556 0 0.13506399747034381 0.50370654036573392 0 0.13506399747034381 0.50370654036573392 0 0.00014661543517323906 0.42857547196182172 0 0.00014821066225637874 0.57143709642134111 0 0.098683524209323498 0.36123312529088941 0 0.13506399747034381 0.50370654036573392 0 0.00014661543517323906 0.42857547196182172 0 0.13506399747034381 0.50370654036573392 0 0.00014821066225637874 0.57143709642134111 0 0.10025455397508896 0.64510157660649425 0 0.00014776191195710494 0.71430978110195542 0 0.10025455397508896 0.64510157660649425 0 0.13772483101834981 0.79384009352599527 0 0.00014821066225637874 0.57143709642134111 0 0.00014776191195710494 0.71430978110195542 0 0.10025455397508896 0.64510157660649425 0 0.22197017298097901 0.64605273562437238 0 0.29075462899030019 0.78954831357779798 0 0.13772483101834981 0.79384009352599527 0 0.10025455397508896 0.64510157660649425 0 0.22197017298097901 0.64605273562437238 0 0.13772483101834981 0.79384009352599527 0 0.13506399747034381 0.50370654036573392 0 0.10025455397508896 0.64510157660649425 0 0.22197017298097901 0.64605273562437238 0 0.29156993084428262 0.50765849946219399 0 0.13506399747034381 0.50370654036573392 0 0.22197017298097901 0.64605273562437238 0 0.29156993084428262 0.50765849946219399 0 0.22197017298097901 0.64605273562437238 0 0.36505381674270321 0.64119840151320984 0 0.29156993084428262 0.50765849946219399 0 0.43881859540752366 0.507391641361437 0 0.36505381674270321 0.64119840151320984 0 0.43881859540752366 0.507391641361437 0 0.36505381674270321 0.64119840151320984 0 0.51063290014102469 0.64297563386659873 0 0.36505381674270321 0.64119840151320984 0 0.43309835575569622 0.79002575395695229 0 0.51063290014102469 0.64297563386659873 0 0.22197017298097901 0.64605273562437238 0 0.36505381674270321 0.64119840151320984 0 0.29075462899030019 0.78954831357779798 0 0.36505381674270321 0.64119840151320984 0 0.43309835575569622 0.79002575395695229 0 0.29075462899030019 0.78954831357779798 0 0.29075462899030019 0.78954831357779798 0 0.35662147166819974 0.9544302301573554 0 0.22083509910641669 0.94686601600290943 0 0.43309835575569622 0.79002575395695229 0 0.29075462899030019 0.78954831357779798 0 0.35662147166819974 0.9544302301573554 0 0.43309835575569622 0.79002575395695229 0 0.35662147166819974 0.9544302301573554 0 0.4983168774180996 0.96384057472356988 0 0.35662147166819974 0.9544302301573554 0 0.4983168774180996 0.96384057472356988 0 0.4178824631632726 1.1601307469943436 0 0.35662147166819974 0.9544302301573554 0 0.275067354026866 1.1426575144102602 0 0.4178824631632726 1.1601307469943436 0 0.35662147166819974 0.9544302301573554 0 0.22083509910641669 0.94686601600290943 0 0.275067354026866 1.1426575144102602 0 0.22083509910641669 0.94686601600290943 0 0.13381105473342203 1.0972747078687421 0 0.275067354026866 1.1426575144102602 0 0.22083509910641669 0.94686601600290943 0 0.10939323058390622 0.93363386009088034 0 0.13381105473342203 1.0972747078687421 0 0.10939323058390622 0.93363386009088034 0 0.00015809536636705363 0.85715906924870822 0 0.00013101892813994462 1.0001720562019507 0 0.10939323058390622 0.93363386009088034 0 0.13381105473342203 1.0972747078687421 0 0.00013101892813994462 1.0001720562019507 0 0.00014776191195710494 0.71430978110195542 0 0.00015809536636705363 0.85715906924870822 0 0.13772483101834981 0.79384009352599527 0 0.10939323058390622 0.93363386009088034 0 0.00015809536636705363 0.85715906924870822 0 0.13772483101834981 0.79384009352599527 0 0.29075462899030019 0.78954831357779798 0 0.22083509910641669 0.94686601600290943 0 0.13772483101834981 0.79384009352599527 0 0.22083509910641669 0.94686601600290943 0 0.10939323058390622 0.93363386009088034 0 0.13772483101834981 0.79384009352599527 0 0.92138271653640202 0.77954993429396413 0 0.79176848061471361 0.93430007855805752 0 0.73739806328468327 0.78441814559303358 0 0.92138271653640202 0.77954993429396413 0 0.91948043429366899 0.91883338098489242 0 0.79176848061471361 0.93430007855805752 0 0.92138271653640202 0.77954993429396413 0 0.91948043429366899 0.91883338098489242 0 1.088693605208056 0.84364152205760679 0 0.92138271653640202 0.77954993429396413 0 1.1337382141273513 0.70131206627134435 0 1.088693605208056 0.84364152205760679 0 0.91948043429366899 0.91883338098489242 0 0.99997705395037462 0.99992828244474885 0 0.84367765654725324 1.0886304706933909 0 0.91948043429366899 0.91883338098489242 0 1.088693605208056 0.84364152205760679 0 0.99997705395037462 0.99992828244474885 0 0.79176848061471361 0.93430007855805752 0 0.70176285307036623 1.1336346099553296 0 0.84367765654725324 1.0886304706933909 0 0.91948043429366899 0.91883338098489242 0 0.79176848061471361 0.93430007855805752 0 0.84367765654725324 1.0886304706933909 0 0.79176848061471361 0.93430007855805752 0 0.64579813771055994 0.95279896931637975 0 0.70176285307036623 1.1336346099553296 0 0.64579813771055994 0.95279896931637975 0 0.56020434879776382 1.1566144967679426 0 0.70176285307036623 1.1336346099553296 0 0.4983168774180996 0.96384057472356988 0 0.4178824631632726 1.1601307469943436 0 0.56020434879776382 1.1566144967679426 0 0.64579813771055994 0.95279896931637975 0 0.4983168774180996 0.96384057472356988 0 0.56020434879776382 1.1566144967679426 0 0.64579813771055994 0.95279896931637975 0 0.4983168774180996 0.96384057472356988 0 0.57803259554885866 0.79642410153677734 0 0.43309835575569622 0.79002575395695229 0 0.4983168774180996 0.96384057472356988 0 0.57803259554885866 0.79642410153677734 0 0.79176848061471361 0.93430007855805752 0 0.64579813771055994 0.95279896931637975 0 0.73739806328468327 0.78441814559303358 0 0.64579813771055994 0.95279896931637975 0 0.57803259554885866 0.79642410153677734 0 0.73739806328468327 0.78441814559303358 0 0.73739806328468327 0.78441814559303358 0 0.66438297626728249 0.63737099194644609 0 0.83729336454433723 0.63509041891528351 0 0.57803259554885866 0.79642410153677734 0 0.73739806328468327 0.78441814559303358 0 0.66438297626728249 0.63737099194644609 0 0.43309835575569622 0.79002575395695229 0 0.57803259554885866 0.79642410153677734 0 0.51063290014102469 0.64297563386659873 0 0.57803259554885866 0.79642410153677734 0 0.51063290014102469 0.64297563386659873 0 0.66438297626728249 0.63737099194644609 0 0.43881859540752366 0.507391641361437 0 0.51063290014102469 0.64297563386659873 0 0.59191958891999141 0.50456457415464229 0 0.51063290014102469 0.64297563386659873 0 0.66438297626728249 0.63737099194644609 0 0.59191958891999141 0.50456457415464229 0 0.66438297626728249 0.63737099194644609 0 0.59191958891999141 0.50456457415464229 0 0.76226418718911915 0.50067028865736174 0 0.66438297626728249 0.63737099194644609 0 0.83729336454433723 0.63509041891528351 0 0.76226418718911915 0.50067028865736174 0 0.83729336454433723 0.63509041891528351 0 0.96273309846977584 0.49578567593369632 0 0.76226418718911915 0.50067028865736174 0 0.83729336454433723 0.63509041891528351 0 1.0001255808828302 0.63348717614889727 0 0.96273309846977584 0.49578567593369632 0 0.92138271653640202 0.77954993429396413 0 0.83729336454433723 0.63509041891528351 0 1.0001255808828302 0.63348717614889727 0 0.92138271653640202 0.77954993429396413 0 0.73739806328468327 0.78441814559303358 0 0.83729336454433723 0.63509041891528351 0 0.92138271653640202 0.77954993429396413 0 1.0001255808828302 0.63348717614889727 0 1.1337382141273513 0.70131206627134435 0 1.0001255808828302 0.63348717614889727 0 1.1337382141273513 0.70131206627134435 0 1.1567593231421327 0.5603310929823565 0 1.0001255808828302 0.63348717614889727 0 0.96273309846977584 0.49578567593369632 0 1.1567593231421327 0.5603310929823565 0 0.96273309846977584 0.49578567593369632 0 1.0152629930648738 0.35298968165547895 0 1.1602523324339564 0.41756031708166835 0 0.96273309846977584 0.49578567593369632 0 1.1602523324339564 0.41756031708166835 0 1.1567593231421327 0.5603310929823565 0 0.96273309846977584 0.49578567593369632 0 0.85546924028692217 0.37101707219283903 0 0.76226418718911915 0.50067028865736174 0 0.96273309846977584 0.49578567593369632 0 0.85546924028692217 0.37101707219283903 0 1.0152629930648738 0.35298968165547895 0 0.85546924028692217 0.37101707219283903 0 1.0152629930648738 0.35298968165547895 0 0.9385945711648408 0.23355912269424678 0 0.85546924028692217 0.37101707219283903 0 0.75134070146287613 0.25092493002998789 0 0.9385945711648408 0.23355912269424678 0 1.0152629930648738 0.35298968165547895 0 1.1602523324339564 0.41756031708166835 0 1.1424084041228695 0.2751009724249287 0 1.0152629930648738 0.35298968165547895 0 0.9385945711648408 0.23355912269424678 0 1.1424084041228695 0.2751009724249287 0 0.43881859540752366 0.507391641361437 0 0.59191958891999141 0.50456457415464229 0 0.51471657914604863 0.37841363313344534 0 0.59191958891999141 0.50456457415464229 0 0.68000659632413329 0.37452476420810599 0 0.51471657914604863 0.37841363313344534 0 0.85546924028692217 0.37101707219283903 0 0.76226418718911915 0.50067028865736174 0 0.68000659632413329 0.37452476420810599 0 0.59191958891999141 0.50456457415464229 0 0.76226418718911915 0.50067028865736174 0 0.68000659632413329 0.37452476420810599 0 0.68000659632413329 0.37452476420810599 0 0.58549886820437647 0.25507031041521028 0 0.75134070146287613 0.25092493002998789 0 0.85546924028692217 0.37101707219283903 0 0.68000659632413329 0.37452476420810599 0 0.75134070146287613 0.25092493002998789 0 0.68000659632413329 0.37452476420810599 0 0.51471657914604863 0.37841363313344534 0 0.58549886820437647 0.25507031041521028 0 0.43617430309134975 0.25381266384322526 0 0.51471657914604863 0.37841363313344534 0 0.58549886820437647 0.25507031041521028 0 0.58549886820437647 0.25507031041521028 0 0.65815500393274473 0.13131788571771127 0 0.50570736988135989 0.12884042892954239 0 0.43617430309134975 0.25381266384322526 0 0.58549886820437647 0.25507031041521028 0 0.50570736988135989 0.12884042892954239 0 0.58549886820437647 0.25507031041521028 0 0.75134070146287613 0.25092493002998789 0 0.65815500393274473 0.13131788571771127 0 0.75134070146287613 0.25092493002998789 0 0.65815500393274473 0.13131788571771127 0 0.80999553209641295 0.13160284246014942 0 0.65815500393274473 0.13131788571771127 0 0.71431113856580897 0.00014913851985568174 0 0.80999553209641295 0.13160284246014942 0 0.65815500393274473 0.13131788571771127 0 0.71431113856580897 0.00014913851985568174 0 0.57143666585951158 0.00014750316007587991 0 0.65815500393274473 0.13131788571771127 0 0.50570736988135989 0.12884042892954239 0 0.57143666585951158 0.00014750316007587991 0 0.42857569949330737 0.00014703093122153777 0 0.50570736988135989 0.12884042892954239 0 0.57143666585951158 0.00014750316007587991 0 0.9385945711648408 0.23355912269424678 0 0.93370614113487393 0.10957575199099884 0 1.0972043360973749 0.13388934246885403 0 0.9385945711648408 0.23355912269424678 0 1.0972043360973749 0.13388934246885403 0 1.1424084041228695 0.2751009724249287 0 0.75134070146287613 0.25092493002998789 0 0.9385945711648408 0.23355912269424678 0 0.80999553209641295 0.13160284246014942 0 0.9385945711648408 0.23355912269424678 0 0.80999553209641295 0.13160284246014942 0 0.93370614113487393 0.10957575199099884 0 0.80999553209641295 0.13160284246014942 0 0.85715781086335641 0.0001570697870935519 0 0.93370614113487393 0.10957575199099884 0 0.71431113856580897 0.00014913851985568174 0 0.80999553209641295 0.13160284246014942 0 0.85715781086335641 0.0001570697870935519 0 0.93370614113487393 0.10957575199099884 0 1.0001727573936967 0.00013106339001756081 0 1.0972043360973749 0.13388934246885403 0 0.85715781086335641 0.0001570697870935519 0 0.93370614113487393 0.10957575199099884 0 1.0001727573936967 0.00013106339001756081 0 1.0001727573936967 0.00013106339001756081 0 1.1442217625592388 0.090949507113341571 0 1.1428770578720087 0.00012579063933528139 0 1.0001727573936967 0.00013106339001756081 0 1.1442217625592388 0.090949507113341571 0 1.0972043360973749 0.13388934246885403 0 1.0972043360973749 0.13388934246885403 0 1.1848880448732846 0.20117356125305527 0 1.1424084041228695 0.2751009724249287 0 1.1442217625592388 0.090949507113341571 0 1.0972043360973749 0.13388934246885403 0 1.1848880448732846 0.20117356125305527 0 1.1442217625592388 0.090949507113341571 0 1.1848880448732846 0.20117356125305527 0 1.2556611372843598 0.11320378215448093 0 1.1848880448732846 0.20117356125305527 0 1.2556611372843598 0.11320378215448093 0 1.2855571256984959 0.26579825018580161 0 1.1442217625592388 0.090949507113341571 0 1.2556611372843598 0.11320378215448093 0 1.1428770578720087 0.00012579063933528139 0 1.2556611372843598 0.11320378215448093 0 1.1428770578720087 0.00012579063933528139 0 1.2857409956469346 0.00013467938286465306 0 1.3671149278970123 0.079699030113395006 0 1.2857409956469346 0.00013467938286465306 0 1.4285825956997915 0.00013413491148316539 0 1.2556611372843598 0.11320378215448093 0 1.3671149278970123 0.079699030113395006 0 1.2857409956469346 0.00013467938286465306 0 1.4285825956997915 0.00013413491148316539 0 1.5063952554324715 0.11787469006358571 0 1.5714379495667852 0.00014028229795804198 0 1.3671149278970123 0.079699030113395006 0 1.4285825956997915 0.00013413491148316539 0 1.5063952554324715 0.11787469006358571 0 1.5063952554324715 0.11787469006358571 0 1.3836439604614963 0.19358787015154758 0 1.5104772456310325 0.26404153601585489 0 1.3671149278970123 0.079699030113395006 0 1.5063952554324715 0.11787469006358571 0 1.3836439604614963 0.19358787015154758 0 1.2556611372843598 0.11320378215448093 0 1.3836439604614963 0.19358787015154758 0 1.2855571256984959 0.26579825018580161 0 1.2556611372843598 0.11320378215448093 0 1.3671149278970123 0.079699030113395006 0 1.3836439604614963 0.19358787015154758 0 1.3957707430109179 0.33664208075592739 0 1.2979384956736566 0.410144756072857 0 1.2855571256984959 0.26579825018580161 0 1.3836439604614963 0.19358787015154758 0 1.3957707430109179 0.33664208075592739 0 1.2855571256984959 0.26579825018580161 0 1.3957707430109179 0.33664208075592739 0 1.5104772456310325 0.26404153601585489 0 1.5137303109520688 0.40818550721917385 0 1.3836439604614963 0.19358787015154758 0 1.3957707430109179 0.33664208075592739 0 1.5104772456310325 0.26404153601585489 0 1.3957707430109179 0.33664208075592739 0 1.5137303109520688 0.40818550721917385 0 1.401746821114974 0.47703227657352332 0 1.5137303109520688 0.40818550721917385 0 1.401746821114974 0.47703227657352332 0 1.5160889568356135 0.54511741046574591 0 1.401746821114974 0.47703227657352332 0 1.2979384956736566 0.410144756072857 0 1.2998610092291012 0.5504226090681017 0 1.3957707430109179 0.33664208075592739 0 1.401746821114974 0.47703227657352332 0 1.2979384956736566 0.410144756072857 0 1.2979384956736566 0.410144756072857 0 1.2107443961736195 0.34210222251557487 0 1.2181734118501477 0.48589397907934506 0 1.1602523324339564 0.41756031708166835 0 1.2107443961736195 0.34210222251557487 0 1.2181734118501477 0.48589397907934506 0 1.1848880448732846 0.20117356125305527 0 1.2107443961736195 0.34210222251557487 0 1.1424084041228695 0.2751009724249287 0 1.1602523324339564 0.41756031708166835 0 1.2107443961736195 0.34210222251557487 0 1.1424084041228695 0.2751009724249287 0 1.2979384956736566 0.410144756072857 0 1.2107443961736195 0.34210222251557487 0 1.2855571256984959 0.26579825018580161 0 1.1848880448732846 0.20117356125305527 0 1.2107443961736195 0.34210222251557487 0 1.2855571256984959 0.26579825018580161 0 1.8865248107050785 0.21268945506080536 0 1.9998402773918118 0.14283417066610529 0 1.9998653167091121 0.28571401551037562 0 1.8865248107050785 0.21268945506080536 0 1.9998402773918118 0.14283417066610529 0 1.8977262818269429 0.1022555224115769 0 1.9998402773918118 0.14283417066610529 0 1.9999285200753736 7.1446027524433572e-05 0 1.8977262818269429 0.1022555224115769 0 1.9999285200753736 7.1446027524433572e-05 0 1.8977262818269429 0.1022555224115769 0 1.8571657422411743 0.00015994275395537377 0 1.8571657422411743 0.00015994275395537377 0 1.7749928833456508 0.12459530403592982 0 1.7142861818369126 0.00013402631551966878 0 1.8977262818269429 0.1022555224115769 0 1.8571657422411743 0.00015994275395537377 0 1.7749928833456508 0.12459530403592982 0 1.8865248107050785 0.21268945506080536 0 1.7749928833456508 0.12459530403592982 0 1.7625907735756916 0.27362721334761481 0 1.8865248107050785 0.21268945506080536 0 1.8977262818269429 0.1022555224115769 0 1.7749928833456508 0.12459530403592982 0 1.7749928833456508 0.12459530403592982 0 1.636972562368654 0.20286779842913111 0 1.7625907735756916 0.27362721334761481 0 1.7749928833456508 0.12459530403592982 0 1.636972562368654 0.20286779842913111 0 1.6407805031120581 0.088836632189550596 0 1.7749928833456508 0.12459530403592982 0 1.7142861818369126 0.00013402631551966878 0 1.6407805031120581 0.088836632189550596 0 1.7142861818369126 0.00013402631551966878 0 1.6407805031120581 0.088836632189550596 0 1.5714379495667852 0.00014028229795804198 0 1.5063952554324715 0.11787469006358571 0 1.6407805031120581 0.088836632189550596 0 1.5714379495667852 0.00014028229795804198 0 1.5063952554324715 0.11787469006358571 0 1.636972562368654 0.20286779842913111 0 1.6407805031120581 0.088836632189550596 0 1.5063952554324715 0.11787469006358571 0 1.5104772456310325 0.26404153601585489 0 1.636972562368654 0.20286779842913111 0 1.5104772456310325 0.26404153601585489 0 1.5137303109520688 0.40818550721917385 0 1.6334904826473684 0.34339892335103428 0 1.5104772456310325 0.26404153601585489 0 1.636972562368654 0.20286779842913111 0 1.6334904826473684 0.34339892335103428 0 1.5137303109520688 0.40818550721917385 0 1.6362201166990531 0.48070032446136418 0 1.5160889568356135 0.54511741046574591 0 1.5137303109520688 0.40818550721917385 0 1.6334904826473684 0.34339892335103428 0 1.6362201166990531 0.48070032446136418 0 1.6334904826473684 0.34339892335103428 0 1.6362201166990531 0.48070032446136418 0 1.7635414025623692 0.4170644770027051 0 1.6362201166990531 0.48070032446136418 0 1.7635414025623692 0.4170644770027051 0 1.7593084931681742 0.55259154116386922 0 1.636972562368654 0.20286779842913111 0 1.6334904826473684 0.34339892335103428 0 1.7625907735756916 0.27362721334761481 0 1.6334904826473684 0.34339892335103428 0 1.7625907735756916 0.27362721334761481 0 1.7635414025623692 0.4170644770027051 0 1.7625907735756916 0.27362721334761481 0 1.7635414025623692 0.4170644770027051 0 1.881505721750834 0.34885418006748675 0 1.8865248107050785 0.21268945506080536 0 1.7625907735756916 0.27362721334761481 0 1.881505721750834 0.34885418006748675 0 1.7635414025623692 0.4170644770027051 0 1.8824117269146143 0.49120182463130285 0 1.7593084931681742 0.55259154116386922 0 1.7635414025623692 0.4170644770027051 0 1.8824117269146143 0.49120182463130285 0 1.881505721750834 0.34885418006748675 0 1.8824117269146143 0.49120182463130285 0 1.9998604922761358 0.42856165049968442 0 1.881505721750834 0.34885418006748675 0 1.8824117269146143 0.49120182463130285 0 1.9998604922761358 0.42856165049968442 0 1.9998643659162314 0.57141837790114636 0 1.9998604922761358 0.42856165049968442 0 1.9998653167091121 0.28571401551037562 0 1.881505721750834 0.34885418006748675 0 1.8865248107050785 0.21268945506080536 0 1.9998653167091121 0.28571401551037562 0 1.881505721750834 0.34885418006748675 0 1.9998673184460161 0.71425742559685979 0 1.8814171306668053 0.62798886631681772 0 1.8891025967479138 0.75427483309255494 0 1.9998673184460161 0.71425742559685979 0 1.9998643659162314 0.57141837790114636 0 1.8814171306668053 0.62798886631681772 0 1.8824117269146143 0.49120182463130285 0 1.9998643659162314 0.57141837790114636 0 1.8814171306668053 0.62798886631681772 0 1.8824117269146143 0.49120182463130285 0 1.8814171306668053 0.62798886631681772 0 1.7593084931681742 0.55259154116386922 0 1.8814171306668053 0.62798886631681772 0 1.7611113473470381 0.67933139455900671 0 1.8891025967479138 0.75427483309255494 0 1.8814171306668053 0.62798886631681772 0 1.7611113473470381 0.67933139455900671 0 1.7593084931681742 0.55259154116386922 0 1.7611113473470381 0.67933139455900671 0 1.7593084931681742 0.55259154116386922 0 1.6365777709754368 0.61097296944568036 0 1.7611113473470381 0.67933139455900671 0 1.6365777709754368 0.61097296944568036 0 1.635761004546014 0.72469678483900035 0 1.6362201166990531 0.48070032446136418 0 1.7593084931681742 0.55259154116386922 0 1.6365777709754368 0.61097296944568036 0 1.6362201166990531 0.48070032446136418 0 1.6365777709754368 0.61097296944568036 0 1.5160889568356135 0.54511741046574591 0 1.6365777709754368 0.61097296944568036 0 1.635761004546014 0.72469678483900035 0 1.514614121501044 0.66860164772735975 0 1.6365777709754368 0.61097296944568036 0 1.5160889568356135 0.54511741046574591 0 1.514614121501044 0.66860164772735975 0 1.635761004546014 0.72469678483900035 0 1.514614121501044 0.66860164772735975 0 1.5127743525153516 0.77936606719789403 0 1.635761004546014 0.72469678483900035 0 1.64692563301071 0.80204349804236208 0 1.5127743525153516 0.77936606719789403 0 1.64692563301071 0.80204349804236208 0 1.5127743525153516 0.77936606719789403 0 1.58192245475775 0.83980568946544154 0 1.64692563301071 0.80204349804236208 0 1.7790362619913698 0.80082576498592883 0 1.7250984558481877 0.85813645463285393 0 1.64692563301071 0.80204349804236208 0 1.7250984558481877 0.85813645463285393 0 1.58192245475775 0.83980568946544154 0 1.7611113473470381 0.67933139455900671 0 1.635761004546014 0.72469678483900035 0 1.7790362619913698 0.80082576498592883 0 1.635761004546014 0.72469678483900035 0 1.64692563301071 0.80204349804236208 0 1.7790362619913698 0.80082576498592883 0 1.7611113473470381 0.67933139455900671 0 1.7790362619913698 0.80082576498592883 0 1.8891025967479138 0.75427483309255494 0 1.7790362619913698 0.80082576498592883 0 1.8891025967479138 0.75427483309255494 0 1.9093082771707541 0.85568185373088845 0 1.7790362619913698 0.80082576498592883 0 1.8661903629854009 0.90273411067670928 0 1.7250984558481877 0.85813645463285393 0 1.7790362619913698 0.80082576498592883 0 1.9093082771707541 0.85568185373088845 0 1.8661903629854009 0.90273411067670928 0 1.9093082771707541 0.85568185373088845 0 1.999873172716176 0.857123855768954 0 1.9998694974718851 0.99982705041824393 0 1.9093082771707541 0.85568185373088845 0 1.9998694974718851 0.99982705041824393 0 1.8661903629854009 0.90273411067670928 0 1.8891025967479138 0.75427483309255494 0 1.9093082771707541 0.85568185373088845 0 1.999873172716176 0.857123855768954 0 1.9998673184460161 0.71425742559685979 0 1.8891025967479138 0.75427483309255494 0 1.999873172716176 0.857123855768954 0 1.2886090719412298 0.68118099963217527 0 1.2076752175502781 0.62388212473782567 0 1.1809567655842079 0.75439806847368229 0 1.2886090719412298 0.68118099963217527 0 1.2076752175502781 0.62388212473782567 0 1.2998610092291012 0.5504226090681017 0 1.1337382141273513 0.70131206627134435 0 1.2076752175502781 0.62388212473782567 0 1.1567593231421327 0.5603310929823565 0 1.1337382141273513 0.70131206627134435 0 1.2076752175502781 0.62388212473782567 0 1.1809567655842079 0.75439806847368229 0 1.2076752175502781 0.62388212473782567 0 1.2181734118501477 0.48589397907934506 0 1.1567593231421327 0.5603310929823565 0 1.1602523324339564 0.41756031708166835 0 1.2181734118501477 0.48589397907934506 0 1.1567593231421327 0.5603310929823565 0 1.2076752175502781 0.62388212473782567 0 1.2181734118501477 0.48589397907934506 0 1.2998610092291012 0.5504226090681017 0 1.2979384956736566 0.410144756072857 0 1.2181734118501477 0.48589397907934506 0 1.2998610092291012 0.5504226090681017 0 1.401746821114974 0.47703227657352332 0 1.2998610092291012 0.5504226090681017 0 1.4002500208834163 0.61130897633097447 0 1.401746821114974 0.47703227657352332 0 1.5160889568356135 0.54511741046574591 0 1.4002500208834163 0.61130897633097447 0 1.5160889568356135 0.54511741046574591 0 1.514614121501044 0.66860164772735975 0 1.4002500208834163 0.61130897633097447 0 1.514614121501044 0.66860164772735975 0 1.4002500208834163 0.61130897633097447 0 1.3916001568194412 0.72703441829362359 0 1.2886090719412298 0.68118099963217527 0 1.4002500208834163 0.61130897633097447 0 1.3916001568194412 0.72703441829362359 0 1.2886090719412298 0.68118099963217527 0 1.2998610092291012 0.5504226090681017 0 1.4002500208834163 0.61130897633097447 0 1.3916001568194412 0.72703441829362359 0 1.3757800793992625 0.80730474260909812 0 1.2580487991386953 0.8085101432288464 0 1.2886090719412298 0.68118099963217527 0 1.3916001568194412 0.72703441829362359 0 1.2580487991386953 0.8085101432288464 0 1.3916001568194412 0.72703441829362359 0 1.5127743525153516 0.77936606719789403 0 1.3757800793992625 0.80730474260909812 0 1.514614121501044 0.66860164772735975 0 1.3916001568194412 0.72703441829362359 0 1.5127743525153516 0.77936606719789403 0 1.5127743525153516 0.77936606719789403 0 1.3757800793992625 0.80730474260909812 0 1.439886322262609 0.84315488509796921 0 1.5127743525153516 0.77936606719789403 0 1.439886322262609 0.84315488509796921 0 1.58192245475775 0.83980568946544154 0 1.3757800793992625 0.80730474260909812 0 1.2980411086212615 0.86635973959560375 0 1.439886322262609 0.84315488509796921 0 1.3757800793992625 0.80730474260909812 0 1.2580487991386953 0.8085101432288464 0 1.2980411086212615 0.86635973959560375 0 1.2580487991386953 0.8085101432288464 0 1.156157719765162 0.91128623268398223 0 1.2980411086212615 0.86635973959560375 0 1.2580487991386953 0.8085101432288464 0 1.1395211818492657 0.86010706220935562 0 1.156157719765162 0.91128623268398223 0 1.2580487991386953 0.8085101432288464 0 1.1809567655842079 0.75439806847368229 0 1.1395211818492657 0.86010706220935562 0 1.2886090719412298 0.68118099963217527 0 1.2580487991386953 0.8085101432288464 0 1.1809567655842079 0.75439806847368229 0 1.1337382141273513 0.70131206627134435 0 1.1809567655842079 0.75439806847368229 0 1.088693605208056 0.84364152205760679 0 1.1809567655842079 0.75439806847368229 0 1.088693605208056 0.84364152205760679 0 1.1395211818492657 0.86010706220935562 0 1.088693605208056 0.84364152205760679 0 1.1395211818492657 0.86010706220935562 0 0.99997705395037462 0.99992828244474885 0 1.1395211818492657 0.86010706220935562 0 0.99997705395037462 0.99992828244474885 0 1.156157719765162 0.91128623268398223 0 0.99997705395037462 0.99992828244474885 0 1.0815783799202825 1.0809179430862412 0 1.156157719765162 0.91128623268398223 0 0.99997705395037462 0.99992828244474885 0 1.0815783799202825 1.0809179430862412 0 0.9113356663285016 1.1561074265149287 0 0.9113356663285016 1.1561074265149287 0 1.0693752190481607 1.2113495116345239 0 0.866389149328191 1.2975997482747668 0 1.0815783799202825 1.0809179430862412 0 0.9113356663285016 1.1561074265149287 0 1.0693752190481607 1.2113495116345239 0 1.0815783799202825 1.0809179430862412 0 1.0693752190481607 1.2113495116345239 0 1.2234326195666365 1.0820721346471649 0 1.0693752190481607 1.2113495116345239 0 1.2234326195666365 1.0820721346471649 0 1.2163156562394697 1.2684080827551321 0 1.0815783799202825 1.0809179430862412 0 1.2234326195666365 1.0820721346471649 0 1.156157719765162 0.91128623268398223 0 1.2234326195666365 1.0820721346471649 0 1.156157719765162 0.91128623268398223 0 1.2980411086212615 0.86635973959560375 0 1.2980411086212615 0.86635973959560375 0 1.3611768762562781 1.003698328730938 0 1.439886322262609 0.84315488509796921 0 1.2234326195666365 1.0820721346471649 0 1.2980411086212615 0.86635973959560375 0 1.3611768762562781 1.003698328730938 0 1.439886322262609 0.84315488509796921 0 1.4994564596714672 1.0417892928774071 0 1.58192245475775 0.83980568946544154 0 1.3611768762562781 1.003698328730938 0 1.439886322262609 0.84315488509796921 0 1.4994564596714672 1.0417892928774071 0 1.4994564596714672 1.0417892928774071 0 1.3613843484731636 1.1685891807462281 0 1.489311870072825 1.2450409029386946 0 1.3611768762562781 1.003698328730938 0 1.4994564596714672 1.0417892928774071 0 1.3613843484731636 1.1685891807462281 0 1.2234326195666365 1.0820721346471649 0 1.3611768762562781 1.003698328730938 0 1.3613843484731636 1.1685891807462281 0 1.2234326195666365 1.0820721346471649 0 1.3613843484731636 1.1685891807462281 0 1.2163156562394697 1.2684080827551321 0 1.3523572256736753 1.3372855997543478 0 1.202679079993729 1.4216911085877917 0 1.2163156562394697 1.2684080827551321 0 1.3613843484731636 1.1685891807462281 0 1.3523572256736753 1.3372855997543478 0 1.2163156562394697 1.2684080827551321 0 1.3613843484731636 1.1685891807462281 0 1.3523572256736753 1.3372855997543478 0 1.489311870072825 1.2450409029386946 0 1.3523572256736753 1.3372855997543478 0 1.489311870072825 1.2450409029386946 0 1.4824008470729497 1.4117733027336681 0 1.3523572256736753 1.3372855997543478 0 1.4824008470729497 1.4117733027336681 0 1.3444736776471304 1.4926575882404038 0 1.3523572256736753 1.3372855997543478 0 1.202679079993729 1.4216911085877917 0 1.3444736776471304 1.4926575882404038 0 1.202679079993729 1.4216911085877917 0 1.0319910521108919 1.5013873543127636 0 1.1934031907085425 1.5683549346475745 0 1.202679079993729 1.4216911085877917 0 1.0319910521108919 1.5013873543127636 0 1.0447013952999475 1.3579770285621604 0 1.0319910521108919 1.5013873543127636 0 0.84317303887462358 1.4400331939286244 0 1.0447013952999475 1.3579770285621604 0 1.0319910521108919 1.5013873543127636 0 0.84317303887462358 1.4400331939286244 0 0.8397401556121673 1.5816080181454766 0 1.0693752190481607 1.2113495116345239 0 1.0447013952999475 1.3579770285621604 0 0.866389149328191 1.2975997482747668 0 0.84317303887462358 1.4400331939286244 0 1.0447013952999475 1.3579770285621604 0 0.866389149328191 1.2975997482747668 0 1.202679079993729 1.4216911085877917 0 1.0447013952999475 1.3579770285621604 0 1.2163156562394697 1.2684080827551321 0 1.0693752190481607 1.2113495116345239 0 1.0447013952999475 1.3579770285621604 0 1.2163156562394697 1.2684080827551321 0 1.8732678382228789 1.1930233896392519 0 1.9998427154387883 1.1428422295375313 0 1.9998509446039709 1.285688823743858 0 1.8732678382228789 1.1930233896392519 0 1.9998427154387883 1.1428422295375313 0 1.8912973861277449 1.0655439160596396 0 1.9998694974718851 0.99982705041824393 0 1.8912973861277449 1.0655439160596396 0 1.8661903629854009 0.90273411067670928 0 1.9998427154387883 1.1428422295375313 0 1.9998694974718851 0.99982705041824393 0 1.8912973861277449 1.0655439160596396 0 1.8912973861277449 1.0655439160596396 0 1.8661903629854009 0.90273411067670928 0 1.7628618958284712 1.0646603221936108 0 1.8661903629854009 0.90273411067670928 0 1.7628618958284712 1.0646603221936108 0 1.7250984558481877 0.85813645463285393 0 1.8732678382228789 1.1930233896392519 0 1.7628618958284712 1.0646603221936108 0 1.743412528970314 1.2506293747182582 0 1.8732678382228789 1.1930233896392519 0 1.8912973861277449 1.0655439160596396 0 1.7628618958284712 1.0646603221936108 0 1.7628618958284712 1.0646603221936108 0 1.6217241472832402 1.1570241700945305 0 1.743412528970314 1.2506293747182582 0 1.7628618958284712 1.0646603221936108 0 1.6463111012378986 0.99718093262572227 0 1.6217241472832402 1.1570241700945305 0 1.7628618958284712 1.0646603221936108 0 1.6463111012378986 0.99718093262572227 0 1.7250984558481877 0.85813645463285393 0 1.6463111012378986 0.99718093262572227 0 1.7250984558481877 0.85813645463285393 0 1.58192245475775 0.83980568946544154 0 1.4994564596714672 1.0417892928774071 0 1.6463111012378986 0.99718093262572227 0 1.58192245475775 0.83980568946544154 0 1.4994564596714672 1.0417892928774071 0 1.6463111012378986 0.99718093262572227 0 1.6217241472832402 1.1570241700945305 0 1.4994564596714672 1.0417892928774071 0 1.489311870072825 1.2450409029386946 0 1.6217241472832402 1.1570241700945305 0 1.489311870072825 1.2450409029386946 0 1.4824008470729497 1.4117733027336681 0 1.6121892889464291 1.3304743890213229 0 1.489311870072825 1.2450409029386946 0 1.6217241472832402 1.1570241700945305 0 1.6121892889464291 1.3304743890213229 0 1.4824008470729497 1.4117733027336681 0 1.6121892889464291 1.3304743890213229 0 1.6108902793856341 1.4876254690745569 0 1.6121892889464291 1.3304743890213229 0 1.7371329298804365 1.4113394341774823 0 1.6108902793856341 1.4876254690745569 0 1.7371329298804365 1.4113394341774823 0 1.7376844174412485 1.5634301209874686 0 1.6108902793856341 1.4876254690745569 0 1.6217241472832402 1.1570241700945305 0 1.6121892889464291 1.3304743890213229 0 1.743412528970314 1.2506293747182582 0 1.6121892889464291 1.3304743890213229 0 1.7371329298804365 1.4113394341774823 0 1.743412528970314 1.2506293747182582 0 1.7371329298804365 1.4113394341774823 0 1.743412528970314 1.2506293747182582 0 1.8673321194053232 1.3414008319788153 0 1.8732678382228789 1.1930233896392519 0 1.743412528970314 1.2506293747182582 0 1.8673321194053232 1.3414008319788153 0 1.7371329298804365 1.4113394341774823 0 1.8677016383569951 1.4926485255263349 0 1.7376844174412485 1.5634301209874686 0 1.7371329298804365 1.4113394341774823 0 1.8673321194053232 1.3414008319788153 0 1.8677016383569951 1.4926485255263349 0 1.8673321194053232 1.3414008319788153 0 1.8677016383569951 1.4926485255263349 0 1.9998524898833008 1.4285634313456896 0 1.8677016383569951 1.4926485255263349 0 1.9998524898833008 1.4285634313456896 0 1.9998529191390342 1.5714242444600022 0 1.8673321194053232 1.3414008319788153 0 1.9998524898833008 1.4285634313456896 0 1.9998509446039709 1.285688823743858 0 1.8732678382228789 1.1930233896392519 0 1.8673321194053232 1.3414008319788153 0 1.9998509446039709 1.285688823743858 0 1.9998603716043255 1.7142774011157547 0 1.8655976884503422 1.6386394069849768 0 1.8719197647359218 1.7779014947251421 0 1.9998603716043255 1.7142774011157547 0 1.9998529191390342 1.5714242444600022 0 1.8655976884503422 1.6386394069849768 0 1.8677016383569951 1.4926485255263349 0 1.9998529191390342 1.5714242444600022 0 1.8655976884503422 1.6386394069849768 0 1.8677016383569951 1.4926485255263349 0 1.8655976884503422 1.6386394069849768 0 1.7376844174412485 1.5634301209874686 0 1.8655976884503422 1.6386394069849768 0 1.7390640472838399 1.7084085812817449 0 1.8719197647359218 1.7779014947251421 0 1.8655976884503422 1.6386394069849768 0 1.7390640472838399 1.7084085812817449 0 1.7376844174412485 1.5634301209874686 0 1.7390640472838399 1.7084085812817449 0 1.7376844174412485 1.5634301209874686 0 1.6104803895049438 1.6355715156458126 0 1.7390640472838399 1.7084085812817449 0 1.6104803895049438 1.6355715156458126 0 1.6128839841552416 1.780053141023878 0 1.7376844174412485 1.5634301209874686 0 1.6108902793856341 1.4876254690745569 0 1.6104803895049438 1.6355715156458126 0 1.4824008470729497 1.4117733027336681 0 1.6108902793856341 1.4876254690745569 0 1.4796197406278948 1.5644221631735096 0 1.6108902793856341 1.4876254690745569 0 1.6104803895049438 1.6355715156458126 0 1.4796197406278948 1.5644221631735096 0 1.6104803895049438 1.6355715156458126 0 1.6128839841552416 1.780053141023878 0 1.4828094857478062 1.7142004649864118 0 1.6104803895049438 1.6355715156458126 0 1.4796197406278948 1.5644221631735096 0 1.4828094857478062 1.7142004649864118 0 1.6128839841552416 1.780053141023878 0 1.4828094857478062 1.7142004649864118 0 1.4910239643204144 1.8676413463750123 0 1.6128839841552416 1.780053141023878 0 1.6300603061267644 1.9023139191144249 0 1.4910239643204144 1.8676413463750123 0 1.5714245353604617 1.9998533892593966 0 1.6300603061267644 1.9023139191144249 0 1.4910239643204144 1.8676413463750123 0 1.5714245353604617 1.9998533892593966 0 1.6300603061267644 1.9023139191144249 0 1.7142772575447771 1.9998598843686954 0 1.6300603061267644 1.9023139191144249 0 1.7142772575447771 1.9998598843686954 0 1.7601017575389635 1.865301446121354 0 1.6128839841552416 1.780053141023878 0 1.6300603061267644 1.9023139191144249 0 1.7601017575389635 1.865301446121354 0 1.7390640472838399 1.7084085812817449 0 1.6128839841552416 1.780053141023878 0 1.7601017575389635 1.865301446121354 0 1.7390640472838399 1.7084085812817449 0 1.7601017575389635 1.865301446121354 0 1.8719197647359218 1.7779014947251421 0 1.7601017575389635 1.865301446121354 0 1.8719197647359218 1.7779014947251421 0 1.8942862672832435 1.8942638226546484 0 1.7142772575447771 1.9998598843686954 0 1.7601017575389635 1.865301446121354 0 1.8571595267020458 1.9998371372787656 0 1.7601017575389635 1.865301446121354 0 1.8571595267020458 1.9998371372787656 0 1.8942862672832435 1.8942638226546484 0 1.9999285880473558 1.9999285720828204 0 1.8942862672832435 1.8942638226546484 0 1.9998370232194989 1.8571594735814159 0 1.8571595267020458 1.9998371372787656 0 1.9999285880473558 1.9999285720828204 0 1.8942862672832435 1.8942638226546484 0 1.9998603716043255 1.7142774011157547 0 1.8719197647359218 1.7779014947251421 0 1.9998370232194989 1.8571594735814159 0 1.8719197647359218 1.7779014947251421 0 1.8942862672832435 1.8942638226546484 0 1.9998370232194989 1.8571594735814159 0 1.1974649274691094 1.7110974386352467 0 1.0323433674394009 1.6443561592256037 0 1.0497915212545392 1.7810849880119581 0 1.1974649274691094 1.7110974386352467 0 1.0323433674394009 1.6443561592256037 0 1.1934031907085425 1.5683549346475745 0 0.85765235567066722 1.7251556425018206 0 1.0323433674394009 1.6443561592256037 0 1.0497915212545392 1.7810849880119581 0 0.85765235567066722 1.7251556425018206 0 1.0323433674394009 1.6443561592256037 0 0.8397401556121673 1.5816080181454766 0 1.0319910521108919 1.5013873543127636 0 1.0323433674394009 1.6443561592256037 0 0.8397401556121673 1.5816080181454766 0 1.0319910521108919 1.5013873543127636 0 1.0323433674394009 1.6443561592256037 0 1.1934031907085425 1.5683549346475745 0 1.202679079993729 1.4216911085877917 0 1.1934031907085425 1.5683549346475745 0 1.3444736776471304 1.4926575882404038 0 1.1934031907085425 1.5683549346475745 0 1.3444736776471304 1.4926575882404038 0 1.3414021307217288 1.6383549831201027 0 1.4824008470729497 1.4117733027336681 0 1.3444736776471304 1.4926575882404038 0 1.4796197406278948 1.5644221631735096 0 1.3444736776471304 1.4926575882404038 0 1.4796197406278948 1.5644221631735096 0 1.3414021307217288 1.6383549831201027 0 1.4828094857478062 1.7142004649864118 0 1.3414021307217288 1.6383549831201027 0 1.345104518658732 1.7832488284171764 0 1.4796197406278948 1.5644221631735096 0 1.4828094857478062 1.7142004649864118 0 1.3414021307217288 1.6383549831201027 0 1.1974649274691094 1.7110974386352467 0 1.1934031907085425 1.5683549346475745 0 1.3414021307217288 1.6383549831201027 0 1.1974649274691094 1.7110974386352467 0 1.3414021307217288 1.6383549831201027 0 1.345104518658732 1.7832488284171764 0 1.1974649274691094 1.7110974386352467 0 1.345104518658732 1.7832488284171764 0 1.2074354032084067 1.8637224654746236 0 1.345104518658732 1.7832488284171764 0 1.3497587871685632 1.9049862997167544 0 1.2074354032084067 1.8637224654746236 0 1.345104518658732 1.7832488284171764 0 1.4910239643204144 1.8676413463750123 0 1.3497587871685632 1.9049862997167544 0 1.4828094857478062 1.7142004649864118 0 1.345104518658732 1.7832488284171764 0 1.4910239643204144 1.8676413463750123 0 1.4910239643204144 1.8676413463750123 0 1.4285627715657321 1.9998516553177215 0 1.3497587871685632 1.9049862997167544 0 1.5714245353604617 1.9998533892593966 0 1.4910239643204144 1.8676413463750123 0 1.4285627715657321 1.9998516553177215 0 1.3497587871685632 1.9049862997167544 0 1.285690344894977 1.9998525125939712 0 1.2074354032084067 1.8637224654746236 0 1.4285627715657321 1.9998516553177215 0 1.3497587871685632 1.9049862997167544 0 1.285690344894977 1.9998525125939712 0 1.1428411348860945 1.9998417421375494 0 1.2074354032084067 1.8637224654746236 0 1.0663419059161696 1.8907635873371511 0 1.285690344894977 1.9998525125939712 0 1.1428411348860945 1.9998417421375494 0 1.2074354032084067 1.8637224654746236 0 1.2074354032084067 1.8637224654746236 0 1.0497915212545392 1.7810849880119581 0 1.0663419059161696 1.8907635873371511 0 1.1974649274691094 1.7110974386352467 0 1.2074354032084067 1.8637224654746236 0 1.0497915212545392 1.7810849880119581 0 0.85765235567066722 1.7251556425018206 0 1.0497915212545392 1.7810849880119581 0 0.90275168922222981 1.8664347420930507 0 1.0497915212545392 1.7810849880119581 0 0.90275168922222981 1.8664347420930507 0 1.0663419059161696 1.8907635873371511 0 1.1428411348860945 1.9998417421375494 0 0.99982705880902223 1.9998698780311785 0 1.0663419059161696 1.8907635873371511 0 0.90275168922222981 1.8664347420930507 0 0.99982705880902223 1.9998698780311785 0 1.0663419059161696 1.8907635873371511 0 0.99982705880902223 1.9998698780311785 0 0.85564259632183115 1.9094676001206139 0 0.85712415640887352 1.9998728653239473 0 0.90275168922222981 1.8664347420930507 0 0.99982705880902223 1.9998698780311785 0 0.85564259632183115 1.9094676001206139 0 0.85712415640887352 1.9998728653239473 0 0.75947439701002484 1.8910376029829854 0 0.7142572933812863 1.9998674178643043 0 0.85564259632183115 1.9094676001206139 0 0.85712415640887352 1.9998728653239473 0 0.75947439701002484 1.8910376029829854 0 0.85564259632183115 1.9094676001206139 0 0.75947439701002484 1.8910376029829854 0 0.80514443668488345 1.7850269546007886 0 0.75947439701002484 1.8910376029829854 0 0.80514443668488345 1.7850269546007886 0 0.68709270311165072 1.7730365720366987 0 0.85765235567066722 1.7251556425018206 0 0.90275168922222981 1.8664347420930507 0 0.80514443668488345 1.7850269546007886 0 0.90275168922222981 1.8664347420930507 0 0.85564259632183115 1.9094676001206139 0 0.80514443668488345 1.7850269546007886 0 0.85765235567066722 1.7251556425018206 0 0.80514443668488345 1.7850269546007886 0 0.80634484410767548 1.65658498921048 0 0.85765235567066722 1.7251556425018206 0 0.8397401556121673 1.5816080181454766 0 0.80634484410767548 1.65658498921048 0 0.80514443668488345 1.7850269546007886 0 0.73336964687732131 1.6485576096460794 0 0.68709270311165072 1.7730365720366987 0 0.80514443668488345 1.7850269546007886 0 0.80634484410767548 1.65658498921048 0 0.73336964687732131 1.6485576096460794 0 0.73336964687732131 1.6485576096460794 0 0.7800265141396141 1.5169702433534951 0 0.67462282396178486 1.5246156086049896 0 0.80634484410767548 1.65658498921048 0 0.73336964687732131 1.6485576096460794 0 0.7800265141396141 1.5169702433534951 0 0.8397401556121673 1.5816080181454766 0 0.80634484410767548 1.65658498921048 0 0.7800265141396141 1.5169702433534951 0 0.84317303887462358 1.4400331939286244 0 0.8397401556121673 1.5816080181454766 0 0.7800265141396141 1.5169702433534951 0 0.54798579656852409 1.5276008913816053 0 0.48361121122140027 1.6461474200935382 0 0.4114869826661211 1.5252679413084982 0 0.54798579656852409 1.5276008913816053 0 0.62047728388258716 1.6502495880598596 0 0.48361121122140027 1.6461474200935382 0 0.73336964687732131 1.6485576096460794 0 0.67462282396178486 1.5246156086049896 0 0.62047728388258716 1.6502495880598596 0 0.54798579656852409 1.5276008913816053 0 0.67462282396178486 1.5246156086049896 0 0.62047728388258716 1.6502495880598596 0 0.62047728388258716 1.6502495880598596 0 0.55318889397871651 1.7669758657481665 0 0.68709270311165072 1.7730365720366987 0 0.73336964687732131 1.6485576096460794 0 0.62047728388258716 1.6502495880598596 0 0.68709270311165072 1.7730365720366987 0 0.62047728388258716 1.6502495880598596 0 0.48361121122140027 1.6461474200935382 0 0.55318889397871651 1.7669758657481665 0 0.48361121122140027 1.6461474200935382 0 0.55318889397871651 1.7669758657481665 0 0.417267704789613 1.7639709678893711 0 0.55318889397871651 1.7669758657481665 0 0.63251433541181923 1.8869653959790393 0 0.49205755769878234 1.8844981132226235 0 0.55318889397871651 1.7669758657481665 0 0.49205755769878234 1.8844981132226235 0 0.417267704789613 1.7639709678893711 0 0.75947439701002484 1.8910376029829854 0 0.68709270311165072 1.7730365720366987 0 0.63251433541181923 1.8869653959790393 0 0.55318889397871651 1.7669758657481665 0 0.68709270311165072 1.7730365720366987 0 0.63251433541181923 1.8869653959790393 0 0.75947439701002484 1.8910376029829854 0 0.63251433541181923 1.8869653959790393 0 0.7142572933812863 1.9998674178643043 0 0.63251433541181923 1.8869653959790393 0 0.7142572933812863 1.9998674178643043 0 0.57141819070143607 1.9998645246334643 0 0.63251433541181923 1.8869653959790393 0 0.49205755769878234 1.8844981132226235 0 0.57141819070143607 1.9998645246334643 0 0.49205755769878234 1.8844981132226235 0 0.57141819070143607 1.9998645246334643 0 0.42856175905755362 1.9998604184163871 0 0.49205755769878234 1.8844981132226235 0 0.42856175905755362 1.9998604184163871 0 0.35278242889938793 1.8826019281990591 0 0.28571399577101159 1.9998653697826876 0 0.35278242889938793 1.8826019281990591 0 0.21621554598275955 1.8832233779967285 0 0.42856175905755362 1.9998604184163871 0 0.28571399577101159 1.9998653697826876 0 0.35278242889938793 1.8826019281990591 0 0.35278242889938793 1.8826019281990591 0 0.27888352498259306 1.7613656314104964 0 0.21621554598275955 1.8832233779967285 0 0.35278242889938793 1.8826019281990591 0 0.27888352498259306 1.7613656314104964 0 0.417267704789613 1.7639709678893711 0 0.49205755769878234 1.8844981132226235 0 0.35278242889938793 1.8826019281990591 0 0.417267704789613 1.7639709678893711 0 7.143835279295265e-05 1.9999285307620325 0 0.10279679268290491 1.8971825028050811 0 0.14283419017381366 1.9998402354364067 0 7.143835279295265e-05 1.9999285307620325 0 0.10279679268290491 1.8971825028050811 0 0.0001599652541275155 1.8571657303105797 0 0.28571399577101159 1.9998653697826876 0 0.14283419017381366 1.9998402354364067 0 0.21621554598275955 1.8832233779967285 0 0.10279679268290491 1.8971825028050811 0 0.14283419017381366 1.9998402354364067 0 0.21621554598275955 1.8832233779967285 0 0.27888352498259306 1.7613656314104964 0 0.21621554598275955 1.8832233779967285 0 0.1276627349824094 1.7716683395984796 0 0.10279679268290491 1.8971825028050811 0 0.21621554598275955 1.8832233779967285 0 0.1276627349824094 1.7716683395984796 0 0.10279679268290491 1.8971825028050811 0 0.1276627349824094 1.7716683395984796 0 0.0001599652541275155 1.8571657303105797 0 0.1276627349824094 1.7716683395984796 0 0.0001599652541275155 1.8571657303105797 0 0.00013401361910212904 1.7142861803541776 0 0.00013401361910212904 1.7142861803541776 0 0.091014326194089418 1.6456212575104232 0 0.00014034285527672711 1.5714378742499817 0 0.1276627349824094 1.7716683395984796 0 0.00013401361910212904 1.7142861803541776 0 0.091014326194089418 1.6456212575104232 0 0.1276627349824094 1.7716683395984796 0 0.091014326194089418 1.6456212575104232 0 0.20732784371838683 1.6398719284191503 0 0.27888352498259306 1.7613656314104964 0 0.1276627349824094 1.7716683395984796 0 0.20732784371838683 1.6398719284191503 0 0.20732784371838683 1.6398719284191503 0 0.1208503059250759 1.5108948237075377 0 0.2699135430947599 1.5195548852750451 0 0.091014326194089418 1.6456212575104232 0 0.20732784371838683 1.6398719284191503 0 0.1208503059250759 1.5108948237075377 0 0.091014326194089418 1.6456212575104232 0 0.1208503059250759 1.5108948237075377 0 0.00014034285527672711 1.5714378742499817 0 0.1208503059250759 1.5108948237075377 0 0.00014034285527672711 1.5714378742499817 0 0.00013410191836552704 1.4285828001960941 0 0.48361121122140027 1.6461474200935382 0 0.417267704789613 1.7639709678893711 0 0.34469657642798773 1.6421942668953426 0 0.27888352498259306 1.7613656314104964 0 0.20732784371838683 1.6398719284191503 0 0.34469657642798773 1.6421942668953426 0 0.27888352498259306 1.7613656314104964 0 0.417267704789613 1.7639709678893711 0 0.34469657642798773 1.6421942668953426 0 0.20732784371838683 1.6398719284191503 0 0.34469657642798773 1.6421942668953426 0 0.2699135430947599 1.5195548852750451 0 0.34469657642798773 1.6421942668953426 0 0.2699135430947599 1.5195548852750451 0 0.4114869826661211 1.5252679413084982 0 0.48361121122140027 1.6461474200935382 0 0.34469657642798773 1.6421942668953426 0 0.4114869826661211 1.5252679413084982 0 0.4114869826661211 1.5252679413084982 0 0.33917099180670385 1.408487339392875 0 0.479353066567897 1.4114239387836789 0 0.2699135430947599 1.5195548852750451 0 0.4114869826661211 1.5252679413084982 0 0.33917099180670385 1.408487339392875 0 0.2699135430947599 1.5195548852750451 0 0.33917099180670385 1.408487339392875 0 0.19869450530557289 1.395261828274998 0 0.33917099180670385 1.408487339392875 0 0.19869450530557289 1.395261828274998 0 0.26387015982340828 1.2928795739443688 0 0.33917099180670385 1.408487339392875 0 0.40811469618331975 1.306792566010732 0 0.26387015982340828 1.2928795739443688 0 0.40811469618331975 1.306792566010732 0 0.479353066567897 1.4114239387836789 0 0.54996249510903794 1.305278560297501 0 0.33917099180670385 1.408487339392875 0 0.40811469618331975 1.306792566010732 0 0.479353066567897 1.4114239387836789 0 0.1208503059250759 1.5108948237075377 0 0.00013410191836552704 1.4285828001960941 0 0.087298732886601296 1.3679589447749978 0 0.1208503059250759 1.5108948237075377 0 0.19869450530557289 1.395261828274998 0 0.087298732886601296 1.3679589447749978 0 0.1208503059250759 1.5108948237075377 0 0.2699135430947599 1.5195548852750451 0 0.19869450530557289 1.395261828274998 0 0.19869450530557289 1.395261828274998 0 0.087298732886601296 1.3679589447749978 0 0.11512121690747555 1.2598776999588013 0 0.19869450530557289 1.395261828274998 0 0.11512121690747555 1.2598776999588013 0 0.26387015982340828 1.2928795739443688 0 0.00013410191836552704 1.4285828001960941 0 0.00013483950066017577 1.2857404206235714 0 0.087298732886601296 1.3679589447749978 0 0.00013483950066017577 1.2857404206235714 0 0.087298732886601296 1.3679589447749978 0 0.11512121690747555 1.2598776999588013 0 0.00012541616839197391 1.1428778624740175 0 0.11512121690747555 1.2598776999588013 0 0.090194757181652055 1.1432119062849246 0 0.00013483950066017577 1.2857404206235714 0 0.00012541616839197391 1.1428778624740175 0 0.11512121690747555 1.2598776999588013 0 0.11512121690747555 1.2598776999588013 0 0.20002039482188153 1.1861761053042164 0 0.26387015982340828 1.2928795739443688 0 0.11512121690747555 1.2598776999588013 0 0.20002039482188153 1.1861761053042164 0 0.090194757181652055 1.1432119062849246 0 0.20002039482188153 1.1861761053042164 0 0.13381105473342203 1.0972747078687421 0 0.275067354026866 1.1426575144102602 0 0.20002039482188153 1.1861761053042164 0 0.13381105473342203 1.0972747078687421 0 0.090194757181652055 1.1432119062849246 0 0.00012541616839197391 1.1428778624740175 0 0.00013101892813994462 1.0001720562019507 0 0.090194757181652055 1.1432119062849246 0 0.13381105473342203 1.0972747078687421 0 0.00013101892813994462 1.0001720562019507 0 0.090194757181652055 1.1432119062849246 0 0.40811469618331975 1.306792566010732 0 0.4828092848258756 1.2202140351872044 0 0.33791705421611479 1.2132836262911484 0 0.40811469618331975 1.306792566010732 0 0.4828092848258756 1.2202140351872044 0 0.54996249510903794 1.305278560297501 0 0.20002039482188153 1.1861761053042164 0 0.26387015982340828 1.2928795739443688 0 0.33791705421611479 1.2132836262911484 0 0.40811469618331975 1.306792566010732 0 0.26387015982340828 1.2928795739443688 0 0.33791705421611479 1.2132836262911484 0 0.20002039482188153 1.1861761053042164 0 0.33791705421611479 1.2132836262911484 0 0.275067354026866 1.1426575144102602 0 0.33791705421611479 1.2132836262911484 0 0.275067354026866 1.1426575144102602 0 0.4178824631632726 1.1601307469943436 0 0.4828092848258756 1.2202140351872044 0 0.33791705421611479 1.2132836262911484 0 0.4178824631632726 1.1601307469943436 0 0.4828092848258756 1.2202140351872044 0 0.4178824631632726 1.1601307469943436 0 0.56020434879776382 1.1566144967679426 0 0.4828092848258756 1.2202140351872044 0 0.56020434879776382 1.1566144967679426 0 0.62340056784974673 1.2087062183089539 0 0.4828092848258756 1.2202140351872044 0 0.62340056784974673 1.2087062183089539 0 0.54996249510903794 1.305278560297501 0 0.62340056784974673 1.2087062183089539 0 0.75459884788190856 1.1809214445362497 0 0.68130005299150631 1.2915004109703809 0 0.62340056784974673 1.2087062183089539 0 0.54996249510903794 1.305278560297501 0 0.68130005299150631 1.2915004109703809 0 0.56020434879776382 1.1566144967679426 0 0.62340056784974673 1.2087062183089539 0 0.70176285307036623 1.1336346099553296 0 0.62340056784974673 1.2087062183089539 0 0.70176285307036623 1.1336346099553296 0 0.75459884788190856 1.1809214445362497 0 0.70176285307036623 1.1336346099553296 0 0.84367765654725324 1.0886304706933909 0 0.75459884788190856 1.1809214445362497 0 0.84367765654725324 1.0886304706933909 0 0.75459884788190856 1.1809214445362497 0 0.86012754181225548 1.1394834863354375 0 0.99997705395037462 0.99992828244474885 0 0.84367765654725324 1.0886304706933909 0 0.86012754181225548 1.1394834863354375 0 0.99997705395037462 0.99992828244474885 0 0.9113356663285016 1.1561074265149287 0 0.86012754181225548 1.1394834863354375 0 0.9113356663285016 1.1561074265149287 0 0.86012754181225548 1.1394834863354375 0 0.80814161266414031 1.2601063761763984 0 0.9113356663285016 1.1561074265149287 0 0.866389149328191 1.2975997482747668 0 0.80814161266414031 1.2601063761763984 0 0.75459884788190856 1.1809214445362497 0 0.86012754181225548 1.1394834863354375 0 0.80814161266414031 1.2601063761763984 0 0.75459884788190856 1.1809214445362497 0 0.80814161266414031 1.2601063761763984 0 0.68130005299150631 1.2915004109703809 0 0.80814161266414031 1.2601063761763984 0 0.80689183202954595 1.3747306867024298 0 0.72752036290440159 1.403009834941253 0 0.80814161266414031 1.2601063761763984 0 0.72752036290440159 1.403009834941253 0 0.68130005299150631 1.2915004109703809 0 0.866389149328191 1.2975997482747668 0 0.80814161266414031 1.2601063761763984 0 0.80689183202954595 1.3747306867024298 0 0.84317303887462358 1.4400331939286244 0 0.866389149328191 1.2975997482747668 0 0.80689183202954595 1.3747306867024298 0 0.84317303887462358 1.4400331939286244 0 0.7800265141396141 1.5169702433534951 0 0.80689183202954595 1.3747306867024298 0 0.7800265141396141 1.5169702433534951 0 0.80689183202954595 1.3747306867024298 0 0.72752036290440159 1.403009834941253 0 0.7800265141396141 1.5169702433534951 0 0.67462282396178486 1.5246156086049896 0 0.72752036290440159 1.403009834941253 0 0.54798579656852409 1.5276008913816053 0 0.67462282396178486 1.5246156086049896 0 0.61169982503320308 1.4082839197551804 0 0.67462282396178486 1.5246156086049896 0 0.72752036290440159 1.403009834941253 0 0.61169982503320308 1.4082839197551804 0 0.54798579656852409 1.5276008913816053 0 0.4114869826661211 1.5252679413084982 0 0.479353066567897 1.4114239387836789 0 0.54798579656852409 1.5276008913816053 0 0.61169982503320308 1.4082839197551804 0 0.479353066567897 1.4114239387836789 0 0.61169982503320308 1.4082839197551804 0 0.479353066567897 1.4114239387836789 0 0.54996249510903794 1.305278560297501 0 0.61169982503320308 1.4082839197551804 0 0.54996249510903794 1.305278560297501 0 0.68130005299150631 1.2915004109703809 0 0.72752036290440159 1.403009834941253 0 0.61169982503320308 1.4082839197551804 0 0.68130005299150631 1.2915004109703809 0 
</DataArray>
</PointData>
<CellData Scalars="region_id,displacement_divergence," Vectors="" Tensors="stress,">
<DataArray type="Float64" Name="region_id" format="ascii">
15 15 15 15 15 15 15 15 15 15 15 15 15 15 15 15 15 15 15 15 15 15 15 15 15 15 15 15 15 15 15 15 15 15 15 15 15 15 15 15 15 15 15 15 15 15 15 15 15 15 15 15 15 15 15 15 15 15 15 15 15 15 15 15 15 15 15 15 15 15 15 15 15 15 15 15 15 15 15 15 15 15 15 15 15 15 15 15 15 15 15 15 15 15 15 15 15 15 15 15 15 15 15 15 15 15 15 15 15 15 15 15 15 15 15 15 15 15 14 14 14 14 14 14 14 14 14 14 14 14 14 14 14 14 14 14 14 14 14 14 14 14 14 14 14 14 14 14 14 14 14 14 14 14 14 14 14 14 14 14 14 14 14 14 14 14 14 14 14 14 14 14 14 14 14 14 14 14 14 14 14 14 14 14 14 14 14 14 14 14 14 14 14 14 14 14 14 14 14 14 14 14 14 14 14 14 14 14 14 14 14 14 14 14 14 14 14 14 14 14 14 14 14 14 14 14 14 14 14 14 14 14 14 14 14 14 15 15 15 15 15 15 15 15 15 15 15 15 15 15 15 15 15 15 15 15 15 15 15 15 15 15 15 15 15 15 15 15 15 15 15 15 15 15 15 15 15 15 15 15 15 15 15 15 15 15 15 15 15 15 15 15 15 15 15 15 15 15 15 15 15 15 15 15 15 15 15 15 15 15 15 15 15 15 15 15 15 15 15 15 15 15 15 15 15 15 15 15 15 15 15 15 15 15 15 15 15 15 15 15 15 15 15 15 15 15 15 15 15 15 15 15 15 15 14 14 14 14 14 14 14 14 14 14 14 14 14 14 14 14 14 14 14 14 14 14 14 14 14 14 14 14 14 14 14 14 14 14 14 14 14 14 14 14 14 14 14 14 14 14 14 14 14 14 14 14 14 14 14 14 14 14 14 14 14 14 14 14 14 14 14 14 14 14 14 14 14 14 14 14 14 14 14 14 14 14 14 14 14 14 14 14 14 14 14 14 14 14 14 14 14 14 14 14 14 14 14 14 14 14 14 14 14 14 14 14 14 14 14 14 14 14 
</DataArray>
<DataArray type="Float64" Name="stress" NumberOfComponents="9" format="ascii">
0.54713244744083056 50.220366832458886 0 50.220366832458886 0.032055387772585917 0 0 0 0 0.032002174312056111 50.226740264961421 0 50.226740264961421 0.53443879589399756 0 0 0 0 0.90978023531639707 50.457160680762819 0 50.457160680762819 -0.0081693174150626463 0 0 0 0 0.68847836511150717 50.487848382745383 0 50.487848382745383 0.43858146633182571 0 0 0 0 0.51366816499169943 50.394966908635425 0 50.394966908635425 0.46764199341933832 0 0 0 0 0.70711589040330125 50.612162819598794 0 50.612162819598794 0.7071623025798317 0 0 0 0 -0.0079704271655700529 50.482626407200755 0 50.482626407200755 0.92124575764971439 0 0 0 0 0.45793747056159495 50.5026705781316 0 50.5026705781316 0.67936929515206401 0 0 0 0 1.8252576714958764 51.268938800865207 0 51.268938800865207 0.52597226748463299 0 0 0 0 1.1186492607550917 50.770691234782149 0 50.770691234782149 0.44002807437607316 0 0 0 0 1.348962595472841 50.703078407162636 0 50.703078407162636 0.0025828230913752387 0 0 0 0 1.1330609558954023 50.869992989190472 0 50.869992989190472 0.58606850679176148 0 0 0 0 0.82900511254713649 50.566302673560386 0 50.566302673560386 0.44799481775167949 0 0 0 0 1.1848561410556044 50.84067273291933 0 50.84067273291933 0.52918953092915899 0 0 0 0 1.0470069306378491 51.188593872144374 0 51.188593872144374 0.27851366778801889 0 0 0 0 0.60043503838144829 50.889527521784792 0 50.889527521784792 0.58591664019795442 0 0 0 0 0.70852087871763558 50.737888510200385 0 50.737888510200385 0.78508584088680777 0 0 0 0 0.45088895296174769 51.206616914369789 0 51.206616914369789 0.65656161301421889 0 0 0 0 0.43959578324962223 51.230956944374448 0 51.230956944374448 0.77276323636380084 0 0 0 0 -0.088920601807004118 51.78048730881499 0 51.78048730881499 0.28711657062842733 0 0 0 0 0.46950968689688466 50.770265306456324 0 50.770265306456324 1.0757733856667926 0 0 0 0 0.0022849874749673316 50.751964991411285 0 50.751964991411285 1.3748716262376632 0 0 0 0 0.42454095389001623 50.702406457518244 0 50.702406457518244 1.1484262388717923 0 0 0 0 0.64791736539302747 50.660414335680329 0 50.660414335680329 0.69872227926783737 0 0 0 0 0.67139853053095777 50.93812349379624 0 50.93812349379624 1.105290862587637 0 0 0 0 0.47278033989207557 50.970641168370058 0 50.970641168370058 1.63737314080646 0 0 0 0 0.00055832947911694381 51.043758720593623 0 51.043758720593623 2.2770553353803678 0 0 0 0 0.4600614647961333 51.276351563697602 0 51.276351563697602 1.8970953583789765 0 0 0 0 0.65937488636949837 52.108427342730195 0 52.108427342730195 3.2746382726608658 0 0 0 0 0.15092958678931723 53.327785783146922 0 53.327785783146922 7.4465429369598723 0 0 0 0 -0.00015706260474541989 51.460187288406843 0 51.460187288406843 4.4811448320008935 0 0 0 0 -0.41581495794433465 52.569272480170355 0 52.569272480170355 6.1231611365890615 0 0 0 0 0.67113007632642052 52.801139812239057 0 52.801139812239057 3.8479296717935014 0 0 0 0 0.29764694890098298 51.440182724277861 0 51.440182724277861 3.6773270380696772 0 0 0 0 0.51962382860786249 51.919132403420505 0 51.919132403420505 1.6506108980282685 0 0 0 0 0.10923761630644435 51.661173300121149 0 51.661173300121149 2.1413206234939821 0 0 0 0 -0.39860723300580503 52.518366850384524 0 52.518366850384524 0.6947581437198278 0 0 0 0 -0.35016668384047023 52.411766449145787 0 52.411766449145787 0.18039656071147192 0 0 0 0 -1.8167412707673378 55.104063032708481 0 55.104063032708481 0.13660281232270677 0 0 0 0 -0.77653142287370258 53.94877401752521 0 53.94877401752521 2.474251122102654 0 0 0 0 -1.0069090385852206 53.734277939079547 0 53.734277939079547 2.4503953591382128 0 0 0 0 -2.1486658142501298 56.22408364693753 0 56.22408364693753 7.438381084120806 0 0 0 0 -2.5592362319015933 57.969422286819054 0 57.969422286819054 2.7861613055397569 0 0 0 0 -2.412057460701277 57.772504301364464 0 57.772504301364464 1.61603135366164 0 0 0 0 -3.486668218730216 64.150422656765699 0 64.150422656765699 1.29250609405908 0 0 0 0 -3.6691686543463931 63.000257023188368 0 63.000257023188368 6.1156314044471287 0 0 0 0 -4.4901515049199219 62.90825871647391 0 62.90825871647391 8.4402274699253894 0 0 0 0 -5.0124453395142154 61.28561685007972 0 61.28561685007972 15.883982289577602 0 0 0 0 -5.9070909137737218 60.357998261734394 0 60.357998261734394 15.178226279108202 0 0 0 0 -0.0094767533794631945 51.142151779212568 0 51.142151779212568 18.242042260251424 0 0 0 0 -5.4512223463534699 56.293221894303443 0 56.293221894303443 33.985928083442559 0 0 0 0 0.0036167090434664176 51.550070545094741 0 51.550070545094741 9.0161379804376338 0 0 0 0 -0.84445187663020249 55.732521517476101 0 55.732521517476101 14.993523841310562 0 0 0 0 -1.981028958385469 56.319885172074294 0 56.319885172074294 7.1582461513855833 0 0 0 0 -1.6333244200350805 53.594395586466646 0 53.594395586466646 13.360421919021995 0 0 0 0 -10.034440890405108 61.981775539692251 0 61.981775539692251 -8.3427711653345398 0 0 0 0 -12.312224238615087 58.424132637496143 0 58.424132637496143 -13.716973542085157 0 0 0 0 -15.695839779363553 67.029135641290395 0 67.029135641290395 -14.270921565007484 0 0 0 0 -15.765613121711851 62.669117169039978 0 62.669117169039978 -8.4101151964241581 0 0 0 0 -16.012146289203429 62.365388183100379 0 62.365388183100379 -31.045765886943059 0 0 0 0 -31.050792940106817 62.221900938603696 0 62.221900938603696 -15.72014474704622 0 0 0 0 -8.9312568105879109 62.713013216831669 0 62.713013216831669 -15.751448741637034 0 0 0 0 -14.544309174043519 67.189902548476709 0 67.189902548476709 -15.731783355615732 0 0 0 0 -6.8064063975437534 65.96926153528733 0 65.96926153528733 -10.810050023058135 0 0 0 0 -4.7678494571751457 63.356233932572493 0 63.356233932572493 -8.0429603843933251 0 0 0 0 -3.3941713313747357 63.508568982017593 0 63.508568982017593 -1.2306875792405094 0 0 0 0 -3.9814647125182887 65.009379074093005 0 65.009379074093005 -4.7143414733559128 0 0 0 0 -3.2045062897214507 58.448555912094776 0 58.448555912094776 -4.5635909325975623 0 0 0 0 -3.146525200640653 59.341850366379759 0 59.341850366379759 -1.6567049120388901 0 0 0 0 -5.9137092174821646 58.365015427957161 0 58.365015427957161 -10.018737928766363 0 0 0 0 -5.2687553504019036 60.350703477791896 0 60.350703477791896 -5.1908311544718231 0 0 0 0 -6.4488114439234323 58.526675947418056 0 58.526675947418056 -3.937629983470174 0 0 0 0 -3.1442994990400166 55.877841946205407 0 55.877841946205407 -5.0421391535476277 0 0 0 0 -1.7994086440870376 54.751464597120986 0 54.751464597120986 -1.1328255016937536 0 0 0 0 -3.3770951393788806 56.474072886471745 0 56.474072886471745 -2.0718543482634573 0 0 0 0 -1.4548003176397089 53.574515347858437 0 53.574515347858437 -0.50226483279112699 0 0 0 0 -0.84901532453261552 53.643039116478832 0 53.643039116478832 -2.0612921571949698 0 0 0 0 -2.9264372619167887 55.463888416801609 0 55.463888416801609 -1.7706893889267121 0 0 0 0 -1.5047808380906531 56.004740255996168 0 56.004740255996168 -3.6736265169334423 0 0 0 0 -4.6596917470713493 58.987762932473743 0 58.987762932473743 -2.8252290397957722 0 0 0 0 -2.9496549590198811 59.808859037637305 0 59.808859037637305 -4.2827268784303634 0 0 0 0 -11.066723101632363 61.298812251116075 0 61.298812251116075 -4.4535076724319538 0 0 0 0 -6.061244779562287 57.897800816347498 0 57.897800816347498 -7.5092150684640089 0 0 0 0 -8.6485270034795008 65.539274004115867 0 65.539274004115867 -7.2628690624644605 0 0 0 0 -8.0573881551522959 63.757516010306418 0 63.757516010306418 -4.7103404004737115 0 0 0 0 -5.5845002767628245 65.266650501333032 0 65.266650501333032 -3.8082467065476635 0 0 0 0 2.9276144955496193 64.652984860860087 0 64.652984860860087 -3.5976390088699475 0 0 0 0 -1.2225532521384821 63.670870966539525 0 63.670870966539525 -3.4223877194066006 0 0 0 0 2.0596867461298416 57.897193883566914 0 57.897193883566914 -2.7777521719543188 0 0 0 0 0.13867944600076498 59.580228090968227 0 59.580228090968227 -2.9957620959595204 0 0 0 0 8.7761909480192344 59.310379938475734 0 59.310379938475734 -3.1291249650046424 0 0 0 0 4.2356449214908025 55.638074774059859 0 55.638074774059859 -1.6925695052726439 0 0 0 0 6.2453749088986115 63.417170307072496 0 63.417170307072496 -3.767029695491388 0 0 0 0 6.5906931228247174 63.066206673749967 0 63.066206673749967 -4.5598161433194662 0 0 0 0 0.55109618310288511 52.086596724219248 0 52.086596724219248 -0.52826197426550636 0 0 0 0 -0.6078560324012301 53.051630814270681 0 53.051630814270681 -0.42187024953770447 0 0 0 0 -0.82377653629353631 55.807454536427684 0 55.807454536427684 -1.5656973219323334 0 0 0 0 1.1469959370453466 54.035975599204761 0 54.035975599204761 -1.7466556344780002 0 0 0 0 1.6329186662577229 52.709366120187056 0 52.709366120187056 -0.16047355584322531 0 0 0 0 4.7562176778908452 55.167291050181738 0 55.167291050181738 -1.5572653824752041 0 0 0 0 2.0912082287774467 52.468703790485215 0 52.468703790485215 -0.44233636769012219 0 0 0 0 0.67653526393620211 51.458320581984083 0 51.458320581984083 0.40923285555717825 0 0 0 0 2.2039458475838245 51.354457428596319 0 51.354457428596319 0.59407094944910455 0 0 0 0 2.0412281247888302 51.548765847261649 0 51.548765847261649 0.40912001089679711 0 0 0 0 4.3540671756083498 52.888973973714997 0 52.888973973714997 -0.15329467478843517 0 0 0 0 4.99116330556447 52.21764249955627 0 52.21764249955627 0.36299810893375906 0 0 0 0 7.1743421662710887 53.730231954860052 0 53.730231954860052 0.37874472477343346 0 0 0 0 4.6959301225676597 51.353818053442538 0 51.353818053442538 0.00057237592292878892 0 0 0 0 3.4755777967323809 52.189594420772309 0 52.189594420772309 0.58574077133019331 0 0 0 0 2.3041073772326826 51.006030193957315 0 51.006030193957315 0.00016528009901426582 0 0 0 0 14.944429050768932 60.273508257357754 0 60.273508257357754 -5.8887163366164543 0 0 0 0 15.821423808969143 61.366856784100193 0 61.366856784100193 -4.7923167068129828 0 0 0 0 9.2566123345968094 55.606441716528153 0 55.606441716528153 -1.7313583430003039 0 0 0 0 12.410532237458483 53.585075645871655 0 53.585075645871655 -1.5564373671234932 0 0 0 0 15.003062400705971 55.813822847975722 0 55.813822847975722 -0.85769831715831657 0 0 0 0 9.8049896072252807 51.560557281121149 0 51.560557281121149 0.0027759435332738169 0 0 0 0 33.961052546352846 56.277365216804597 0 56.277365216804597 -5.5110810508255312 0 0 0 0 18.276951075879936 51.18630388751081 0 51.18630388751081 -0.0091022389765618786 0 0 0 0 37.849209977352075 93.369456070539186 0 93.369456070539186 -0.0036909254775955996 0 0 0 0 67.922105092705806 81.725455287425945 0 81.725455287425945 -6.7885844745789115 0 0 0 0 31.642847617938287 76.954507502191532 0 76.954507502191532 -5.286089907643742 0 0 0 0 30.167949657908821 77.221761977975916 0 77.221761977975916 -5.0274190690151528 0 0 0 0 27.254388342187085 90.69195224227353 0 90.69195224227353 -0.68394603270837706 0 0 0 0 14.854570177869846 86.086860670266859 0 86.086860670266859 -0.31335037021779044 0 0 0 0 31.520950449280804 84.965714614203378 0 84.965714614203378 1.3121839742915806 0 0 0 0 19.624370564735727 94.112579116334274 0 94.112579116334274 0.0062221204705300293 0 0 0 0 11.261011224351932 95.00441682292896 0 95.00441682292896 -0.00038112996704137148 0 0 0 0 16.711428111010719 91.044533423259608 0 91.044533423259608 1.454079887546744 0 0 0 0 6.4860754378869387 96.520223480476375 0 96.520223480476375 0.0043031705324083902 0 0 0 0 8.423024694921537 94.148376680798066 0 94.148376680798066 2.2265032952220594 0 0 0 0 4.9107571564326236 95.093132788591035 0 95.093132788591035 2.5769289488490728 0 0 0 0 9.2230763034676784 95.471596154988731 0 95.471596154988731 1.4519445023987743 0 0 0 0 13.982397524438625 93.303928269960906 0 93.303928269960906 0.96306888799841772 0 0 0 0 9.471939221586581 92.783958660579913 0 92.783958660579913 3.2611093201724302 0 0 0 0 6.7204152804621344 91.742683334615393 0 91.742683334615393 0.066873727647475789 0 0 0 0 6.5431893861598525 91.022333525176506 0 91.022333525176506 0.93223801234577763 0 0 0 0 3.0488677021448893 94.21019139736427 0 94.21019139736427 1.148893744768543 0 0 0 0 6.3466274221265522 95.601580649045346 0 95.601580649045346 1.642123433254028 0 0 0 0 2.1169015601290084 94.588829597040174 0 94.588829597040174 1.0184748096049816 0 0 0 0 0.83768345400881117 92.572276669893043 0 92.572276669893043 -0.88596230852135704 0 0 0 0 -1.1062940381506223 90.26509614058412 0 90.26509614058412 -1.1184416926697338 0 0 0 0 2.3508106891487408 89.377961918976396 0 89.377961918976396 -1.1980281843460148 0 0 0 0 3.8712284630515796 84.462184018029731 0 84.462184018029731 -2.0078689772478242 0 0 0 0 4.3296840718941212 72.272563759968136 0 72.272563759968136 -3.3956315313050425 0 0 0 0 17.175865883714572 73.63725146658561 0 73.63725146658561 -4.183037128307177 0 0 0 0 12.490749817797223 74.527766108422298 0 74.527766108422298 -3.5879622578141124 0 0 0 0 7.086029215256076 83.483927348798886 0 83.483927348798886 -1.9458261029681125 0 0 0 0 16.450766008793845 86.756329634069488 0 86.756329634069488 -1.4887961965163754 0 0 0 0 0.0175275221101856 98.395804997693503 0 98.395804997693503 2.9602278956532615 0 0 0 0 1.4032357749126732 98.183442188428032 0 98.183442188428032 2.1512680225842189 0 0 0 0 -0.061769878493637111 99.062040865808697 0 99.062040865808697 1.6994227610151142 0 0 0 0 1.6820001210292048 99.053240630810393 0 99.053240630810393 -0.061947708501658053 0 0 0 0 3.0322274667116744 98.344278423454128 0 98.344278423454128 0.018141506904993623 0 0 0 0 2.1462632367915262 98.153202000174758 0 98.153202000174758 1.4288235193275654 0 0 0 0 2.4254574865863106 97.820043679720925 0 97.820043679720925 2.3187018438790403 0 0 0 0 1.5107413956454252 98.614140538691288 0 98.614140538691288 1.6361148749545009 0 0 0 0 2.4440892757666006 97.901855091147951 0 97.901855091147951 2.2323361419267229 0 0 0 0 3.8192908868923041 97.541778588121446 0 97.541778588121446 1.3449053912688242 0 0 0 0 3.5236596926997663 97.483409220549547 0 97.483409220549547 1.3958750886904028 0 0 0 0 4.4309023141817079 97.447724530005843 0 97.447724530005843 -0.0043791877068651563 0 0 0 0 5.552531850193418 96.134221485148117 0 96.134221485148117 1.4566402581573166 0 0 0 0 3.7576100854284959 97.132866818765507 0 97.132866818765507 2.0362597234005548 0 0 0 0 4.993519778731212 96.833491655067306 0 96.833491655067306 1.8955412380549319 0 0 0 0 3.0962501203818587 96.752160091885898 0 96.752160091885898 2.1976710423963368 0 0 0 0 2.9266839368012825 96.727367223391781 0 96.727367223391781 2.2950726153717937 0 0 0 0 0.78984921453525203 95.309963895050046 0 95.309963895050046 2.442926140704742 0 0 0 0 2.1000508646584422 95.789939352588249 0 95.789939352588249 1.4439282361149424 0 0 0 0 2.1038302273388867 96.744179662874402 0 96.744179662874402 3.4175133333251893 0 0 0 0 2.1629591187161168 96.270851984691575 0 96.270851984691575 2.8930268710537064 0 0 0 0 3.0146758074755979 97.525006359577517 0 97.525006359577517 2.4742150633757092 0 0 0 0 2.2651055731848828 97.439043656414896 0 97.439043656414896 2.6120393704315177 0 0 0 0 2.2579065856025444 97.230753221326097 0 97.230753221326097 3.5812375271253813 0 0 0 0 1.4406014384817354 98.087767531769117 0 98.087767531769117 2.8471535506006944 0 0 0 0 2.1046813750901947 95.787696215011835 0 95.787696215011835 5.5592416282776469 0 0 0 0 1.7139143256292755 97.331348070450275 0 97.331348070450275 3.8998735864322498 0 0 0 0 1.6876758235889611 96.177356411101144 0 96.177356411101144 5.3639533796995522 0 0 0 0 0.002711548066827163 96.629467803253405 0 96.629467803253405 6.4026600849723536 0 0 0 0 -0.003377103083470855 97.605462256705337 0 97.605462256705337 4.2601001969398453 0 0 0 0 1.3689016492621704 97.421212788106885 0 97.421212788106885 3.6411922228600417 0 0 0 0 2.5266831785863815 90.259066136866437 0 90.259066136866437 15.887397567964172 0 0 0 0 0.0020667708493197988 95.452179645056262 0 95.452179645056262 10.915220826042344 0 0 0 0 2.1004787224148913 94.004415622015273 0 94.004415622015273 8.7219775952813166 0 0 0 0 2.2315836641999169 96.119509903244719 0 96.119509903244719 5.88914619781184 0 0 0 0 2.2682084855150606 94.14743943488395 0 94.14743943488395 10.726322772698381 0 0 0 0 1.5898012355448827 92.99639422564934 0 92.99639422564934 9.6402886658311786 0 0 0 0 1.5952229034599226 93.805400861287367 0 93.805400861287367 4.2607394019950107 0 0 0 0 -0.46673104328215231 89.531011303694299 0 89.531011303694299 9.7261156202087022 0 0 0 0 1.0374453127324159 94.53264209309954 0 94.53264209309954 5.2654018502016982 0 0 0 0 1.0238722160914246 93.668662983650677 0 93.668662983650677 0.49563714994894781 0 0 0 0 -0.4681383472914824 88.854533336869224 0 88.854533336869224 -0.56795976176124441 0 0 0 0 -1.3023289236462006 91.935011189698258 0 91.935011189698258 3.2713654280315723 0 0 0 0 -2.8580135740270407 84.871955558419927 0 84.871955558419927 4.8273500187157765 0 0 0 0 -2.5986887841502551 82.208261872326133 0 82.208261872326133 0.9002603118370871 0 0 0 0 -3.7117747204406442 71.873446646837408 0 71.873446646837408 6.0355958197952191 0 0 0 0 -3.9971427360712823 74.411419325201507 0 74.411419325201507 12.831064063874663 0 0 0 0 -3.5863565778341808 74.171831412075591 0 74.171831412075591 12.831535617188592 0 0 0 0 -0.27869222405547589 88.577366223246457 0 88.577366223246457 8.5641185253358572 0 0 0 0 -2.7544903884240171 81.893893731642549 0 81.893893731642549 17.011546535870707 0 0 0 0 -0.12487898106437001 87.349464514899751 0 87.349464514899751 18.340059651732417 0 0 0 0 -0.36488723696970737 90.889671988739224 0 90.889671988739224 24.050431293617805 0 0 0 0 -4.7065751821237427 76.808696689289803 0 76.808696689289803 31.218359230698752 0 0 0 0 -4.9536170973096887 77.499294660147655 0 77.499294660147655 29.771555399526278 0 0 0 0 -0.0025726710036906297 93.24552909769551 0 93.24552909769551 37.941964101252381 0 0 0 0 -6.9791448703845163 81.72226833849308 0 81.72226833849308 67.965057819074332 0 0 0 0 1.6344457406175934 84.729320594259349 0 84.729320594259349 31.488347908201263 0 0 0 0 0.0040979891120969114 94.10173979414148 0 94.10173979414148 20.614884543664459 0 0 0 0 -17.946789558874912 85.083602908042195 0 85.083602908042195 -7.911101824112734 0 0 0 0 -7.6803761273559985 81.068181873754412 0 81.068181873754412 -6.6875480258119353 0 0 0 0 -16.114776310304592 74.653610876030513 0 74.653610876030513 -5.040208636768142 0 0 0 0 -18.438122210431061 71.820861368613691 0 71.820861368613691 -7.5634684925138913 0 0 0 0 -7.4341300920034223 71.728655488056816 0 71.728655488056816 -4.5435035264212047 0 0 0 0 -2.4451065042768505 74.213555266468518 0 74.213555266468518 -3.3328518650135379 0 0 0 0 -7.4297201203610825 83.925933915527196 0 83.925933915527196 -3.5168411488642732 0 0 0 0 -0.61252070477530651 81.922093881914307 0 81.922093881914307 -3.437714687797893 0 0 0 0 -1.9771987748459878 87.587404970430157 0 87.587404970430157 -4.041149636461455 0 0 0 0 -2.0923262776805132 92.590785842872251 0 92.590785842872251 0.094034008369220601 0 0 0 0 -1.2889023153925581 89.54344653705013 0 89.54344653705013 -3.6974892176436924 0 0 0 0 -4.9740555495895933 88.431126230896808 0 88.431126230896808 -1.1763041377355989 0 0 0 0 -5.0696834956195289 84.403191912884012 0 84.403191912884012 -9.7453958663312505 0 0 0 0 -7.6218175604809444 88.946329881529834 0 88.946329881529834 -3.7389085731576301 0 0 0 0 -5.347500615509972 79.673791678276316 0 79.673791678276316 -19.569374433855614 0 0 0 0 -11.333563575007247 85.999521968948073 0 85.999521968948073 -9.4990740617900542 0 0 0 0 -5.0675732922081806 81.988895382496196 0 81.988895382496196 -4.6289802738272101 0 0 0 0 -2.8014585791922855 83.311732913285198 0 83.311732913285198 -7.507090205402335 0 0 0 0 -4.1213223830000061 71.302242297984094 0 71.302242297984094 -9.7057765121228101 0 0 0 0 -3.3631031576604755 73.9887061655335 0 73.9887061655335 -2.3444369427694483 0 0 0 0 -5.0471744416548745 74.314885063611598 0 74.314885063611598 -16.243398148344113 0 0 0 0 -8.1862901624183451 72.635673624858327 0 72.635673624858327 -15.301173653262396 0 0 0 0 -9.8487917124556361 77.956616814151488 0 77.956616814151488 -31.448545161865127 0 0 0 0 -16.733099154234878 74.13836116637691 0 74.13836116637691 -27.759627954244706 0 0 0 0 -23.824781668797073 88.216957349927156 0 88.216957349927156 -21.425862796166086 0 0 0 0 -12.442667694558907 79.742374512087267 0 79.742374512087267 -15.136009125853093 0 0 0 0 -31.531226243423703 78.023993427934357 0 78.023993427934357 -10.432522147982127 0 0 0 0 -27.821808490357398 74.086111500330333 0 74.086111500330333 -16.973088076562362 0 0 0 0 -62.101585880213406 90.366861475657231 0 90.366861475657231 -24.298804909658429 0 0 0 0 -24.108110490501758 90.488284209110162 0 90.488284209110162 -62.04943483253669 0 0 0 0 -15.648913545089385 62.20491365474976 0 62.20491365474976 -31.024717416268288 0 0 0 0 -31.024485667655426 62.350752791152274 0 62.350752791152274 -15.94082356650722 0 0 0 0 -15.731280950108669 62.563795125528458 0 62.563795125528458 -8.7018380708328209 0 0 0 0 -15.762370133118282 67.113558578010696 0 67.113558578010696 -14.498943510078533 0 0 0 0 -13.374384181821782 58.315280298187062 0 58.315280298187062 -12.016002394119539 0 0 0 0 -8.0836637784867094 61.790402675519829 0 61.790402675519829 -9.8216213664355791 0 0 0 0 -14.224716063967662 66.959268041667571 0 66.959268041667571 -15.676796650889287 0 0 0 0 -8.1904332175369063 62.527858194357606 0 62.527858194357606 -15.724272580932563 0 0 0 0 -4.8066269722141897 63.802280813427657 0 63.802280813427657 -8.1216990741720565 0 0 0 0 -7.0200234520151241 65.423228485751579 0 65.423228485751579 -8.561682237323339 0 0 0 0 -3.4220965344935621 63.488753685790883 0 63.488753685790883 -1.1722184713847241 0 0 0 0 -3.983868109492505 65.23288564784373 0 65.23288564784373 -5.748145534922628 0 0 0 0 -2.8168203797721389 58.840641023146304 0 58.840641023146304 -4.7864677201183667 0 0 0 0 -4.2861457496248931 59.657865331894442 0 59.657865331894442 -3.006742909070212 0 0 0 0 -4.4954194229600262 61.226180097578009 0 61.226180097578009 -11.180834140083221 0 0 0 0 -7.3935416780355467 57.881361519887122 0 57.881361519887122 -5.9252133902748483 0 0 0 0 -5.0327964647578938 55.915909844962755 0 55.915909844962755 -3.1308549240599177 0 0 0 0 -3.9022279770423918 58.463606909145781 0 58.463606909145781 -6.4098442331734304 0 0 0 0 -3.8442932369811622 56.085104712464428 0 56.085104712464428 -1.5791907674235404 0 0 0 0 -1.7762498921618999 55.459827953483256 0 55.459827953483256 -3.0340691458995934 0 0 0 0 -2.1395958809027888 53.754983691365055 0 53.754983691365055 -0.94066859086296972 0 0 0 0 -2.0785503329411199 56.546634751909778 0 56.546634751909778 -3.3798851895343773 0 0 0 0 -1.2202372103785706 59.492338999335146 0 59.492338999335146 -3.2134362601369162 0 0 0 0 -4.5172752645267451 58.515337143818584 0 58.515337143818584 -3.2606405411532933 0 0 0 0 -4.5196386107866715 65.052005894813135 0 65.052005894813135 -4.1410965689020145 0 0 0 0 -1.2015091418596739 63.462203290164211 0 63.462203290164211 -3.4077880879935947 0 0 0 0 -10.388960343451956 65.873078507325403 0 65.873078507325403 -6.6801150973384438 0 0 0 0 -8.1256386587485849 63.525477670797102 0 63.525477670797102 -4.705175491877867 0 0 0 0 -5.0663351792778712 60.311323144626783 0 60.311323144626783 -5.1265650950670363 0 0 0 0 -10.112701508185165 58.404574986676437 0 58.404574986676437 -5.6512115182513298 0 0 0 0 0.0028802078138596698 51.597352579228868 0 51.597352579228868 9.7091200582405008 0 0 0 0 -0.90430249280223052 55.70262403547656 0 55.70262403547656 15.111316594692369 0 0 0 0 -5.5241757011846175 56.216859613465772 0 56.216859613465772 33.982528909537052 0 0 0 0 -0.0093737115838918288 51.178905875810379 0 51.178905875810379 18.391819444625185 0 0 0 0 -5.9093841021217486 60.308044565324465 0 60.308044565324465 14.972457855091761 0 0 0 0 -4.7984222000415571 61.318916766662909 0 61.318916766662909 15.609179615349319 0 0 0 0 -1.7015510618451799 55.657136153109292 0 55.657136153109292 9.0582549870590583 0 0 0 0 -1.4356877944436945 53.531952751294128 0 53.531952751294128 12.067423107624279 0 0 0 0 -1.6612087111316214 55.616130857725153 0 55.616130857725153 3.9043034415714146 0 0 0 0 -3.069486345238488 59.079242669168224 0 59.079242669168224 8.5231988453159033 0 0 0 0 -4.6132461494379413 62.848135474214217 0 62.848135474214217 6.5763938869547616 0 0 0 0 -3.7242263724555755 63.390285925825097 0 63.390285925825097 6.415767808594353 0 0 0 0 -3.4252803595013575 64.578437910425038 0 64.578437910425038 2.6528026032064389 0 0 0 0 -2.8624282127104834 59.110287544348694 0 59.110287544348694 0.14799147901190679 0 0 0 0 -2.835218528285794 57.859479093793617 0 57.859479093793617 1.7839002126748369 0 0 0 0 -1.8083562165999414 54.049901454459537 0 54.049901454459537 0.8614650216921973 0 0 0 0 -1.4890060869347508 55.604777723144849 0 55.604777723144849 -1.0743452545139576 0 0 0 0 -0.45520705291653485 53.089164864032455 0 53.089164864032455 -0.71008824535414306 0 0 0 0 -0.45511688457645505 52.412040169477081 0 52.412040169477081 1.9777183293227267 0 0 0 0 0.37747877127844776 51.518986569673253 0 51.518986569673253 0.62337664125629999 0 0 0 0 -1.5362929874825504 55.059214010183879 0 55.059214010183879 4.4680506293532289 0 0 0 0 -0.19719041609562282 52.817085695122671 0 52.817085695122671 1.4487552973105267 0 0 0 0 -0.19063040403014142 52.956271121715403 0 52.956271121715403 4.2898312045805369 0 0 0 0 0.30157276843840464 52.150064657686642 0 52.150064657686642 5.0609035238965419 0 0 0 0 0.37779237948893751 51.563951865826027 0 51.563951865826027 2.0348629526174591 0 0 0 0 0.58735782852318152 51.337181565018312 0 51.337181565018312 2.2246562860804602 0 0 0 0 0.60284253805540011 52.194406955623549 0 52.194406955623549 3.4430611513589611 0 0 0 0 0.00015023950663817232 51.001287209045415 0 51.001287209045415 2.3119562859753273 0 0 0 0 0.00054084776547824731 51.350202701970431 0 51.350202701970431 4.6721169904760131 0 0 0 0 0.45137163694073479 53.714818157512752 0 53.714818157512752 7.0793167118295059 0 0 0 0 0.45028678799735644 50.775256250006407 0 50.775256250006407 1.1196594708429757 0 0 0 0 0.002608362852087751 50.695444471882219 0 50.695444471882219 1.3443059142956599 0 0 0 0 0.54744448360770548 51.277492991441306 0 51.277492991441306 1.8148950098253636 0 0 0 0 0.52627371982205062 50.842062028740195 0 50.842062028740195 1.1732010365105907 0 0 0 0 0.46526273867573309 50.572492554683208 0 50.572492554683208 0.81959288792518237 0 0 0 0 0.58691441680718981 50.871536032950416 0 50.871536032950416 1.1201375503323447 0 0 0 0 0.5871086764769291 50.919303037118574 0 50.919303037118574 0.58205134368699873 0 0 0 0 0.80983354023487664 50.754124138265126 0 50.754124138265126 0.69705255953641654 0 0 0 0 0.28103787476686648 51.205316846125413 0 51.205316846125413 1.0114699856885636 0 0 0 0 -0.54008408235381467 52.12388229958944 0 52.12388229958944 0.41126421753665454 0 0 0 0 0.29223766736845302 51.869874793508203 0 51.869874793508203 -0.1693874957928756 0 0 0 0 0.80911867521758951 51.284014356687898 0 51.284014356687898 0.44260021737693478 0 0 0 0 0.76038466427030471 51.230448302002998 0 51.230448302002998 0.3943745914677379 0 0 0 0 1.7507183999749714 51.026334604324234 0 51.026334604324234 0.45937089871273429 0 0 0 0 1.1459795352621143 50.957225088630665 0 50.957225088630665 0.67266954170645477 0 0 0 0 1.9021094671783203 51.292239324607436 0 51.292239324607436 0.47132165545860971 0 0 0 0 1.4258949298159109 50.772908995721991 0 50.772908995721991 0.0022732882546279143 0 0 0 0 1.0798569562520015 50.774972540351598 0 50.774972540351598 0.46359988979065747 0 0 0 0 1.2024733193213848 50.733158951418943 0 50.733158951418943 0.42937849601105427 0 0 0 0 0.71372811673313663 50.682775299969506 0 50.682775299969506 0.64672285434130572 0 0 0 0 0.72822854753282229 50.619015542792468 0 50.619015542792468 0.7028261140902714 0 0 0 0 0.48547068788252545 50.400270867869153 0 50.400270867869153 0.50893997325340479 0 0 0 0 0.93668998217299304 50.49306382519319 0 50.49306382519319 -0.0079614814754904728 0 0 0 0 0.68329560160987057 50.502836058791388 0 50.502836058791388 0.45823226559093655 0 0 0 0 0.032047689750015707 50.222834821611855 0 50.222834821611855 0.55007172569810336 0 0 0 0 0.53936138662368194 50.228212745314465 0 50.228212745314465 0.032002181419258022 0 0 0 0 -0.0081719346893578404 50.456677840449117 0 50.456677840449117 0.91159683391958879 0 0 0 0 0.44445400267522928 50.495430896019471 0 50.495430896019471 0.69437393285738835 0 0 0 0 7.9925140234422543 56.483673689225554 0 56.483673689225554 -2.2760876188781367 0 0 0 0 2.9250714286879429 58.346728787846587 0 58.346728787846587 -2.6372956041973907 0 0 0 0 8.3575601227083212 63.094715776406986 0 63.094715776406986 -4.6386906486995372 0 0 0 0 6.2692700204749485 63.256841565013247 0 63.256841565013247 -3.7091108085884343 0 0 0 0 1.6134946600171656 64.336484129377851 0 64.336484129377851 -3.3540678528254375 0 0 0 0 1.3766990951176119 58.069409519885966 0 58.069409519885966 -2.4443258216845152 0 0 0 0 -1.4856313438589392 55.011491926218618 0 55.011491926218618 -1.7385790262873115 0 0 0 0 0.32789904487856347 55.370682341538071 0 55.370682341538071 -1.898133150737408 0 0 0 0 -0.51414064308437446 53.710375043312752 0 53.710375043312752 -1.5467193338961351 0 0 0 0 0.19490176169642837 52.528787504046988 0 52.528787504046988 -0.41681102992043861 0 0 0 0 2.4796408555685616 51.726334403952308 0 51.726334403952308 0.06095267907625157 0 0 0 0 0.74279296284278162 52.663137992367375 0 52.663137992367375 -0.43952867027701359 0 0 0 0 2.7278760785547558 53.99352530299214 0 53.99352530299214 -1.1095326849780349 0 0 0 0 2.5903367300698505 54.176046667367643 0 54.176046667367643 -0.86087873082959732 0 0 0 0 6.5643203102799816 52.666510096795434 0 52.666510096795434 -0.49303937067361403 0 0 0 0 3.9705066717475646 52.839935727630483 0 52.839935727630483 0.68187001625381072 0 0 0 0 3.8728182141967409 51.511321319341107 0 51.511321319341107 0.28111195305871206 0 0 0 0 1.7154018112489666 51.96600082910274 0 51.96600082910274 0.52685991167260227 0 0 0 0 3.2768007859676231 52.116015442789887 0 52.116015442789887 0.64903281981185046 0 0 0 0 2.3317115987097736 51.064764194511014 0 51.064764194511014 0.00060687958625749161 0 0 0 0 7.4760570483218771 53.279968944237083 0 53.279968944237083 0.093702401615360031 0 0 0 0 4.6537160831030633 51.497004320972962 0 51.497004320972962 -0.00030004668735728046 0 0 0 0 15.034878384624221 55.665482297428184 0 55.665482297428184 -0.90465668512854336 0 0 0 0 8.9833929937458947 51.550328435015501 0 51.550328435015501 0.0037696597476456202 0 0 0 0 13.578651712878923 53.55630640022855 0 53.55630640022855 -1.643950147914552 0 0 0 0 7.0155070993367055 56.400986941500733 0 56.400986941500733 -2.0839247591794674 0 0 0 0 15.78476674304693 61.295715830559345 0 61.295715830559345 -5.0921041264237488 0 0 0 0 15.079823234532626 60.385849929176686 0 60.385849929176686 -5.9656982869324793 0 0 0 0 18.253586819954933 51.104883372230461 0 51.104883372230461 -0.0098475627702327984 0 0 0 0 33.976379355377333 56.240008370371186 0 56.240008370371186 -5.4623901019111827 0 0 0 0 37.979715332363867 93.169194257522349 0 93.169194257522349 -0.0020911049377900781 0 0 0 0 67.952758710754708 81.661791729078033 0 81.661791729078033 -6.9603294264022679 0 0 0 0 21.190405546387126 93.987548884920272 0 93.987548884920272 0.0038132217503061838 0 0 0 0 31.491250769814116 84.601700372757193 0 84.601700372757193 1.6148105418908472 0 0 0 0 24.918579577938544 90.767871376834819 0 90.767871376834819 -0.33661831720615965 0 0 0 0 19.181940097372319 87.296895289381666 0 87.296895289381666 -0.1459622406600829 0 0 0 0 31.569533486094009 76.817943744586543 0 76.817943744586543 -4.7965880522888256 0 0 0 0 29.815737099433932 77.500162706548167 0 77.500162706548167 -4.8974612418483616 0 0 0 0 13.595200567220331 73.973008191110353 0 73.973008191110353 -3.947379637082804 0 0 0 0 12.538540040949975 74.199941656019476 0 74.199941656019476 -3.6240660093476436 0 0 0 0 9.4765000670121822 88.405966083701003 0 88.405966083701003 -0.26245932656365767 0 0 0 0 18.081839056053553 81.403008130140137 0 81.403008130140137 -2.8242188333579179 0 0 0 0 5.4355371427142245 84.73415102127592 0 84.73415102127592 -2.7735172486469537 0 0 0 0 1.5575720028357409 81.494576359156099 0 81.494576359156099 -2.687383014763256 0 0 0 0 6.9224840224242712 71.760934488378837 0 71.760934488378837 -3.8983697551344676 0 0 0 0 -2.4030182837193479 73.799423182298142 0 73.799423182298142 -3.3266988392626899 0 0 0 0 2.6841812423610918 95.340100145416841 0 95.340100145416841 0.82549941924662562 0 0 0 0 0.66777023561954252 93.683074390522677 0 93.683074390522677 1.0829497572231048 0 0 0 0 0.093142375698306523 88.603535213557109 0 88.603535213557109 -0.52204109329954917 0 0 0 0 3.8299717062251375 91.873553695021542 0 91.873553695021542 -1.1928619614614959 0 0 0 0 4.7628943577023506 93.951934997245075 0 93.951934997245075 1.6329001997864907 0 0 0 0 10.58471936799242 89.244762535969244 0 89.244762535969244 -0.51393151040329244 0 0 0 0 5.5806060585059072 94.357034101019622 0 94.357034101019622 1.0587191104114275 0 0 0 0 2.9718280667054557 96.351117169860117 0 96.351117169860117 2.166201306957646 0 0 0 0 5.9775721625137521 96.08909127505558 0 96.08909127505558 2.1629008114130102 0 0 0 0 5.5811018486357398 95.746473634400445 0 95.746473634400445 2.1654494306687866 0 0 0 0 11.14905732872819 94.050936474464606 0 94.050936474464606 2.4172976982406453 0 0 0 0 10.023582654436382 92.919713143331251 0 92.919713143331251 1.6804642071826237 0 0 0 0 16.037138260704069 90.232880445219621 0 90.232880445219621 2.4570620725255381 0 0 0 0 11.182292739410059 95.355148798955213 0 95.355148798955213 0.0020252615879599034 0 0 0 0 8.749042783901757 93.982018235775286 0 93.982018235775286 2.1418943336671123 0 0 0 0 6.4116964724559864 96.623701400049526 0 96.623701400049526 0.0028743519540057605 0 0 0 0 5.3410546493429649 96.18320104406348 0 96.18320104406348 1.6888618266491449 0 0 0 0 3.6114979106177856 97.431035550473894 0 97.431035550473894 1.3965497357930872 0 0 0 0 4.2831271785240688 97.591686281916736 0 97.591686281916736 -0.0034659564102860062 0 0 0 0 2.8870768886799567 98.067294757370064 0 98.067294757370064 1.4212845923482291 0 0 0 0 3.6035939631974827 97.20789622442652 0 97.20789622442652 2.2454357237484146 0 0 0 0 3.9154508620883917 97.325948699225933 0 97.325948699225933 1.6974425174454399 0 0 0 0 1.7061157354221876 99.059849287502743 0 99.059849287502743 -0.061806727937664618 0 0 0 0 -0.061968830934180208 99.049901011980978 0 99.049901011980978 1.686381287369386 0 0 0 0 2.9739491312340363 98.391027424255753 0 98.391027424255753 0.017594042396694931 0 0 0 0 2.1490351462854278 98.186935180318414 0 98.186935180318414 1.4018891650016485 0 0 0 0 2.3352589261222576 97.816924517166342 0 97.816924517166342 2.4322573884292069 0 0 0 0 1.6607435917912454 98.602119171957384 0 98.602119171957384 1.5261755057096309 0 0 0 0 1.4382096501829666 98.148613166482903 0 98.148613166482903 2.1451839762551117 0 0 0 0 0.018166144517781826 98.33450927079673 0 98.33450927079673 3.0510259280049468 0 0 0 0 -0.0044304653222267121 97.489581168771679 0 97.489581168771679 4.3712798485355506 0 0 0 0 1.4341644117125867 97.474842520859852 0 97.474842520859852 3.5147274964234612 0 0 0 0 1.3590974793864987 97.56961773744149 0 97.56961773744149 3.7643359926917128 0 0 0 0 2.2561807441829274 97.885491743603211 0 97.885491743603211 2.4456664863187143 0 0 0 0 1.9062949052118654 96.915350615571356 0 96.915350615571356 4.7695248747268124 0 0 0 0 2.05608215011857 97.170214521502999 0 97.170214521502999 3.6902593235174237 0 0 0 0 1.4500973572930678 96.156059516266851 0 96.156059516266851 5.5440244209353295 0 0 0 0 0.0043686558378829288 96.57582949400927 0 96.57582949400927 6.3979155006417159 0 0 0 0 3.4810100530366412 96.75232315439689 0 96.75232315439689 2.0882333682488934 0 0 0 0 2.4990967256092063 97.535671085156935 0 97.535671085156935 2.9279424638216369 0 0 0 0 2.6241452924522832 97.451253192812601 0 97.451253192812601 2.247505973805227 0 0 0 0 2.2993908102418175 96.793919415331288 0 96.793919415331288 2.9085051588754034 0 0 0 0 2.2891987584837352 96.802020158306163 0 96.802020158306163 2.9103376410914734 0 0 0 0 1.5538766128127577 95.931544930808286 0 95.931544930808286 2.099224300402355 0 0 0 0 1.1128175862410501 94.7969843542852 0 94.7969843542852 2.059601067614949 0 0 0 0 1.1787321707356568 94.478770452395452 0 94.478770452395452 2.9597394201106724 0 0 0 0 1.6856568297032481 95.762668246607177 0 95.762668246607177 5.862512057870731 0 0 0 0 1.0537217968766868 91.533151140599841 0 91.533151140599841 6.1711757129793128 0 0 0 0 0.20183054367129216 92.201709439007118 0 92.201709439007118 6.4239050966116338 0 0 0 0 -1.0965752220990908 90.745527334164535 0 90.745527334164535 -0.76007831795868697 0 0 0 0 -1.0456366071048535 89.866560683267835 0 89.866560683267835 2.0577854061052676 0 0 0 0 2.2706527630704869 94.104598187260081 0 94.104598187260081 8.481686337419319 0 0 0 0 1.5481186928125723 95.690368657233364 0 95.690368657233364 8.5695223930745215 0 0 0 0 2.5804428716344034 95.232413905434782 0 95.232413905434782 4.7987299094909464 0 0 0 0 3.1892850063271112 92.868590384364154 0 92.868590384364154 9.3970590615962521 0 0 0 0 1.0838233965536261 93.478658700108099 0 93.478658700108099 13.294641456241152 0 0 0 0 -0.00051630760625410999 95.084911903862348 0 95.084911903862348 11.170923677481824 0 0 0 0 1.6018189421387774 90.930513259373868 0 90.930513259373868 16.436056551603997 0 0 0 0 1.4610922121893992 85.017753072743574 0 85.017753072743574 31.465087305812744 0 0 0 0 0.0065963325877362259 94.188028748597304 0 94.188028748597304 19.227475230080131 0 0 0 0 -0.18550774916822377 86.467568991537803 0 86.467568991537803 14.658641521487766 0 0 0 0 -0.64803050651176619 90.717506816304933 0 90.717506816304933 26.951136620307807 0 0 0 0 -5.2472439159995758 77.025651404408904 0 77.025651404408904 31.767964579155318 0 0 0 0 -4.9636176921964008 77.124093997226851 0 77.124093997226851 30.700925301729285 0 0 0 0 -0.0039219318235834914 93.343219896805493 0 93.343219896805493 37.943955818347831 0 0 0 0 -6.7875715925322737 81.721094552904674 0 81.721094552904674 67.971856166885047 0 0 0 0 -1.9689767970780281 84.997811723151983 0 84.997811723151983 4.2836014574073715 0 0 0 0 -3.3491341747100876 82.336472692862912 0 82.336472692862912 -0.81650727418468705 0 0 0 0 -1.3293685938666755 87.23429283847554 0 87.23429283847554 16.179896239648428 0 0 0 0 -1.8581508629243331 84.124473638286474 0 84.124473638286474 7.03749701922154 0 0 0 0 -4.0731068519064593 73.855040860894917 0 73.855040860894917 17.497961341282519 0 0 0 0 -3.5820853857442785 74.808975627518294 0 74.808975627518294 12.231262808893916 0 0 0 0 -3.5346726826791155 72.514934013866593 0 72.514934013866593 4.4623683412867949 0 0 0 0 -3.3024151477553687 74.198365833206992 0 74.198365833206992 -2.4613751584810188 0 0 0 0 -4.3335275039631824 71.863937806627007 0 71.863937806627007 -7.4458969103485515 0 0 0 0 -3.5048848413629798 84.284397598601174 0 84.284397598601174 -7.1387017918858238 0 0 0 0 -7.9767151991219407 85.241314493168375 0 85.241314493168375 -17.669378659019412 0 0 0 0 -6.6542725483820959 81.233150386449466 0 81.233150386449466 -7.7114810980684751 0 0 0 0 -5.0314302985560744 74.910504369845739 0 74.910504369845739 -16.08592076878665 0 0 0 0 -7.7749256205660799 71.850927090115306 0 71.850927090115306 -18.503248139107427 0 0 0 0 -10.48646550214562 77.884048262949477 0 77.884048262949477 -31.502897483274189 0 0 0 0 -16.932863933359386 74.01669647329004 0 74.01669647329004 -27.78803079870795 0 0 0 0 -24.317012218964351 90.381607014572296 0 90.381607014572296 -62.091531773885954 0 0 0 0 -62.048971335311116 90.501509957356035 0 90.501509957356035 -24.119766772044386 0 0 0 0 -27.61183505802012 74.105628059613366 0 74.105628059613366 -16.730849615594821 0 0 0 0 -31.462561900217345 77.714553623534727 0 77.714553623534727 -9.815185739450726 0 0 0 0 -21.458795919709814 88.138856528217218 0 88.138856528217218 -23.77264609149492 0 0 0 0 -15.1456323521748 79.635651994565308 0 79.635651994565308 -12.335699164538141 0 0 0 0 -19.067206500955763 79.134294386776503 0 79.134294386776503 -5.307553011662776 0 0 0 0 -9.3670383976370317 86.117192009071346 0 86.117192009071346 -11.087925920431189 0 0 0 0 -15.193521638942116 72.727850396791041 0 72.727850396791041 -8.3907945536543593 0 0 0 0 -16.251277317497049 74.504577093537222 0 74.504577093537222 -5.143901419369513 0 0 0 0 -9.493478366460522 71.216518862418297 0 71.216518862418297 -3.9382846183978018 0 0 0 0 -4.9003976250678818 82.250223920604412 0 82.250223920604412 -4.6286632048356751 0 0 0 0 -6.9564503216051889 83.014299677420468 0 83.014299677420468 -2.8454650739086098 0 0 0 0 -3.4847915709286212 89.50893426685127 0 89.50893426685127 -1.2321726135185216 0 0 0 0 -0.81974094319519963 88.486401949591141 0 88.486401949591141 -4.7663592181991135 0 0 0 0 -0.75825794468289587 92.809447242382703 0 92.809447242382703 0.86687730314766398 0 0 0 0 0.25982131967083433 92.751125272063291 0 92.751125272063291 -1.9142888953706461 0 0 0 0 -3.9924697100728395 87.8426299026994 0 87.8426299026994 -1.9437490939746769 0 0 0 0 -3.8147638119870066 89.220119958821044 0 89.220119958821044 -7.2675065703390374 0 0 0 0 -9.6137565896672186 84.574538276716964 0 84.574538276716964 -4.6783626675442509 0 0 0 0 
</DataArray>
<DataArray type="Float64" Name="displacement_divergence" format="ascii">
0.011583756704268299 0.011328819404121115 0.018032218358026608 0.022541196628866667 0.019626203168220613 0.02828556385966241 0.018265506609682847 0.022746135314273275 0.047024598779609406 0.031173546702622845 0.027030908371284221 0.034382589253742823 0.025539998605976694 0.034280913439694971 0.026510411968518444 0.023727033571588809 0.029872134392088245 0.02214901131951974 0.024247180392268142 0.0039639193764284819 0.030905661451273492 0.027543132274252091 0.0314593438552353 0.026932792893217372 0.03553378786237199 0.042203069613971245 0.045552273297190027 0.047143136463501545 0.07868026318060739 0.15194945047498409 0.089619755387921884 0.11414692357289535 0.090381194962398992 0.079499479739413736 0.043404694532722374 0.045011164796008529 0.0059230182142810395 -0.003395402462579078 -0.033602769168891378 0.033954393984579501 0.028869726411060448 0.10579430539741264 0.0045385014727635231 -0.015920522140793203 -0.043883242493421654 0.048929255002013505 0.079001519300107792 0.21743073900126841 0.18542270730669053 0.36465131013743868 0.57069411474178189 0.18039509378962215 0.2829814392936072 0.10354434386000211 0.23454194997973798 -0.36754424111479445 -0.52058395561400594 -0.59933522688742169 -0.48351456636272072 -0.94115824352292865 -0.93541875374305805 -0.4936541110444983 -0.60552185059318342 -0.35232912841203695 -0.2562161968313692 -0.092497178212305187 -0.17391612371748477 -0.15536194444637913 -0.096064602253592035 -0.31864894292496915 -0.2091917300974746 -0.20772882854787156 -0.16372877305175332 -0.05864468291561542 -0.10897898975284548 -0.039141303008616735 -0.058206149634551708 -0.093942533016870389 -0.10356814710048168 -0.14969841573734399 -0.14464763674900488 -0.31040461548128651 -0.27140919696052557 -0.31822792131887923 -0.25535457111251869 -0.18785493966620859 -0.013400490266406884 -0.09289881943090128 -0.014361308516490645 -0.057141652999174397 0.11294131966029222 0.050861508324364202 0.049566904268146361 0.040617539590105167 0.00045668417674809073 -0.020594525638779171 -0.047789477164517091 -0.011993193948652895 0.029448902208289107 0.063979045908311133 0.032977437221745252 0.021715362389866932 0.055960335940658856 0.049006962713713097 0.084015450016397569 0.10708322828996486 0.15106173782089072 0.09393004996981133 0.08122637136125177 0.046085453146633405 0.18111425428305039 0.22058214204312554 0.15050507983193026 0.21708189740670025 0.28290728167095236 0.19615531101517081 0.56899942991054642 0.36535697673806766 0.37845519051874466 0.61133520618126824 0.26356757710294643 0.25140530588893728 0.26570442309478515 0.14541219807652017 0.32833134423572369 0.19630592685206355 0.11260630094385082 0.18165507998557659 0.064903786084191381 0.10649527990143515 0.074876861052818322 0.10675020805866403 0.14945466412436881 0.12733048541758901 0.067872890081094095 0.074754273985055075 0.041977614469132618 0.079887508553804221 0.031353763697340664 -0.00048278854512817659 -0.022247357308204485 0.011527825048026408 0.018633594858037617 0.0093405254058878118 0.12992828755407482 0.089027875599833051 0.051402031122880443 0.1496196981227742 0.029777554177634169 0.035545037974972216 0.016376528825218672 0.016200524125276675 0.030503689736165612 0.035750867561193389 0.047441593304654806 0.031468562705997627 0.046764254176932862 0.051641962781608375 0.049195347813902779 0.044265231264750626 0.070091721083508501 0.05793869808829194 0.068890610167862132 0.052939211627784033 0.052217565521730958 0.032327753552403138 0.0354397910077342 0.055213435606637606 0.050559859897696846 0.054888908708512929 0.048771449436164627 0.058391441127279897 0.042877549890822708 0.076639230033677563 0.056137879120616185 0.070516292032885231 0.064053716330392696 0.042567230938564737 0.050100938721223676 0.18414080746550621 0.10917287596891612 0.10822456317696227 0.081207298620115331 0.12994531258213415 0.11230089901376106 0.058559623054551757 0.092593845769265215 0.06302847162934011 0.015195093660404169 -0.010360981090530075 0.019690365043854019 0.019693364446887074 -0.01698428472313207 0.023238210993546504 0.088339213278035178 0.092451790393545785 0.082854263012805962 0.14257056147446789 0.18215180670667586 0.23685544056648489 0.26511784048575127 0.24817938302216325 0.37939391430248603 0.6098591294868978 0.3312279364881876 0.20618982532776364 -0.25857891382987885 -0.14367924153167921 -0.21154984947072597 -0.26001590702944943 -0.11977633618424477 -0.057779583692905145 -0.10946561269225352 -0.040502353925732759 -0.060183484113073948 -0.019982922693111416 -0.049863915330363717 -0.061503596873250022 -0.14815079361950767 -0.11360726133638721 -0.2491687504936575 -0.20832637636797235 -0.096965535660356927 -0.10308548784594551 -0.13827098895122902 -0.057075401004298421 -0.21290572589998913 -0.23487463815680831 -0.41297336874320933 -0.44492727108479779 -0.45250644464963141 -0.27578676820412085 -0.41963748391405797 -0.44794896566919995 -0.86400390789871873 -0.86157545323038409 -0.93347261922715319 -0.93930618468325555 -0.48866238041883214 -0.6052262728639386 -0.50780773151882919 -0.35810570289844623 -0.59803025429713763 -0.47829411596938787 -0.25856652092772237 -0.31163411378676997 -0.091886300117565156 -0.19464027288830632 -0.15206576199781185 -0.14585777317390081 -0.31352507126086548 -0.2663751013662079 -0.16327302777635744 -0.20624144420431634 -0.10846968008809377 -0.09620638076122745 -0.061605289435315846 -0.10916871044951204 -0.088673469410308847 -0.15555831611360293 -0.17321470359377322 -0.09218594459706253 -0.34138150881581097 -0.25661628301253003 -0.20385800548689748 -0.31527826052873031 0.19424000532108732 0.28414028203780184 0.56916706416705143 0.36764891466082439 0.18126147505940438 0.21621514830615673 0.14713407850428073 0.2126347062636107 0.044861894608794195 0.10907425000154936 0.039262954750338253 0.053830828722774449 -0.015449555125896408 -0.054288734673974215 -0.021026366312220546 -0.018937823898150796 -0.051267026828973883 -0.023305905965416152 0.030452028894924155 0.020017108250694804 0.058635152837414495 0.025031297624297011 0.081984016011006133 0.10724952584669989 0.048253106642123456 0.056240282292073118 0.080918073788284417 0.046242130509640766 0.093453156764828904 0.15061376697540396 0.031398925176806536 0.0269382855429523 0.047246789868658823 0.033989495126650837 0.025697112532017563 0.034141039342792112 0.023383200403277016 0.030137721995425082 0.025850157209111657 -0.0025763972963437354 0.0024570034315125611 0.025034377851888223 0.023095185114762273 0.044201785973753793 0.036372981539372518 0.047468622452740306 0.028563364361410493 0.030869136920854245 0.032637036306649492 0.027209019421485792 0.028621093232464645 0.019888213222719386 0.018574570013951686 0.022830557344018843 0.011642388308958473 0.011427271360859368 0.018068497984606857 0.0227765587106461 0.11432852809128402 0.0057555164898115407 0.074377389480173584 0.051203184237730071 -0.03481146385616718 -0.021352534531338563 -0.064484207402923488 -0.031404682117176286 -0.041217199539610228 -0.0044381853644779312 0.050811870692895056 0.0060652858513154939 0.032366867871536087 0.034589159984808049 0.12142561879212899 0.093047533760026724 0.08307860334511119 0.044845234458431804 0.078516672115593877 0.046646369565920054 0.15139518899874815 0.093068320728315612 0.28260443398991342 0.1797432530698701 0.23869403129928379 0.098631646803147177 0.21385325233246721 0.18228249895200399 0.36487478514369442 0.57027978506932087 0.37977624227426077 0.60992429284352312 0.21194218768137318 0.33106061311704948 0.24581961260732443 0.19035977856712094 0.2677294543380544 0.24918275857585659 0.096478209301376516 0.089144740316022819 0.092140407404482261 0.15257620222695856 0.026620198940673134 -0.011298110119273286 0.030241142672898569 -0.05729717122981981 0.035096806616078169 0.017507199928427752 -0.0042889871760110054 0.026371097447638617 0.06395794557488621 0.1007078785758919 0.06639325168917079 0.051380293736629667 0.081404729739265491 0.077465512793045477 0.13566355026968857 0.11704046861619033 0.18494200333229593 0.11184318000998061 0.10890937117568698 0.064145708244099708 0.070299164759919819 0.050080476464110291 0.042796612221137682 0.043083614810282 0.058490296869461389 0.056128933795339661 0.016443090074844235 0.016244124564352092 0.029915431736306175 0.035509243112871403 0.047675163145514787 0.031869190975008399 0.035833936264385358 0.030691920725224975 0.043668493832132782 0.049488919081361438 0.051234334720779984 0.047018472305013326 0.066758197799385854 0.057463414736358964 0.069941217782282905 0.064022841564794319 0.055692434212851083 0.054270391894306158 0.048716512662574464 0.052078959691174265 0.051995363995752442 0.036531009132150766 0.031724186538559351 0.04138471590846074 0.075481688875736808 0.0722489750985576 0.066257356402829259 -0.018566535400580619 0.010121487990002009 0.10752339100489827 0.10117641085887463 0.07379172781125308 0.12586344067923227 0.1437846485279497 0.11170407369875157 0.18037875493742828 0.32926179518002208 0.19234071562667587 0.14473133772319713 0.26303106113796026 0.2652072066315565 0.25737307609533033 0.37940033886524382 0.61184284574352676 0.023146246603294784 -0.041656414488947746 0.14850527645781675 0.051793461562970988 0.13424854489376098 0.086491774231497232 0.0092769565860770092 -0.057637903062362383 -0.11779424414311812 -0.10643586633248761 -0.25646093858141411 -0.14365753646450585 -0.2111735106734276 -0.26278173759673784 -0.41989362985419804 -0.44720894732067507 -0.86408543992850217 -0.8616873810735548 -0.44342684673614796 -0.41277747639668227 -0.45231442011205014 -0.27481331516712793 -0.2437475951261856 -0.20454964318068036 -0.23584316192596422 -0.21395178736866782 -0.13431762984858597 -0.095290608299034574 -0.098019153955138494 -0.047169641844469784 -0.055861001613941141 0.0010861935846464693 -0.016544675756996696 -0.05936218804047666 -0.11082270382326165 -0.14292119257211605 
</DataArray>
</CellData>
</Piece>
</UnstructuredGrid>
</VTKFile>
