<?xml version="1.0"?>
<VTKFile type="UnstructuredGrid" version="0.1" byte_order="LittleEndian">
<UnstructuredGrid>
<Piece NumberOfPoints="1416" NumberOfCells="472">
<Points>
<DataArray type="Float64" NumberOfComponents="3" format="ascii">
0 0 0 0.10457868679590381 0.1045786867961369 0 0 0.14285714285773729 0 0 0 0 0.10457868679590381 0.1045786867961369 0 0.14285714285686729 0 0 0 0.14285714285773729 0 0.1205280434882494 0.2198107335145128 0 0 0.28571428571547469 0 0.10457868679590381 0.1045786867961369 0 0 0.14285714285773729 0 0.1205280434882494 0.2198107335145128 0 0.10457868679590381 0.1045786867961369 0 0.1205280434882494 0.2198107335145128 0 0.23239159885774061 0.13190444287250189 0 0.1205280434882494 0.2198107335145128 0 0.23239159885774061 0.13190444287250189 0 0.24676305227411319 0.28687957031901817 0 0.23239159885774061 0.13190444287250189 0 0.14285714285686729 0 0 0.28571428571359381 0 0 0.10457868679590381 0.1045786867961369 0 0.23239159885774061 0.13190444287250189 0 0.14285714285686729 0 0 0 0.42857142857321201 0 0.12318626960338119 0.35806369368234708 0 0.1237179148261041 0.50000000000170131 0 0.1205280434882494 0.2198107335145128 0 0 0.28571428571547469 0 0.12318626960338119 0.35806369368234708 0 0 0.42857142857321201 0 0 0.28571428571547469 0 0.12318626960338119 0.35806369368234708 0 0.12318626960338119 0.35806369368234708 0 0.24676305227411319 0.28687957031901817 0 0.24734722211536869 0.42872490132986318 0 0.1205280434882494 0.2198107335145128 0 0.12318626960338119 0.35806369368234708 0 0.24676305227411319 0.28687957031901817 0 0.12318626960338119 0.35806369368234708 0 0.24734722211536869 0.42872490132986318 0 0.1237179148261041 0.50000000000170131 0 0.24734722211536869 0.42872490132986318 0 0.37092720430330528 0.3575352362405908 0 0.36988311095923349 0.50220080181584725 0 0.24676305227411319 0.28687957031901817 0 0.24734722211536869 0.42872490132986318 0 0.37092720430330528 0.3575352362405908 0 0.24676305227411319 0.28687957031901817 0 0.37092720430330528 0.3575352362405908 0 0.36915712373071241 0.21636596932123339 0 0.37092720430330528 0.3575352362405908 0 0.49672432738210071 0.28393829206612331 0 0.49462213035585811 0.42900362539316111 0 0.37092720430330528 0.3575352362405908 0 0.49672432738210071 0.28393829206612331 0 0.36915712373071241 0.21636596932123339 0 0.37092720430330528 0.3575352362405908 0 0.49462213035585811 0.42900362539316111 0 0.36988311095923349 0.50220080181584725 0 0.23239159885774061 0.13190444287250189 0 0.28571428571359381 0 0 0.35859653742646141 0.095659861108573122 0 0.28571428571359381 0 0 0.35859653742646141 0.095659861108573122 0 0.42857142857032021 0 0 0.23239159885774061 0.13190444287250189 0 0.35859653742646141 0.095659861108573122 0 0.36915712373071241 0.21636596932123339 0 0.23239159885774061 0.13190444287250189 0 0.24676305227411319 0.28687957031901817 0 0.36915712373071241 0.21636596932123339 0 0.35859653742646141 0.095659861108573122 0 0.36915712373071241 0.21636596932123339 0 0.49780213970257631 0.12951344063459669 0 0.49672432738210071 0.28393829206612331 0 0.36915712373071241 0.21636596932123339 0 0.49780213970257631 0.12951344063459669 0 0.49780213970257631 0.12951344063459669 0 0.42857142857032021 0 0 0.57142857142744297 0 0 0.35859653742646141 0.095659861108573122 0 0.49780213970257631 0.12951344063459669 0 0.42857142857032021 0 0 0.49780213970257631 0.12951344063459669 0 0.57142857142744297 0 0 0.63660835508033609 0.094591959883232241 0 0.71428571428496201 0 0 0.63660835508033609 0.094591959883232241 0 0.77046111744085066 0.12953438606218601 0 0.57142857142744297 0 0 0.71428571428496201 0 0 0.63660835508033609 0.094591959883232241 0 0.62906423254584809 0.2139119727193784 0 0.74962020231513216 0.28479798582519888 0 0.77046111744085066 0.12953438606218601 0 0.63660835508033609 0.094591959883232241 0 0.62906423254584809 0.2139119727193784 0 0.77046111744085066 0.12953438606218601 0 0.49780213970257631 0.12951344063459669 0 0.63660835508033609 0.094591959883232241 0 0.62906423254584809 0.2139119727193784 0 0.49672432738210071 0.28393829206612331 0 0.49780213970257631 0.12951344063459669 0 0.62906423254584809 0.2139119727193784 0 0.49672432738210071 0.28393829206612331 0 0.62906423254584809 0.2139119727193784 0 0.61877313365430409 0.35729950808777972 0 0.49672432738210071 0.28393829206612331 0 0.49462213035585811 0.42900362539316111 0 0.61877313365430409 0.35729950808777972 0 0.49462213035585811 0.42900362539316111 0 0.61877313365430409 0.35729950808777972 0 0.61994046021572546 0.50050770882833406 0 0.61877313365430409 0.35729950808777972 0 0.74395712453556107 0.42868954426104389 0 0.61994046021572546 0.50050770882833406 0 0.62906423254584809 0.2139119727193784 0 0.61877313365430409 0.35729950808777972 0 0.74962020231513216 0.28479798582519888 0 0.61877313365430409 0.35729950808777972 0 0.74395712453556107 0.42868954426104389 0 0.74962020231513216 0.28479798582519888 0 0.74962020231513216 0.28479798582519888 0 0.87039329201519555 0.35777862987572301 0 0.88067757021423154 0.21876991540137231 0 0.74395712453556107 0.42868954426104389 0 0.74962020231513216 0.28479798582519888 0 0.87039329201519555 0.35777862987572301 0 0.74395712453556107 0.42868954426104389 0 0.87039329201519555 0.35777862987572301 0 0.87402660110768737 0.50072468068975784 0 0.87039329201519555 0.35777862987572301 0 0.87402660110768737 0.50072468068975784 0 1 0.42857142857032021 0 0.87039329201519555 0.35777862987572301 0 1 0.28571428571359381 0 1 0.42857142857032021 0 0.87039329201519555 0.35777862987572301 0 0.88067757021423154 0.21876991540137231 0 1 0.28571428571359381 0 0.88067757021423154 0.21876991540137231 0 1 0.14285714285686729 0 1 0.28571428571359381 0 0.88067757021423154 0.21876991540137231 0 0.89542131320405993 0.10457868679576519 0 1 0.14285714285686729 0 0.89542131320405993 0.10457868679576519 0 0.85714285714248095 0 0 1 0 0 0.89542131320405993 0.10457868679576519 0 1 0.14285714285686729 0 1 0 0 0.71428571428496201 0 0 0.85714285714248095 0 0 0.77046111744085066 0.12953438606218601 0 0.89542131320405993 0.10457868679576519 0 0.85714285714248095 0 0 0.77046111744085066 0.12953438606218601 0 0.74962020231513216 0.28479798582519888 0 0.88067757021423154 0.21876991540137231 0 0.77046111744085066 0.12953438606218601 0 0.88067757021423154 0.21876991540137231 0 0.89542131320405993 0.10457868679576519 0 0.77046111744085066 0.12953438606218601 0 0.77107999172528308 0.87126586664953709 0 0.88289663992475431 0.7838324948760429 0 0.75462543859776565 0.71847561378613189 0 0.77107999172528308 0.87126586664953709 0 0.89597942421617771 0.89597942421617771 0 0.88289663992475431 0.7838324948760429 0 0.77107999172528308 0.87126586664953709 0 0.89597942421617771 0.89597942421617771 0 0.85714285714248095 1 0 0.77107999172528308 0.87126586664953709 0 0.71428571428496201 1 0 0.85714285714248095 1 0 0.89597942421617771 0.89597942421617771 0 1 1 0 1 0.85714285714248095 0 0.89597942421617771 0.89597942421617771 0 0.85714285714248095 1 0 1 1 0 0.88289663992475431 0.7838324948760429 0 1 0.71428571428496201 0 1 0.85714285714248095 0 0.89597942421617771 0.89597942421617771 0 0.88289663992475431 0.7838324948760429 0 1 0.85714285714248095 0 0.88289663992475431 0.7838324948760429 0 0.87569498500930032 0.64584549317696871 0 1 0.71428571428496201 0 0.87569498500930032 0.64584549317696871 0 1 0.57142857142744297 0 1 0.71428571428496201 0 0.87402660110768737 0.50072468068975784 0 1 0.42857142857032021 0 1 0.57142857142744297 0 0.87569498500930032 0.64584549317696871 0 0.87402660110768737 0.50072468068975784 0 1 0.57142857142744297 0 0.87569498500930032 0.64584549317696871 0 0.87402660110768737 0.50072468068975784 0 0.75217156042298328 0.57142857143374093 0 0.74395712453556107 0.42868954426104389 0 0.87402660110768737 0.50072468068975784 0 0.75217156042298328 0.57142857143374093 0 0.88289663992475431 0.7838324948760429 0 0.87569498500930032 0.64584549317696871 0 0.75462543859776565 0.71847561378613189 0 0.87569498500930032 0.64584549317696871 0 0.75217156042298328 0.57142857143374093 0 0.75462543859776565 0.71847561378613189 0 0.75462543859776565 0.71847561378613189 0 0.62020719605389174 0.64337743701966787 0 0.62820860079938645 0.78795395941460822 0 0.75217156042298328 0.57142857143374093 0 0.75462543859776565 0.71847561378613189 0 0.62020719605389174 0.64337743701966787 0 0.74395712453556107 0.42868954426104389 0 0.75217156042298328 0.57142857143374093 0 0.61994046021572546 0.50050770882833406 0 0.75217156042298328 0.57142857143374093 0 0.61994046021572546 0.50050770882833406 0 0.62020719605389174 0.64337743701966787 0 0.49462213035585811 0.42900362539316111 0 0.61994046021572546 0.50050770882833406 0 0.49336243329648061 0.57404262755753699 0 0.61994046021572546 0.50050770882833406 0 0.62020719605389174 0.64337743701966787 0 0.49336243329648061 0.57404262755753699 0 0.62020719605389174 0.64337743701966787 0 0.49336243329648061 0.57404262755753699 0 0.49462248589941132 0.72194975613875201 0 0.62020719605389174 0.64337743701966787 0 0.62820860079938645 0.78795395941460822 0 0.49462248589941132 0.72194975613875201 0 0.62820860079938645 0.78795395941460822 0 0.49817729930567289 0.8734572123725528 0 0.49462248589941132 0.72194975613875201 0 0.62820860079938645 0.78795395941460822 0 0.63663603550854941 0.90653540768733964 0 0.49817729930567289 0.8734572123725528 0 0.77107999172528308 0.87126586664953709 0 0.62820860079938645 0.78795395941460822 0 0.63663603550854941 0.90653540768733964 0 0.77107999172528308 0.87126586664953709 0 0.75462543859776565 0.71847561378613189 0 0.62820860079938645 0.78795395941460822 0 0.77107999172528308 0.87126586664953709 0 0.63663603550854941 0.90653540768733964 0 0.71428571428496201 1 0 0.63663603550854941 0.90653540768733964 0 0.71428571428496201 1 0 0.57142857142744297 1 0 0.63663603550854941 0.90653540768733964 0 0.49817729930567289 0.8734572123725528 0 0.57142857142744297 1 0 0.49817729930567289 0.8734572123725528 0 0.35714285714195693 0.91161422340059473 0 0.42857142857032021 1 0 0.49817729930567289 0.8734572123725528 0 0.42857142857032021 1 0 0.57142857142744297 1 0 0.49817729930567289 0.8734572123725528 0 0.36830736131566921 0.79637781586757328 0 0.49462248589941132 0.72194975613875201 0 0.49817729930567289 0.8734572123725528 0 0.36830736131566921 0.79637781586757328 0 0.35714285714195693 0.91161422340059473 0 0.36830736131566921 0.79637781586757328 0 0.35714285714195693 0.91161422340059473 0 0.23134730558288971 0.87272440266253748 0 0.36830736131566921 0.79637781586757328 0 0.2437647729866553 0.72095762992813051 0 0.23134730558288971 0.87272440266253748 0 0.35714285714195693 0.91161422340059473 0 0.42857142857032021 1 0 0.28571428571359381 1 0 0.35714285714195693 0.91161422340059473 0 0.23134730558288971 0.87272440266253748 0 0.28571428571359381 1 0 0.49462213035585811 0.42900362539316111 0 0.49336243329648061 0.57404262755753699 0 0.36988311095923349 0.50220080181584725 0 0.49336243329648061 0.57404262755753699 0 0.36733467197449221 0.65305064773421995 0 0.36988311095923349 0.50220080181584725 0 0.36830736131566921 0.79637781586757328 0 0.49462248589941132 0.72194975613875201 0 0.36733467197449221 0.65305064773421995 0 0.49336243329648061 0.57404262755753699 0 0.49462248589941132 0.72194975613875201 0 0.36733467197449221 0.65305064773421995 0 0.36733467197449221 0.65305064773421995 0 0.24743582965178351 0.57142857143075443 0 0.2437647729866553 0.72095762992813051 0 0.36830736131566921 0.79637781586757328 0 0.36733467197449221 0.65305064773421995 0 0.2437647729866553 0.72095762992813051 0 0.36733467197449221 0.65305064773421995 0 0.36988311095923349 0.50220080181584725 0 0.24743582965178351 0.57142857143075443 0 0.24734722211536869 0.42872490132986318 0 0.36988311095923349 0.50220080181584725 0 0.24743582965178351 0.57142857143075443 0 0.24743582965178351 0.57142857143075443 0 0.1244455545696076 0.6464500561593125 0 0.1237179148261041 0.50000000000170131 0 0.24734722211536869 0.42872490132986318 0 0.24743582965178351 0.57142857143075443 0 0.1237179148261041 0.50000000000170131 0 0.24743582965178351 0.57142857143075443 0 0.2437647729866553 0.72095762992813051 0 0.1244455545696076 0.6464500561593125 0 0.2437647729866553 0.72095762992813051 0 0.1244455545696076 0.6464500561593125 0 0.1237179148254899 0.78571428571438473 0 0.1244455545696076 0.6464500561593125 0 0 0.71428571428630883 0 0.1237179148254899 0.78571428571438473 0 0.1244455545696076 0.6464500561593125 0 0 0.71428571428630883 0 0 0.57142857143015668 0 0.1244455545696076 0.6464500561593125 0 0.1237179148261041 0.50000000000170131 0 0 0.57142857143015668 0 0 0.42857142857321201 0 0.1237179148261041 0.50000000000170131 0 0 0.57142857143015668 0 0.23134730558288971 0.87272440266253748 0 0.1045786867952702 0.89542131320454943 0 0.14285714285686729 1 0 0.23134730558288971 0.87272440266253748 0 0.14285714285686729 1 0 0.28571428571359381 1 0 0.2437647729866553 0.72095762992813051 0 0.23134730558288971 0.87272440266253748 0 0.1237179148254899 0.78571428571438473 0 0.23134730558288971 0.87272440266253748 0 0.1237179148254899 0.78571428571438473 0 0.1045786867952702 0.89542131320454943 0 0.1237179148254899 0.78571428571438473 0 0 0.85714285714246041 0 0.1045786867952702 0.89542131320454943 0 0 0.71428571428630883 0 0.1237179148254899 0.78571428571438473 0 0 0.85714285714246041 0 0.1045786867952702 0.89542131320454943 0 0 1 0 0.14285714285686729 1 0 0 0.85714285714246041 0 0.1045786867952702 0.89542131320454943 0 0 1 0 0 1 0 0.1045786867955264 1.1045786867956 0 0 1.142857142857143 0 0 1 0 0.1045786867955264 1.1045786867956 0 0.14285714285686729 1 0 0.14285714285686729 1 0 0.21715807700202711 1.1165487808367209 0 0.28571428571359381 1 0 0.1045786867955264 1.1045786867956 0 0.14285714285686729 1 0 0.21715807700202711 1.1165487808367209 0 0.1045786867955264 1.1045786867956 0 0.21715807700202711 1.1165487808367209 0 0.12817051038898589 1.2304843984160669 0 0.21715807700202711 1.1165487808367209 0 0.12817051038898589 1.2304843984160669 0 0.28318912013054198 1.239801768054871 0 0.1045786867955264 1.1045786867956 0 0.12817051038898589 1.2304843984160669 0 0 1.142857142857143 0 0.12817051038898589 1.2304843984160669 0 0 1.142857142857143 0 0 1.285714285714286 0 0.088385776599928662 1.3571428571428581 0 0 1.285714285714286 0 0 1.428571428571429 0 0.12817051038898589 1.2304843984160669 0 0.088385776599928662 1.3571428571428581 0 0 1.285714285714286 0 0 1.428571428571429 0 0.1265427876282578 1.4981772993068549 0 0 1.5714285714285721 0 0.088385776599928662 1.3571428571428581 0 0 1.428571428571429 0 0.1265427876282578 1.4981772993068549 0 0.1265427876282578 1.4981772993068549 0 0.20858437319686679 1.3627973047133719 0 0.27804612003647611 1.494591548660305 0 0.088385776599928662 1.3571428571428581 0 0.1265427876282578 1.4981772993068549 0 0.20858437319686679 1.3627973047133719 0 0.12817051038898589 1.2304843984160669 0 0.20858437319686679 1.3627973047133719 0 0.28318912013054198 1.239801768054871 0 0.12817051038898589 1.2304843984160669 0 0.088385776599928662 1.3571428571428581 0 0.20858437319686679 1.3627973047133719 0 0.35404229584497182 1.3659139839396599 0 0.4277245950738956 1.242992467502205 0 0.28318912013054198 1.239801768054871 0 0.20858437319686679 1.3627973047133719 0 0.35404229584497182 1.3659139839396599 0 0.28318912013054198 1.239801768054871 0 0.35404229584497182 1.3659139839396599 0 0.27804612003647611 1.494591548660305 0 0.42593700932761092 1.493210541712801 0 0.20858437319686679 1.3627973047133719 0 0.35404229584497182 1.3659139839396599 0 0.27804612003647611 1.494591548660305 0 0.35404229584497182 1.3659139839396599 0 0.42593700932761092 1.493210541712801 0 0.49769215192747779 1.3691228671960749 0 0.42593700932761092 1.493210541712801 0 0.49769215192747779 1.3691228671960749 0 0.57098124216803381 1.49447102461245 0 0.49769215192747779 1.3691228671960749 0 0.4277245950738956 1.242992467502205 0 0.57147965461975991 1.2472291216834761 0 0.35404229584497182 1.3659139839396599 0 0.49769215192747779 1.3691228671960749 0 0.4277245950738956 1.242992467502205 0 0.4277245950738956 1.242992467502205 0 0.35723491808527968 1.1204089262615491 0 0.50105200202129985 1.1231105411754949 0 0.42857142857032021 1 0 0.35723491808527968 1.1204089262615491 0 0.50105200202129985 1.1231105411754949 0 0.21715807700202711 1.1165487808367209 0 0.35723491808527968 1.1204089262615491 0 0.28571428571359381 1 0 0.42857142857032021 1 0 0.35723491808527968 1.1204089262615491 0 0.28571428571359381 1 0 0.4277245950738956 1.242992467502205 0 0.35723491808527968 1.1204089262615491 0 0.28318912013054198 1.239801768054871 0 0.21715807700202711 1.1165487808367209 0 0.35723491808527968 1.1204089262615491 0 0.28318912013054198 1.239801768054871 0 0.21616732492381829 1.8828959187492971 0 0.14285714285686729 2 0 0.28571428571359381 2 0 0.21616732492381829 1.8828959187492971 0 0.14285714285686729 2 0 0.1040205757871361 1.895979424212789 0 0.14285714285686729 2 0 0 2 0 0.1040205757871361 1.895979424212789 0 0 2 0 0.1040205757871361 1.895979424212789 0 0 1.857142857142857 0 0 1.857142857142857 0 0.12873413335171649 1.7710799917251949 0 0 1.7142857142857151 0 0.1040205757871361 1.895979424212789 0 0 1.857142857142857 0 0.12873413335171649 1.7710799917251949 0 0.21616732492381829 1.8828959187492971 0 0.12873413335171649 1.7710799917251949 0 0.2815234200304022 1.7546180202569051 0 0.21616732492381829 1.8828959187492971 0 0.1040205757871361 1.895979424212789 0 0.12873413335171649 1.7710799917251949 0 0.12873413335171649 1.7710799917251949 0 0.21204462330902621 1.628197822617433 0 0.2815234200304022 1.7546180202569051 0 0.12873413335171649 1.7710799917251949 0 0.21204462330902621 1.628197822617433 0 0.093464308857800105 1.636633879872754 0 0.12873413335171649 1.7710799917251949 0 0 1.7142857142857151 0 0.093464308857800105 1.636633879872754 0 0 1.7142857142857151 0 0.093464308857800105 1.636633879872754 0 0 1.5714285714285721 0 0.1265427876282578 1.4981772993068549 0 0.093464308857800105 1.636633879872754 0 0 1.5714285714285721 0 0.1265427876282578 1.4981772993068549 0 0.21204462330902621 1.628197822617433 0 0.093464308857800105 1.636633879872754 0 0.1265427876282578 1.4981772993068549 0 0.27804612003647611 1.494591548660305 0 0.21204462330902621 1.628197822617433 0 0.27804612003647611 1.494591548660305 0 0.42593700932761092 1.493210541712801 0 0.35661818314176041 1.620173464197844 0 0.27804612003647611 1.494591548660305 0 0.21204462330902621 1.628197822617433 0 0.35661818314176041 1.620173464197844 0 0.42593700932761092 1.493210541712801 0 0.49948637524749001 1.619889960661181 0 0.57098124216803381 1.49447102461245 0 0.42593700932761092 1.493210541712801 0 0.35661818314176041 1.620173464197844 0 0.49948637524749001 1.619889960661181 0 0.35661818314176041 1.620173464197844 0 0.49948637524749001 1.619889960661181 0 0.42857142856854918 1.752171560420507 0 0.49948637524749001 1.619889960661181 0 0.42857142856854918 1.752171560420507 0 0.57126208756431573 1.744657680515606 0 0.21204462330902621 1.628197822617433 0 0.35661818314176041 1.620173464197844 0 0.2815234200304022 1.7546180202569051 0 0.35661818314176041 1.620173464197844 0 0.2815234200304022 1.7546180202569051 0 0.42857142856854918 1.752171560420507 0 0.2815234200304022 1.7546180202569051 0 0.42857142856854918 1.752171560420507 0 0.3541543918031938 1.8756980763008939 0 0.21616732492381829 1.8828959187492971 0 0.2815234200304022 1.7546180202569051 0 0.3541543918031938 1.8756980763008939 0 0.42857142856854918 1.752171560420507 0 0.49927531931007862 1.8740599863056251 0 0.57126208756431573 1.744657680515606 0 0.42857142856854918 1.752171560420507 0 0.49927531931007862 1.8740599863056251 0 0.3541543918031938 1.8756980763008939 0 0.49927531931007862 1.8740599863056251 0 0.42857142857032021 2 0 0.3541543918031938 1.8756980763008939 0 0.49927531931007862 1.8740599863056251 0 0.42857142857032021 2 0 0.57142857142744297 2 0 0.42857142857032021 2 0 0.28571428571359381 2 0 0.3541543918031938 1.8756980763008939 0 0.21616732492381829 1.8828959187492971 0 0.28571428571359381 2 0 0.3541543918031938 1.8756980763008939 0 0.71428571428496201 2 0 0.64222861727828595 1.8697178032968009 0 0.78018926648514753 1.874409050805993 0 0.71428571428496201 2 0 0.57142857142744297 2 0 0.64222861727828595 1.8697178032968009 0 0.49927531931007862 1.8740599863056251 0 0.57142857142744297 2 0 0.64222861727828595 1.8697178032968009 0 0.49927531931007862 1.8740599863056251 0 0.64222861727828595 1.8697178032968009 0 0.57126208756431573 1.744657680515606 0 0.64222861727828595 1.8697178032968009 0 0.71331043726850574 1.7441868901497639 0 0.78018926648514753 1.874409050805993 0 0.64222861727828595 1.8697178032968009 0 0.71331043726850574 1.7441868901497639 0 0.57126208756431573 1.744657680515606 0 0.71331043726850574 1.7441868901497639 0 0.57126208756431573 1.744657680515606 0 0.64269698385324436 1.618739532771454 0 0.71331043726850574 1.7441868901497639 0 0.64269698385324436 1.618739532771454 0 0.78571428571188906 1.618589574132371 0 0.49948637524749001 1.619889960661181 0 0.57126208756431573 1.744657680515606 0 0.64269698385324436 1.618739532771454 0 0.49948637524749001 1.619889960661181 0 0.64269698385324436 1.618739532771454 0 0.57098124216803381 1.49447102461245 0 0.64269698385324436 1.618739532771454 0 0.78571428571188906 1.618589574132371 0 0.71428571428344345 1.494871659305963 0 0.64269698385324436 1.618739532771454 0 0.57098124216803381 1.49447102461245 0 0.71428571428344345 1.494871659305963 0 0.78571428571188906 1.618589574132371 0 0.71428571428344345 1.494871659305963 0 0.8719485907575063 1.497549379121567 0 0.78571428571188906 1.618589574132371 0 0.90513610409542944 1.632892404366493 0 0.8719485907575063 1.497549379121567 0 0.90513610409542944 1.632892404366493 0 0.8719485907575063 1.497549379121567 0 1 1.571428571428571 0 0.90513610409542944 1.632892404366493 0 0.86801764400775205 1.7626087828642429 0 1 1.714285714285714 0 0.90513610409542944 1.632892404366493 0 1 1.714285714285714 0 1 1.571428571428571 0 0.71331043726850574 1.7441868901497639 0 0.78571428571188906 1.618589574132371 0 0.86801764400775205 1.7626087828642429 0 0.78571428571188906 1.618589574132371 0 0.90513610409542944 1.632892404366493 0 0.86801764400775205 1.7626087828642429 0 0.71331043726850574 1.7441868901497639 0 0.86801764400775205 1.7626087828642429 0 0.78018926648514753 1.874409050805993 0 0.86801764400775205 1.7626087828642429 0 0.78018926648514753 1.874409050805993 0 0.89542131320410701 1.8954213132042079 0 0.86801764400775205 1.7626087828642429 0 1 1.857142857142857 0 1 1.714285714285714 0 0.86801764400775205 1.7626087828642429 0 0.89542131320410701 1.8954213132042079 0 1 1.857142857142857 0 0.89542131320410701 1.8954213132042079 0 0.85714285714248095 2 0 1 2 0 0.89542131320410701 1.8954213132042079 0 1 2 0 1 1.857142857142857 0 0.78018926648514753 1.874409050805993 0 0.89542131320410701 1.8954213132042079 0 0.85714285714248095 2 0 0.71428571428496201 2 0 0.78018926648514753 1.874409050805993 0 0.85714285714248095 2 0 0.71318645322083063 1.246702098928443 0 0.64211163998861909 1.1230850406615951 0 0.78018926648585252 1.1205280434881351 0 0.71318645322083063 1.246702098928443 0 0.64211163998861909 1.1230850406615951 0 0.57147965461975991 1.2472291216834761 0 0.71428571428496201 1 0 0.64211163998861909 1.1230850406615951 0 0.57142857142744297 1 0 0.71428571428496201 1 0 0.64211163998861909 1.1230850406615951 0 0.78018926648585252 1.1205280434881351 0 0.64211163998861909 1.1230850406615951 0 0.50105200202129985 1.1231105411754949 0 0.57142857142744297 1 0 0.42857142857032021 1 0 0.50105200202129985 1.1231105411754949 0 0.57142857142744297 1 0 0.64211163998861909 1.1230850406615951 0 0.50105200202129985 1.1231105411754949 0 0.57147965461975991 1.2472291216834761 0 0.4277245950738956 1.242992467502205 0 0.50105200202129985 1.1231105411754949 0 0.57147965461975991 1.2472291216834761 0 0.49769215192747779 1.3691228671960749 0 0.57147965461975991 1.2472291216834761 0 0.6424810153757925 1.370780813604048 0 0.49769215192747779 1.3691228671960749 0 0.57098124216803381 1.49447102461245 0 0.6424810153757925 1.370780813604048 0 0.57098124216803381 1.49447102461245 0 0.71428571428344345 1.494871659305963 0 0.6424810153757925 1.370780813604048 0 0.71428571428344345 1.494871659305963 0 0.6424810153757925 1.370780813604048 0 0.78389141510410076 1.3690804396262211 0 0.71318645322083063 1.246702098928443 0 0.6424810153757925 1.370780813604048 0 0.78389141510410076 1.3690804396262211 0 0.71318645322083063 1.246702098928443 0 0.57147965461975991 1.2472291216834761 0 0.6424810153757925 1.370780813604048 0 0.78389141510410076 1.3690804396262211 0 0.90448333979397377 1.359152564409229 0 0.8681417582656602 1.2323719363648691 0 0.71318645322083063 1.246702098928443 0 0.78389141510410076 1.3690804396262211 0 0.8681417582656602 1.2323719363648691 0 0.78389141510410076 1.3690804396262211 0 0.8719485907575063 1.497549379121567 0 0.90448333979397377 1.359152564409229 0 0.71428571428344345 1.494871659305963 0 0.78389141510410076 1.3690804396262211 0 0.8719485907575063 1.497549379121567 0 0.8719485907575063 1.497549379121567 0 0.90448333979397377 1.359152564409229 0 1 1.4285714285714279 0 0.8719485907575063 1.497549379121567 0 1 1.4285714285714279 0 1 1.571428571428571 0 0.90448333979397377 1.359152564409229 0 1 1.2857142857142849 0 1 1.4285714285714279 0 0.90448333979397377 1.359152564409229 0 0.8681417582656602 1.2323719363648691 0 1 1.2857142857142849 0 0.8681417582656602 1.2323719363648691 0 1 1.142857142857143 0 1 1.2857142857142849 0 0.8681417582656602 1.2323719363648691 0 0.89542131320410689 1.104578686795793 0 1 1.142857142857143 0 0.8681417582656602 1.2323719363648691 0 0.78018926648585252 1.1205280434881351 0 0.89542131320410689 1.104578686795793 0 0.71318645322083063 1.246702098928443 0 0.8681417582656602 1.2323719363648691 0 0.78018926648585252 1.1205280434881351 0 0.71428571428496201 1 0 0.78018926648585252 1.1205280434881351 0 0.85714285714248095 1 0 0.78018926648585252 1.1205280434881351 0 0.85714285714248095 1 0 0.89542131320410689 1.104578686795793 0 0.85714285714248095 1 0 0.89542131320410689 1.104578686795793 0 1 1 0 0.89542131320410689 1.104578686795793 0 1 1 0 1 1.142857142857143 0 1 1 0 1.104578686795554 1.104578686795554 0 1 1.142857142857143 0 1 1 0 1.104578686795554 1.104578686795554 0 1.142857142857143 1 0 1.142857142857143 1 0 1.219810733513544 1.120528043487883 0 1.285714285714286 1 0 1.104578686795554 1.104578686795554 0 1.142857142857143 1 0 1.219810733513544 1.120528043487883 0 1.104578686795554 1.104578686795554 0 1.219810733513544 1.120528043487883 0 1.1319230446001269 1.2323522036059911 0 1.219810733513544 1.120528043487883 0 1.1319230446001269 1.2323522036059911 0 1.2868377830098621 1.2466881061330779 0 1.104578686795554 1.104578686795554 0 1.1319230446001269 1.2323522036059911 0 1 1.142857142857143 0 1.1319230446001269 1.2323522036059911 0 1 1.142857142857143 0 1 1.2857142857142849 0 1 1.2857142857142849 0 1.095673538468863 1.3585634207364541 0 1 1.4285714285714279 0 1.1319230446001269 1.2323522036059911 0 1 1.2857142857142849 0 1.095673538468863 1.3585634207364541 0 1 1.4285714285714279 0 1.1295855542741751 1.4974062502171921 0 1 1.571428571428571 0 1.095673538468863 1.3585634207364541 0 1 1.4285714285714279 0 1.1295855542741751 1.4974062502171921 0 1.1295855542741751 1.4974062502171921 0 1.2165379687279541 1.3689563031111329 0 1.283830123940078 1.4960028536238279 0 1.095673538468863 1.3585634207364541 0 1.1295855542741751 1.4974062502171921 0 1.2165379687279541 1.3689563031111329 0 1.1319230446001269 1.2323522036059911 0 1.095673538468863 1.3585634207364541 0 1.2165379687279541 1.3689563031111329 0 1.1319230446001269 1.2323522036059911 0 1.2165379687279541 1.3689563031111329 0 1.2868377830098621 1.2466881061330779 0 1.357664402013393 1.370696856833961 0 1.4285203453789539 1.247229121683411 0 1.2868377830098621 1.2466881061330779 0 1.2165379687279541 1.3689563031111329 0 1.357664402013393 1.370696856833961 0 1.2868377830098621 1.2466881061330779 0 1.2165379687279541 1.3689563031111329 0 1.357664402013393 1.370696856833961 0 1.283830123940078 1.4960028536238279 0 1.357664402013393 1.370696856833961 0 1.283830123940078 1.4960028536238279 0 1.4291884114524669 1.494373075047676 0 1.357664402013393 1.370696856833961 0 1.4291884114524669 1.494373075047676 0 1.5023078480707981 1.369122867196213 0 1.357664402013393 1.370696856833961 0 1.4285203453789539 1.247229121683411 0 1.5023078480707981 1.369122867196213 0 1.4285203453789539 1.247229121683411 0 1.4989479979775799 1.123110541175516 0 1.5722754049247569 1.2429924675024751 0 1.4285203453789539 1.247229121683411 0 1.4989479979775799 1.123110541175516 0 1.357888360010425 1.123085040661465 0 1.4989479979775799 1.123110541175516 0 1.428571428571429 1 0 1.357888360010425 1.123085040661465 0 1.4989479979775799 1.123110541175516 0 1.428571428571429 1 0 1.5714285714285721 1 0 1.219810733513544 1.120528043487883 0 1.357888360010425 1.123085040661465 0 1.285714285714286 1 0 1.428571428571429 1 0 1.357888360010425 1.123085040661465 0 1.285714285714286 1 0 1.4285203453789539 1.247229121683411 0 1.357888360010425 1.123085040661465 0 1.2868377830098621 1.2466881061330779 0 1.219810733513544 1.120528043487883 0 1.357888360010425 1.123085040661465 0 1.2868377830098621 1.2466881061330779 0 1.216145381820789 1.88103109715887 0 1.142857142857143 2 0 1.2857142857142849 2 0 1.216145381820789 1.88103109715887 0 1.142857142857143 2 0 1.103773871582159 1.896226128417843 0 1 2 0 1.103773871582159 1.896226128417843 0 1 1.857142857142857 0 1.142857142857143 2 0 1 2 0 1.103773871582159 1.896226128417843 0 1.103773871582159 1.896226128417843 0 1 1.857142857142857 0 1.130119705833043 1.7651652404678491 0 1 1.857142857142857 0 1.130119705833043 1.7651652404678491 0 1 1.714285714285714 0 1.216145381820789 1.88103109715887 0 1.130119705833043 1.7651652404678491 0 1.2812394475956559 1.7505389596817531 0 1.216145381820789 1.88103109715887 0 1.103773871582159 1.896226128417843 0 1.130119705833043 1.7651652404678491 0 1.130119705833043 1.7651652404678491 0 1.213562818228437 1.624903527712154 0 1.2812394475956559 1.7505389596817531 0 1.130119705833043 1.7651652404678491 0 1.0966556989971969 1.6428571428571419 0 1.213562818228437 1.624903527712154 0 1.130119705833043 1.7651652404678491 0 1.0966556989971969 1.6428571428571419 0 1 1.714285714285714 0 1.0966556989971969 1.6428571428571419 0 1 1.714285714285714 0 1 1.571428571428571 0 1.1295855542741751 1.4974062502171921 0 1.0966556989971969 1.6428571428571419 0 1 1.571428571428571 0 1.1295855542741751 1.4974062502171921 0 1.0966556989971969 1.6428571428571419 0 1.213562818228437 1.624903527712154 0 1.1295855542741751 1.4974062502171921 0 1.283830123940078 1.4960028536238279 0 1.213562818228437 1.624903527712154 0 1.283830123940078 1.4960028536238279 0 1.4291884114524669 1.494373075047676 0 1.3564415889440451 1.6196811088208509 0 1.283830123940078 1.4960028536238279 0 1.213562818228437 1.624903527712154 0 1.3564415889440451 1.6196811088208509 0 1.4291884114524669 1.494373075047676 0 1.3564415889440451 1.6196811088208509 0 1.5002085607630711 1.6196906823475781 0 1.3564415889440451 1.6196811088208509 0 1.4258910619820611 1.7448328391661969 0 1.5002085607630711 1.6196906823475781 0 1.4258910619820611 1.7448328391661969 0 1.57109391646305 1.7442952446683879 0 1.5002085607630711 1.6196906823475781 0 1.213562818228437 1.624903527712154 0 1.3564415889440451 1.6196811088208509 0 1.2812394475956559 1.7505389596817531 0 1.3564415889440451 1.6196811088208509 0 1.4258910619820611 1.7448328391661969 0 1.2812394475956559 1.7505389596817531 0 1.4258910619820611 1.7448328391661969 0 1.2812394475956559 1.7505389596817531 0 1.3531678373424461 1.8742562543857739 0 1.216145381820789 1.88103109715887 0 1.2812394475956559 1.7505389596817531 0 1.3531678373424461 1.8742562543857739 0 1.4258910619820611 1.7448328391661969 0 1.498530108073209 1.8729348231800089 0 1.57109391646305 1.7442952446683879 0 1.4258910619820611 1.7448328391661969 0 1.3531678373424461 1.8742562543857739 0 1.498530108073209 1.8729348231800089 0 1.3531678373424461 1.8742562543857739 0 1.498530108073209 1.8729348231800089 0 1.4285714285714279 2 0 1.498530108073209 1.8729348231800089 0 1.4285714285714279 2 0 1.571428571428571 2 0 1.3531678373424461 1.8742562543857739 0 1.4285714285714279 2 0 1.2857142857142849 2 0 1.216145381820789 1.88103109715887 0 1.3531678373424461 1.8742562543857739 0 1.2857142857142849 2 0 1.714285714285714 2 0 1.6421576172291299 1.8693783291179169 0 1.780189266486458 1.87434361581751 0 1.714285714285714 2 0 1.571428571428571 2 0 1.6421576172291299 1.8693783291179169 0 1.498530108073209 1.8729348231800089 0 1.571428571428571 2 0 1.6421576172291299 1.8693783291179169 0 1.498530108073209 1.8729348231800089 0 1.6421576172291299 1.8693783291179169 0 1.57109391646305 1.7442952446683879 0 1.6421576172291299 1.8693783291179169 0 1.7133888590203961 1.744009140962433 0 1.780189266486458 1.87434361581751 0 1.6421576172291299 1.8693783291179169 0 1.7133888590203961 1.744009140962433 0 1.57109391646305 1.7442952446683879 0 1.7133888590203961 1.744009140962433 0 1.57109391646305 1.7442952446683879 0 1.643335685458571 1.6184935184144349 0 1.7133888590203961 1.744009140962433 0 1.643335685458571 1.6184935184144349 0 1.7857142857142889 1.61858957413174 0 1.57109391646305 1.7442952446683879 0 1.5002085607630711 1.6196906823475781 0 1.643335685458571 1.6184935184144349 0 1.4291884114524669 1.494373075047676 0 1.5002085607630711 1.6196906823475781 0 1.5740912662740569 1.4931942167857211 0 1.5002085607630711 1.6196906823475781 0 1.643335685458571 1.6184935184144349 0 1.5740912662740569 1.4931942167857211 0 1.643335685458571 1.6184935184144349 0 1.7857142857142889 1.61858957413174 0 1.7219056762667611 1.4941033353868309 0 1.643335685458571 1.6184935184144349 0 1.5740912662740569 1.4931942167857211 0 1.7219056762667611 1.4941033353868309 0 1.7857142857142889 1.61858957413174 0 1.7219056762667611 1.4941033353868309 0 1.873185845995041 1.4969442903745009 0 1.7857142857142889 1.61858957413174 0 1.905385795765048 1.632764438497625 0 1.873185845995041 1.4969442903745009 0 2 1.5714285714285721 0 1.905385795765048 1.632764438497625 0 1.873185845995041 1.4969442903745009 0 2 1.5714285714285721 0 1.905385795765048 1.632764438497625 0 2 1.7142857142857151 0 1.905385795765048 1.632764438497625 0 2 1.7142857142857151 0 1.8680288471159121 1.762574042267598 0 1.7857142857142889 1.61858957413174 0 1.905385795765048 1.632764438497625 0 1.8680288471159121 1.762574042267598 0 1.7133888590203961 1.744009140962433 0 1.7857142857142889 1.61858957413174 0 1.8680288471159121 1.762574042267598 0 1.7133888590203961 1.744009140962433 0 1.8680288471159121 1.762574042267598 0 1.780189266486458 1.87434361581751 0 1.8680288471159121 1.762574042267598 0 1.780189266486458 1.87434361581751 0 1.8954213132044451 1.8954213132044451 0 2 1.7142857142857151 0 1.8680288471159121 1.762574042267598 0 2 1.857142857142857 0 1.8680288471159121 1.762574042267598 0 2 1.857142857142857 0 1.8954213132044451 1.8954213132044451 0 2 2 0 1.8954213132044451 1.8954213132044451 0 1.857142857142857 2 0 2 1.857142857142857 0 2 2 0 1.8954213132044451 1.8954213132044451 0 1.714285714285714 2 0 1.780189266486458 1.87434361581751 0 1.857142857142857 2 0 1.780189266486458 1.87434361581751 0 1.8954213132044451 1.8954213132044451 0 1.857142857142857 2 0 1.7167999698727541 1.239731972755882 0 1.642763263581051 1.12039729371186 0 1.782841922996929 1.1165487808372889 0 1.7167999698727541 1.239731972755882 0 1.642763263581051 1.12039729371186 0 1.5722754049247569 1.2429924675024751 0 1.7142857142857151 1 0 1.642763263581051 1.12039729371186 0 1.782841922996929 1.1165487808372889 0 1.7142857142857151 1 0 1.642763263581051 1.12039729371186 0 1.5714285714285721 1 0 1.4989479979775799 1.123110541175516 0 1.642763263581051 1.12039729371186 0 1.5714285714285721 1 0 1.4989479979775799 1.123110541175516 0 1.642763263581051 1.12039729371186 0 1.5722754049247569 1.2429924675024751 0 1.4285203453789539 1.247229121683411 0 1.5722754049247569 1.2429924675024751 0 1.5023078480707981 1.369122867196213 0 1.5722754049247569 1.2429924675024751 0 1.5023078480707981 1.369122867196213 0 1.645945505858496 1.3657820825118669 0 1.4291884114524669 1.494373075047676 0 1.5023078480707981 1.369122867196213 0 1.5740912662740569 1.4931942167857211 0 1.5023078480707981 1.369122867196213 0 1.5740912662740569 1.4931942167857211 0 1.645945505858496 1.3657820825118669 0 1.7219056762667611 1.4941033353868309 0 1.645945505858496 1.3657820825118669 0 1.7913623651234289 1.3625104343460019 0 1.5740912662740569 1.4931942167857211 0 1.7219056762667611 1.4941033353868309 0 1.645945505858496 1.3657820825118669 0 1.7167999698727541 1.239731972755882 0 1.5722754049247569 1.2429924675024751 0 1.645945505858496 1.3657820825118669 0 1.7167999698727541 1.239731972755882 0 1.645945505858496 1.3657820825118669 0 1.7913623651234289 1.3625104343460019 0 1.7167999698727541 1.239731972755882 0 1.7913623651234289 1.3625104343460019 0 1.8718294896102901 1.230484398416303 0 1.7913623651234289 1.3625104343460019 0 1.9104848285497229 1.358106546840288 0 1.8718294896102901 1.230484398416303 0 1.7913623651234289 1.3625104343460019 0 1.873185845995041 1.4969442903745009 0 1.9104848285497229 1.358106546840288 0 1.7219056762667611 1.4941033353868309 0 1.7913623651234289 1.3625104343460019 0 1.873185845995041 1.4969442903745009 0 1.873185845995041 1.4969442903745009 0 2 1.428571428571429 0 1.9104848285497229 1.358106546840288 0 2 1.5714285714285721 0 1.873185845995041 1.4969442903745009 0 2 1.428571428571429 0 1.9104848285497229 1.358106546840288 0 2 1.285714285714286 0 1.8718294896102901 1.230484398416303 0 2 1.428571428571429 0 1.9104848285497229 1.358106546840288 0 2 1.285714285714286 0 2 1.142857142857143 0 1.8718294896102901 1.230484398416303 0 1.895421313204446 1.104578686795554 0 2 1.285714285714286 0 2 1.142857142857143 0 1.8718294896102901 1.230484398416303 0 1.8718294896102901 1.230484398416303 0 1.782841922996929 1.1165487808372889 0 1.895421313204446 1.104578686795554 0 1.7167999698727541 1.239731972755882 0 1.8718294896102901 1.230484398416303 0 1.782841922996929 1.1165487808372889 0 1.7142857142857151 1 0 1.782841922996929 1.1165487808372889 0 1.857142857142857 1 0 1.782841922996929 1.1165487808372889 0 1.857142857142857 1 0 1.895421313204446 1.104578686795554 0 2 1.142857142857143 0 2 1 0 1.895421313204446 1.104578686795554 0 1.857142857142857 1 0 2 1 0 1.895421313204446 1.104578686795554 0 2 1 0 1.895421313204702 0.89542131320459539 0 2 0.85714285714246041 0 1.857142857142857 1 0 2 1 0 1.895421313204702 0.89542131320459539 0 2 0.85714285714246041 0 1.8762820851745099 0.78571428571438473 0 2 0.71428571428630883 0 1.895421313204702 0.89542131320459539 0 2 0.85714285714246041 0 1.8762820851745099 0.78571428571438473 0 1.895421313204702 0.89542131320459539 0 1.8762820851745099 0.78571428571438473 0 1.768652694417534 0.87272440266303286 0 1.8762820851745099 0.78571428571438473 0 1.768652694417534 0.87272440266303286 0 1.756239446550119 0.72095711511373584 0 1.7142857142857151 1 0 1.857142857142857 1 0 1.768652694417534 0.87272440266303286 0 1.857142857142857 1 0 1.895421313204702 0.89542131320459539 0 1.768652694417534 0.87272440266303286 0 1.7142857142857151 1 0 1.768652694417534 0.87272440266303286 0 1.642857142857143 0.91161422340073883 0 1.7142857142857151 1 0 1.5714285714285721 1 0 1.642857142857143 0.91161422340073883 0 1.768652694417534 0.87272440266303286 0 1.6317122618965649 0.79637337101919514 0 1.756239446550119 0.72095711511373584 0 1.768652694417534 0.87272440266303286 0 1.642857142857143 0.91161422340073883 0 1.6317122618965649 0.79637337101919514 0 1.6317122618965649 0.79637337101919514 0 1.501956522282162 0.87342776029090685 0 1.5054085274983611 0.72194187149245215 0 1.642857142857143 0.91161422340073883 0 1.6317122618965649 0.79637337101919514 0 1.501956522282162 0.87342776029090685 0 1.5714285714285721 1 0 1.642857142857143 0.91161422340073883 0 1.501956522282162 0.87342776029090685 0 1.428571428571429 1 0 1.5714285714285721 1 0 1.501956522282162 0.87342776029090685 0 1.5066538916308021 0.57407090316079068 0 1.6301168890407629 0.50220080181550997 0 1.505475819208991 0.42917327901520119 0 1.5066538916308021 0.57407090316079068 0 1.6326710220336891 0.65305200369586036 0 1.6301168890407629 0.50220080181550997 0 1.6317122618965649 0.79637337101919514 0 1.5054085274983611 0.72194187149245215 0 1.6326710220336891 0.65305200369586036 0 1.5066538916308021 0.57407090316079068 0 1.5054085274983611 0.72194187149245215 0 1.6326710220336891 0.65305200369586036 0 1.6326710220336891 0.65305200369586036 0 1.752564170348099 0.57142857143056203 0 1.756239446550119 0.72095711511373584 0 1.6317122618965649 0.79637337101919514 0 1.6326710220336891 0.65305200369586036 0 1.756239446550119 0.72095711511373584 0 1.6326710220336891 0.65305200369586036 0 1.6301168890407629 0.50220080181550997 0 1.752564170348099 0.57142857143056203 0 1.6301168890407629 0.50220080181550997 0 1.752564170348099 0.57142857143056203 0 1.7526527778847281 0.42872490132975188 0 1.752564170348099 0.57142857143056203 0 1.8755544454303199 0.64645005615938045 0 1.8762820851739579 0.50000000000166922 0 1.752564170348099 0.57142857143056203 0 1.8762820851739579 0.50000000000166922 0 1.7526527778847281 0.42872490132975188 0 1.8762820851745099 0.78571428571438473 0 1.756239446550119 0.72095711511373584 0 1.8755544454303199 0.64645005615938045 0 1.752564170348099 0.57142857143056203 0 1.756239446550119 0.72095711511373584 0 1.8755544454303199 0.64645005615938045 0 1.8762820851745099 0.78571428571438473 0 1.8755544454303199 0.64645005615938045 0 2 0.71428571428630883 0 1.8755544454303199 0.64645005615938045 0 2 0.71428571428630883 0 2 0.57142857143015668 0 1.8755544454303199 0.64645005615938045 0 1.8762820851739579 0.50000000000166922 0 2 0.57142857143015668 0 1.8762820851739579 0.50000000000166922 0 2 0.57142857143015668 0 2 0.42857142857321201 0 1.8762820851739579 0.50000000000166922 0 2 0.42857142857321201 0 1.876813730396715 0.35806369368239999 0 2 0.28571428571547469 0 1.876813730396715 0.35806369368239999 0 1.879471956511813 0.21981073351466429 0 2 0.42857142857321201 0 2 0.28571428571547469 0 1.876813730396715 0.35806369368239999 0 1.876813730396715 0.35806369368239999 0 1.753250940521041 0.28690380655078462 0 1.879471956511813 0.21981073351466429 0 1.876813730396715 0.35806369368239999 0 1.753250940521041 0.28690380655078462 0 1.7526527778847281 0.42872490132975188 0 1.8762820851739579 0.50000000000166922 0 1.876813730396715 0.35806369368239999 0 1.7526527778847281 0.42872490132975188 0 2 0 0 1.8954213132040689 0.10457868679609091 0 2 0.14285714285773729 0 2 0 0 1.8954213132040689 0.10457868679609091 0 1.857142857142857 0 0 2 0.28571428571547469 0 2 0.14285714285773729 0 1.879471956511813 0.21981073351466429 0 1.8954213132040689 0.10457868679609091 0 2 0.14285714285773729 0 1.879471956511813 0.21981073351466429 0 1.753250940521041 0.28690380655078462 0 1.879471956511813 0.21981073351466429 0 1.767634152009756 0.1319344354676312 0 1.8954213132040689 0.10457868679609091 0 1.879471956511813 0.21981073351466429 0 1.767634152009756 0.1319344354676312 0 1.8954213132040689 0.10457868679609091 0 1.767634152009756 0.1319344354676312 0 1.857142857142857 0 0 1.767634152009756 0.1319344354676312 0 1.857142857142857 0 0 1.714285714285714 0 0 1.714285714285714 0 0 1.641434069801228 0.095674845394396482 0 1.571428571428571 0 0 1.767634152009756 0.1319344354676312 0 1.714285714285714 0 0 1.641434069801228 0.095674845394396482 0 1.767634152009756 0.1319344354676312 0 1.641434069801228 0.095674845394396482 0 1.6310091395475219 0.21655168125592689 0 1.753250940521041 0.28690380655078462 0 1.767634152009756 0.1319344354676312 0 1.6310091395475219 0.21655168125592689 0 1.6310091395475219 0.21655168125592689 0 1.502593749782573 0.1295855542762408 0 1.503934447226754 0.28383162542713097 0 1.641434069801228 0.095674845394396482 0 1.6310091395475219 0.21655168125592689 0 1.502593749782573 0.1295855542762408 0 1.641434069801228 0.095674845394396482 0 1.502593749782573 0.1295855542762408 0 1.571428571428571 0 0 1.502593749782573 0.1295855542762408 0 1.571428571428571 0 0 1.4285714285714279 0 0 1.6301168890407629 0.50220080181550997 0 1.7526527778847281 0.42872490132975188 0 1.6291567524667829 0.3576806536311482 0 1.753250940521041 0.28690380655078462 0 1.6310091395475219 0.21655168125592689 0 1.6291567524667829 0.3576806536311482 0 1.753250940521041 0.28690380655078462 0 1.7526527778847281 0.42872490132975188 0 1.6291567524667829 0.3576806536311482 0 1.6310091395475219 0.21655168125592689 0 1.6291567524667829 0.3576806536311482 0 1.503934447226754 0.28383162542713097 0 1.6291567524667829 0.3576806536311482 0 1.503934447226754 0.28383162542713097 0 1.505475819208991 0.42917327901520119 0 1.6301168890407629 0.50220080181550997 0 1.6291567524667829 0.3576806536311482 0 1.505475819208991 0.42917327901520119 0 1.505475819208991 0.42917327901520119 0 1.3802852902972891 0.35643808088643081 0 1.3802588180989579 0.50020264484033383 0 1.503934447226754 0.28383162542713097 0 1.505475819208991 0.42917327901520119 0 1.3802852902972891 0.35643808088643081 0 1.503934447226754 0.28383162542713097 0 1.3802852902972891 0.35643808088643081 0 1.3750859320573681 0.21356050349783851 0 1.3802852902972891 0.35643808088643081 0 1.3750859320573681 0.21356050349783851 0 1.2494061032605699 0.28122351189747269 0 1.3802852902972891 0.35643808088643081 0 1.2548711393591701 0.42579895584072741 0 1.2494061032605699 0.28122351189747269 0 1.2548711393591701 0.42579895584072741 0 1.3802588180989579 0.50020264484033383 0 1.2543832690154351 0.57113866035583183 0 1.3802852902972891 0.35643808088643081 0 1.2548711393591701 0.42579895584072741 0 1.3802588180989579 0.50020264484033383 0 1.502593749782573 0.1295855542762408 0 1.4285714285714279 0 0 1.357142857142857 0.09665569899944787 0 1.502593749782573 0.1295855542762408 0 1.3750859320573681 0.21356050349783851 0 1.357142857142857 0.09665569899944787 0 1.502593749782573 0.1295855542762408 0 1.503934447226754 0.28383162542713097 0 1.3750859320573681 0.21356050349783851 0 1.3750859320573681 0.21356050349783851 0 1.357142857142857 0.09665569899944787 0 1.2348347595333411 0.13011970583437851 0 1.3750859320573681 0.21356050349783851 0 1.2348347595333411 0.13011970583437851 0 1.2494061032605699 0.28122351189747269 0 1.4285714285714279 0 0 1.2857142857142849 0 0 1.357142857142857 0.09665569899944787 0 1.2857142857142849 0 0 1.357142857142857 0.09665569899944787 0 1.2348347595333411 0.13011970583437851 0 1.142857142857143 0 0 1.2348347595333411 0.13011970583437851 0 1.1037738715822589 0.1037738715821834 0 1.2857142857142849 0 0 1.142857142857143 0 0 1.2348347595333411 0.13011970583437851 0 1.2348347595333411 0.13011970583437851 0 1.1189454311765621 0.21612891637515011 0 1.2494061032605699 0.28122351189747269 0 1.2348347595333411 0.13011970583437851 0 1.1189454311765621 0.21612891637515011 0 1.1037738715822589 0.1037738715821834 0 1.1189454311765621 0.21612891637515011 0 1 0.14285714285686729 0 1 0.28571428571359381 0 1.1189454311765621 0.21612891637515011 0 1 0.14285714285686729 0 1.1037738715822589 0.1037738715821834 0 1.142857142857143 0 0 1 0 0 1.1037738715822589 0.1037738715821834 0 1 0.14285714285686729 0 1 0 0 1.1037738715822589 0.1037738715821834 0 1.2548711393591701 0.42579895584072741 0 1.126694634720383 0.4979421513039991 0 1.1256578526831991 0.35308498036640512 0 1.2548711393591701 0.42579895584072741 0 1.126694634720383 0.4979421513039991 0 1.2543832690154351 0.57113866035583183 0 1.1189454311765621 0.21612891637515011 0 1.2494061032605699 0.28122351189747269 0 1.1256578526831991 0.35308498036640512 0 1.2548711393591701 0.42579895584072741 0 1.2494061032605699 0.28122351189747269 0 1.1256578526831991 0.35308498036640512 0 1.1189454311765621 0.21612891637515011 0 1.1256578526831991 0.35308498036640512 0 1 0.28571428571359381 0 1.1256578526831991 0.35308498036640512 0 1 0.28571428571359381 0 1 0.42857142857032021 0 1.126694634720383 0.4979421513039991 0 1.1256578526831991 0.35308498036640512 0 1 0.42857142857032021 0 1.126694634720383 0.4979421513039991 0 1 0.42857142857032021 0 1 0.57142857142744297 0 1.126694634720383 0.4979421513039991 0 1 0.57142857142744297 0 1.1249180082932411 0.64154736580034655 0 1.126694634720383 0.4979421513039991 0 1.1249180082932411 0.64154736580034655 0 1.2543832690154351 0.57113866035583183 0 1.1249180082932411 0.64154736580034655 0 1.1206017064478631 0.78020338314488047 0 1.2504066190377161 0.71350574666905386 0 1.1249180082932411 0.64154736580034655 0 1.2543832690154351 0.57113866035583183 0 1.2504066190377161 0.71350574666905386 0 1 0.57142857142744297 0 1.1249180082932411 0.64154736580034655 0 1 0.71428571428496201 0 1.1249180082932411 0.64154736580034655 0 1 0.71428571428496201 0 1.1206017064478631 0.78020338314488047 0 1 0.71428571428496201 0 1 0.85714285714248095 0 1.1206017064478631 0.78020338314488047 0 1 0.85714285714248095 0 1.1206017064478631 0.78020338314488047 0 1.104578686795793 0.89542131320410678 0 1 1 0 1 0.85714285714248095 0 1.104578686795793 0.89542131320410678 0 1 1 0 1.142857142857143 1 0 1.104578686795793 0.89542131320410678 0 1.142857142857143 1 0 1.104578686795793 0.89542131320410678 0 1.2348069249981111 0.86828947631167996 0 1.142857142857143 1 0 1.285714285714286 1 0 1.2348069249981111 0.86828947631167996 0 1.1206017064478631 0.78020338314488047 0 1.104578686795793 0.89542131320410678 0 1.2348069249981111 0.86828947631167996 0 1.1206017064478631 0.78020338314488047 0 1.2348069249981111 0.86828947631167996 0 1.2504066190377161 0.71350574666905386 0 1.2348069249981111 0.86828947631167996 0 1.3580796082637261 0.90318160544595827 0 1.381410425870252 0.78571428571776047 0 1.2348069249981111 0.86828947631167996 0 1.381410425870252 0.78571428571776047 0 1.2504066190377161 0.71350574666905386 0 1.285714285714286 1 0 1.2348069249981111 0.86828947631167996 0 1.3580796082637261 0.90318160544595827 0 1.428571428571429 1 0 1.285714285714286 1 0 1.3580796082637261 0.90318160544595827 0 1.428571428571429 1 0 1.501956522282162 0.87342776029090685 0 1.3580796082637261 0.90318160544595827 0 1.501956522282162 0.87342776029090685 0 1.3580796082637261 0.90318160544595827 0 1.381410425870252 0.78571428571776047 0 1.501956522282162 0.87342776029090685 0 1.5054085274983611 0.72194187149245215 0 1.381410425870252 0.78571428571776047 0 1.5066538916308021 0.57407090316079068 0 1.5054085274983611 0.72194187149245215 0 1.3798287378191809 0.64333130562085483 0 1.5054085274983611 0.72194187149245215 0 1.381410425870252 0.78571428571776047 0 1.3798287378191809 0.64333130562085483 0 1.5066538916308021 0.57407090316079068 0 1.505475819208991 0.42917327901520119 0 1.3802588180989579 0.50020264484033383 0 1.5066538916308021 0.57407090316079068 0 1.3798287378191809 0.64333130562085483 0 1.3802588180989579 0.50020264484033383 0 1.3798287378191809 0.64333130562085483 0 1.3802588180989579 0.50020264484033383 0 1.2543832690154351 0.57113866035583183 0 1.3798287378191809 0.64333130562085483 0 1.2543832690154351 0.57113866035583183 0 1.2504066190377161 0.71350574666905386 0 1.381410425870252 0.78571428571776047 0 1.3798287378191809 0.64333130562085483 0 1.2504066190377161 0.71350574666905386 0 
</DataArray>
</Points>
<Cells>
<DataArray type="UInt32" Name="connectivity" format="ascii">
0 1 2 3 4 5 6 7 8 9 10 11 12 13 14 15 16 17 18 19 20 21 22 23 24 25 26 27 28 29 30 31 32 33 34 35 36 37 38 39 40 41 42 43 44 45 46 47 48 49 50 51 52 53 54 55 56 57 58 59 60 61 62 63 64 65 66 67 68 69 70 71 72 73 74 75 76 77 78 79 80 81 82 83 84 85 86 87 88 89 90 91 92 93 94 95 96 97 98 99 100 101 102 103 104 105 106 107 108 109 110 111 112 113 114 115 116 117 118 119 120 121 122 123 124 125 126 127 128 129 130 131 132 133 134 135 136 137 138 139 140 141 142 143 144 145 146 147 148 149 150 151 152 153 154 155 156 157 158 159 160 161 162 163 164 165 166 167 168 169 170 171 172 173 174 175 176 177 178 179 180 181 182 183 184 185 186 187 188 189 190 191 192 193 194 195 196 197 198 199 200 201 202 203 204 205 206 207 208 209 210 211 212 213 214 215 216 217 218 219 220 221 222 223 224 225 226 227 228 229 230 231 232 233 234 235 236 237 238 239 240 241 242 243 244 245 246 247 248 249 250 251 252 253 254 255 256 257 258 259 260 261 262 263 264 265 266 267 268 269 270 271 272 273 274 275 276 277 278 279 280 281 282 283 284 285 286 287 288 289 290 291 292 293 294 295 296 297 298 299 300 301 302 303 304 305 306 307 308 309 310 311 312 313 314 315 316 317 318 319 320 321 322 323 324 325 326 327 328 329 330 331 332 333 334 335 336 337 338 339 340 341 342 343 344 345 346 347 348 349 350 351 352 353 354 355 356 357 358 359 360 361 362 363 364 365 366 367 368 369 370 371 372 373 374 375 376 377 378 379 380 381 382 383 384 385 386 387 388 389 390 391 392 393 394 395 396 397 398 399 400 401 402 403 404 405 406 407 408 409 410 411 412 413 414 415 416 417 418 419 420 421 422 423 424 425 426 427 428 429 430 431 432 433 434 435 436 437 438 439 440 441 442 443 444 445 446 447 448 449 450 451 452 453 454 455 456 457 458 459 460 461 462 463 464 465 466 467 468 469 470 471 472 473 474 475 476 477 478 479 480 481 482 483 484 485 486 487 488 489 490 491 492 493 494 495 496 497 498 499 500 501 502 503 504 505 506 507 508 509 510 511 512 513 514 515 516 517 518 519 520 521 522 523 524 525 526 527 528 529 530 531 532 533 534 535 536 537 538 539 540 541 542 543 544 545 546 547 548 549 550 551 552 553 554 555 556 557 558 559 560 561 562 563 564 565 566 567 568 569 570 571 572 573 574 575 576 577 578 579 580 581 582 583 584 585 586 587 588 589 590 591 592 593 594 595 596 597 598 599 600 601 602 603 604 605 606 607 608 609 610 611 612 613 614 615 616 617 618 619 620 621 622 623 624 625 626 627 628 629 630 631 632 633 634 635 636 637 638 639 640 641 642 643 644 645 646 647 648 649 650 651 652 653 654 655 656 657 658 659 660 661 662 663 664 665 666 667 668 669 670 671 672 673 674 675 676 677 678 679 680 681 682 683 684 685 686 687 688 689 690 691 692 693 694 695 696 697 698 699 700 701 702 703 704 705 706 707 708 709 710 711 712 713 714 715 716 717 718 719 720 721 722 723 724 725 726 727 728 729 730 731 732 733 734 735 736 737 738 739 740 741 742 743 744 745 746 747 748 749 750 751 752 753 754 755 756 757 758 759 760 761 762 763 764 765 766 767 768 769 770 771 772 773 774 775 776 777 778 779 780 781 782 783 784 785 786 787 788 789 790 791 792 793 794 795 796 797 798 799 800 801 802 803 804 805 806 807 808 809 810 811 812 813 814 815 816 817 818 819 820 821 822 823 824 825 826 827 828 829 830 831 832 833 834 835 836 837 838 839 840 841 842 843 844 845 846 847 848 849 850 851 852 853 854 855 856 857 858 859 860 861 862 863 864 865 866 867 868 869 870 871 872 873 874 875 876 877 878 879 880 881 882 883 884 885 886 887 888 889 890 891 892 893 894 895 896 897 898 899 900 901 902 903 904 905 906 907 908 909 910 911 912 913 914 915 916 917 918 919 920 921 922 923 924 925 926 927 928 929 930 931 932 933 934 935 936 937 938 939 940 941 942 943 944 945 946 947 948 949 950 951 952 953 954 955 956 957 958 959 960 961 962 963 964 965 966 967 968 969 970 971 972 973 974 975 976 977 978 979 980 981 982 983 984 985 986 987 988 989 990 991 992 993 994 995 996 997 998 999 1000 1001 1002 1003 1004 1005 1006 1007 1008 1009 1010 1011 1012 1013 1014 1015 1016 1017 1018 1019 1020 1021 1022 1023 1024 1025 1026 1027 1028 1029 1030 1031 1032 1033 1034 1035 1036 1037 1038 1039 1040 1041 1042 1043 1044 1045 1046 1047 1048 1049 1050 1051 1052 1053 1054 1055 1056 1057 1058 1059 1060 1061 1062 1063 1064 1065 1066 1067 1068 1069 1070 1071 1072 1073 1074 1075 1076 1077 1078 1079 1080 1081 1082 1083 1084 1085 1086 1087 1088 1089 1090 1091 1092 1093 1094 1095 1096 1097 1098 1099 1100 1101 1102 1103 1104 1105 1106 1107 1108 1109 1110 1111 1112 1113 1114 1115 1116 1117 1118 1119 1120 1121 1122 1123 1124 1125 1126 1127 1128 1129 1130 1131 1132 1133 1134 1135 1136 1137 1138 1139 1140 1141 1142 1143 1144 1145 1146 1147 1148 1149 1150 1151 1152 1153 1154 1155 1156 1157 1158 1159 1160 1161 1162 1163 1164 1165 1166 1167 1168 1169 1170 1171 1172 1173 1174 1175 1176 1177 1178 1179 1180 1181 1182 1183 1184 1185 1186 1187 1188 1189 1190 1191 1192 1193 1194 1195 1196 1197 1198 1199 1200 1201 1202 1203 1204 1205 1206 1207 1208 1209 1210 1211 1212 1213 1214 1215 1216 1217 1218 1219 1220 1221 1222 1223 1224 1225 1226 1227 1228 1229 1230 1231 1232 1233 1234 1235 1236 1237 1238 1239 1240 1241 1242 1243 1244 1245 1246 1247 1248 1249 1250 1251 1252 1253 1254 1255 1256 1257 1258 1259 1260 1261 1262 1263 1264 1265 1266 1267 1268 1269 1270 1271 1272 1273 1274 1275 1276 1277 1278 1279 1280 1281 1282 1283 1284 1285 1286 1287 1288 1289 1290 1291 1292 1293 1294 1295 1296 1297 1298 1299 1300 1301 1302 1303 1304 1305 1306 1307 1308 1309 1310 1311 1312 1313 1314 1315 1316 1317 1318 1319 1320 1321 1322 1323 1324 1325 1326 1327 1328 1329 1330 1331 1332 1333 1334 1335 1336 1337 1338 1339 1340 1341 1342 1343 1344 1345 1346 1347 1348 1349 1350 1351 1352 1353 1354 1355 1356 1357 1358 1359 1360 1361 1362 1363 1364 1365 1366 1367 1368 1369 1370 1371 1372 1373 1374 1375 1376 1377 1378 1379 1380 1381 1382 1383 1384 1385 1386 1387 1388 1389 1390 1391 1392 1393 1394 1395 1396 1397 1398 1399 1400 1401 1402 1403 1404 1405 1406 1407 1408 1409 1410 1411 1412 1413 1414 1415 
</DataArray>
<DataArray type="UInt32" Name="offsets" format="ascii">
3 6 9 12 15 18 21 24 27 30 33 36 39 42 45 48 51 54 57 60 63 66 69 72 75 78 81 84 87 90 93 96 99 102 105 108 111 114 117 120 123 126 129 132 135 138 141 144 147 150 153 156 159 162 165 168 171 174 177 180 183 186 189 192 195 198 201 204 207 210 213 216 219 222 225 228 231 234 237 240 243 246 249 252 255 258 261 264 267 270 273 276 279 282 285 288 291 294 297 300 303 306 309 312 315 318 321 324 327 330 333 336 339 342 345 348 351 354 357 360 363 366 369 372 375 378 381 384 387 390 393 396 399 402 405 408 411 414 417 420 423 426 429 432 435 438 441 444 447 450 453 456 459 462 465 468 471 474 477 480 483 486 489 492 495 498 501 504 507 510 513 516 519 522 525 528 531 534 537 540 543 546 549 552 555 558 561 564 567 570 573 576 579 582 585 588 591 594 597 600 603 606 609 612 615 618 621 624 627 630 633 636 639 642 645 648 651 654 657 660 663 666 669 672 675 678 681 684 687 690 693 696 699 702 705 708 711 714 717 720 723 726 729 732 735 738 741 744 747 750 753 756 759 762 765 768 771 774 777 780 783 786 789 792 795 798 801 804 807 810 813 816 819 822 825 828 831 834 837 840 843 846 849 852 855 858 861 864 867 870 873 876 879 882 885 888 891 894 897 900 903 906 909 912 915 918 921 924 927 930 933 936 939 942 945 948 951 954 957 960 963 966 969 972 975 978 981 984 987 990 993 996 999 1002 1005 1008 1011 1014 1017 1020 1023 1026 1029 1032 1035 1038 1041 1044 1047 1050 1053 1056 1059 1062 1065 1068 1071 1074 1077 1080 1083 1086 1089 1092 1095 1098 1101 1104 1107 1110 1113 1116 1119 1122 1125 1128 1131 1134 1137 1140 1143 1146 1149 1152 1155 1158 1161 1164 1167 1170 1173 1176 1179 1182 1185 1188 1191 1194 1197 1200 1203 1206 1209 1212 1215 1218 1221 1224 1227 1230 1233 1236 1239 1242 1245 1248 1251 1254 1257 1260 1263 1266 1269 1272 1275 1278 1281 1284 1287 1290 1293 1296 1299 1302 1305 1308 1311 1314 1317 1320 1323 1326 1329 1332 1335 1338 1341 1344 1347 1350 1353 1356 1359 1362 1365 1368 1371 1374 1377 1380 1383 1386 1389 1392 1395 1398 1401 1404 1407 1410 1413 1416 
</DataArray>
<DataArray type="UInt32" Name="types" format="ascii">
5 5 5 5 5 5 5 5 5 5 5 5 5 5 5 5 5 5 5 5 5 5 5 5 5 5 5 5 5 5 5 5 5 5 5 5 5 5 5 5 5 5 5 5 5 5 5 5 5 5 5 5 5 5 5 5 5 5 5 5 5 5 5 5 5 5 5 5 5 5 5 5 5 5 5 5 5 5 5 5 5 5 5 5 5 5 5 5 5 5 5 5 5 5 5 5 5 5 5 5 5 5 5 5 5 5 5 5 5 5 5 5 5 5 5 5 5 5 5 5 5 5 5 5 5 5 5 5 5 5 5 5 5 5 5 5 5 5 5 5 5 5 5 5 5 5 5 5 5 5 5 5 5 5 5 5 5 5 5 5 5 5 5 5 5 5 5 5 5 5 5 5 5 5 5 5 5 5 5 5 5 5 5 5 5 5 5 5 5 5 5 5 5 5 5 5 5 5 5 5 5 5 5 5 5 5 5 5 5 5 5 5 5 5 5 5 5 5 5 5 5 5 5 5 5 5 5 5 5 5 5 5 5 5 5 5 5 5 5 5 5 5 5 5 5 5 5 5 5 5 5 5 5 5 5 5 5 5 5 5 5 5 5 5 5 5 5 5 5 5 5 5 5 5 5 5 5 5 5 5 5 5 5 5 5 5 5 5 5 5 5 5 5 5 5 5 5 5 5 5 5 5 5 5 5 5 5 5 5 5 5 5 5 5 5 5 5 5 5 5 5 5 5 5 5 5 5 5 5 5 5 5 5 5 5 5 5 5 5 5 5 5 5 5 5 5 5 5 5 5 5 5 5 5 5 5 5 5 5 5 5 5 5 5 5 5 5 5 5 5 5 5 5 5 5 5 5 5 5 5 5 5 5 5 5 5 5 5 5 5 5 5 5 5 5 5 5 5 5 5 5 5 5 5 5 5 5 5 5 5 5 5 5 5 5 5 5 5 5 5 5 5 5 5 5 5 5 5 5 5 5 5 5 5 5 5 5 5 5 5 5 5 5 5 5 5 5 5 5 5 5 5 5 5 5 5 5 5 5 5 5 5 5 5 5 5 5 5 5 5 5 5 
</DataArray>
</Cells>
<PointData Scalars="" Vectors="displacement," Tensors="">
<DataArray type="Float64" Name="displacement" NumberOfComponents="3" format="ascii">
7.0962730354156957e-05 4.8708081211853466e-07 0 0.1079159117590162 0.0010008415712199948 0 0.0001681830907551516 1.740696044566561e-06 0 7.0962730354156957e-05 4.8708081211853466e-07 0 0.1079159117590162 0.0010008415712199948 0 0.14284043164219534 2.9964076964697553e-06 0 0.0001681830907551516 1.740696044566561e-06 0 0.12732406556633521 0.0010296962961446755 0 0.00014661142046570514 8.6324795490370977e-07 0 0.1079159117590162 0.0010008415712199948 0 0.0001681830907551516 1.740696044566561e-06 0 0.12732406556633521 0.0010296962961446755 0 0.1079159117590162 0.0010008415712199948 0 0.12732406556633521 0.0010296962961446755 0 0.24143564716930963 0.0017807798115878511 0 0.12732406556633521 0.0010296962961446755 0 0.24143564716930963 0.0017807798115878511 0 0.2646096625133218 6.3574008979048257e-05 0 0.24143564716930963 0.0017807798115878511 0 0.14284043164219534 2.9964076964697553e-06 0 0.28572738174844842 3.4363700772829001e-06 0 0.1079159117590162 0.0010008415712199948 0 0.24143564716930963 0.0017807798115878511 0 0.14284043164219534 2.9964076964697553e-06 0 0.00015473385255843604 -1.0914086005755029e-06 0 0.1324399549482965 -0.0007904312773959611 0 0.13339344844854101 -0.0035761697412695359 0 0.12732406556633521 0.0010296962961446755 0 0.00014661142046570514 8.6324795490370977e-07 0 0.1324399549482965 -0.0007904312773959611 0 0.00015473385255843604 -1.0914086005755029e-06 0 0.00014661142046570514 8.6324795490370977e-07 0 0.1324399549482965 -0.0007904312773959611 0 0.1324399549482965 -0.0007904312773959611 0 0.2646096625133218 6.3574008979048257e-05 0 0.26855210655365963 -0.0038122631975288312 0 0.12732406556633521 0.0010296962961446755 0 0.1324399549482965 -0.0007904312773959611 0 0.2646096625133218 6.3574008979048257e-05 0 0.1324399549482965 -0.0007904312773959611 0 0.26855210655365963 -0.0038122631975288312 0 0.13339344844854101 -0.0035761697412695359 0 0.26855210655365963 -0.0038122631975288312 0 0.4040445555799772 -0.0019415062616030812 0 0.4050360838102573 -0.0078805065828296342 0 0.2646096625133218 6.3574008979048257e-05 0 0.26855210655365963 -0.0038122631975288312 0 0.4040445555799772 -0.0019415062616030812 0 0.2646096625133218 6.3574008979048257e-05 0 0.4040445555799772 -0.0019415062616030812 0 0.39291153857917865 0.0017142321668132104 0 0.4040445555799772 -0.0019415062616030812 0 0.54031748686877823 0.0011673131963376431 0 0.54707076392204823 -0.0045175947345232094 0 0.4040445555799772 -0.0019415062616030812 0 0.54031748686877823 0.0011673131963376431 0 0.39291153857917865 0.0017142321668132104 0 0.4040445555799772 -0.0019415062616030812 0 0.54707076392204823 -0.0045175947345232094 0 0.4050360838102573 -0.0078805065828296342 0 0.24143564716930963 0.0017807798115878511 0 0.28572738174844842 3.4363700772829001e-06 0 0.3698775927883729 0.0017256616059026888 0 0.28572738174844842 3.4363700772829001e-06 0 0.3698775927883729 0.0017256616059026888 0 0.42857876873941936 4.5587832087727748e-06 0 0.24143564716930963 0.0017807798115878511 0 0.3698775927883729 0.0017256616059026888 0 0.39291153857917865 0.0017142321668132104 0 0.24143564716930963 0.0017807798115878511 0 0.2646096625133218 6.3574008979048257e-05 0 0.39291153857917865 0.0017142321668132104 0 0.3698775927883729 0.0017256616059026888 0 0.39291153857917865 0.0017142321668132104 0 0.52129071550569406 0.0033185825526424002 0 0.54031748686877823 0.0011673131963376431 0 0.39291153857917865 0.0017142321668132104 0 0.52129071550569406 0.0033185825526424002 0 0.52129071550569406 0.0033185825526424002 0 0.42857876873941936 4.5587832087727748e-06 0 0.57144748641489274 7.4187712181370707e-06 0 0.3698775927883729 0.0017256616059026888 0 0.52129071550569406 0.0033185825526424002 0 0.42857876873941936 4.5587832087727748e-06 0 0.52129071550569406 0.0033185825526424002 0 0.57144748641489274 7.4187712181370707e-06 0 0.66266711012130974 0.0039636603283243485 0 0.71431070811891728 1.0766596512977461e-05 0 0.66266711012130974 0.0039636603283243485 0 0.82100311444289331 0.0079331074149447608 0 0.57144748641489274 7.4187712181370707e-06 0 0.71431070811891728 1.0766596512977461e-05 0 0.66266711012130974 0.0039636603283243485 0 0.68033394571649519 0.004735089860352812 0 0.83541315507721536 0.0057672499964059581 0 0.82100311444289331 0.0079331074149447608 0 0.66266711012130974 0.0039636603283243485 0 0.68033394571649519 0.004735089860352812 0 0.82100311444289331 0.0079331074149447608 0 0.52129071550569406 0.0033185825526424002 0 0.66266711012130974 0.0039636603283243485 0 0.68033394571649519 0.004735089860352812 0 0.54031748686877823 0.0011673131963376431 0 0.52129071550569406 0.0033185825526424002 0 0.68033394571649519 0.004735089860352812 0 0.54031748686877823 0.0011673131963376431 0 0.68033394571649519 0.004735089860352812 0 0.6882681795361052 0.00030824480681046663 0 0.54031748686877823 0.0011673131963376431 0 0.54707076392204823 -0.0045175947345232094 0 0.6882681795361052 0.00030824480681046663 0 0.54707076392204823 -0.0045175947345232094 0 0.6882681795361052 0.00030824480681046663 0 0.69535371673869817 -0.0068895597594917238 0 0.6882681795361052 0.00030824480681046663 0 0.84537119559037011 -0.00016574623510164462 0 0.69535371673869817 -0.0068895597594917238 0 0.68033394571649519 0.004735089860352812 0 0.6882681795361052 0.00030824480681046663 0 0.83541315507721536 0.0057672499964059581 0 0.6882681795361052 0.00030824480681046663 0 0.84537119559037011 -0.00016574623510164462 0 0.83541315507721536 0.0057672499964059581 0 0.83541315507721536 0.0057672499964059581 0 0.99817596236575568 0.0067705650545114241 0 0.9803686235206478 0.010663763908224514 0 0.84537119559037011 -0.00016574623510164462 0 0.83541315507721536 0.0057672499964059581 0 0.99817596236575568 0.0067705650545114241 0 0.84537119559037011 -0.00016574623510164462 0 0.99817596236575568 0.0067705650545114241 0 1.0132905789983775 0.00078570215079440788 0 0.99817596236575568 0.0067705650545114241 0 1.0132905789983775 0.00078570215079440788 0 1.1777796769953475 0.0091457554047668817 0 0.99817596236575568 0.0067705650545114241 0 1.1550345838960068 0.013844566381464017 0 1.1777796769953475 0.0091457554047668817 0 0.99817596236575568 0.0067705650545114241 0 0.9803686235206478 0.010663763908224514 0 1.1550345838960068 0.013844566381464017 0 0.9803686235206478 0.010663763908224514 0 1.1062193649529339 0.015271589395326718 0 1.1550345838960068 0.013844566381464017 0 0.9803686235206478 0.010663763908224514 0 0.95424010582001406 0.0099892846512781575 0 1.1062193649529339 0.015271589395326718 0 0.95424010582001406 0.0099892846512781575 0 0.85716542283191388 1.3013785648314962e-05 0 1.0001186369404294 4.1023696794912429e-05 0 0.95424010582001406 0.0099892846512781575 0 1.1062193649529339 0.015271589395326718 0 1.0001186369404294 4.1023696794912429e-05 0 0.71431070811891728 1.0766596512977461e-05 0 0.85716542283191388 1.3013785648314962e-05 0 0.82100311444289331 0.0079331074149447608 0 0.95424010582001406 0.0099892846512781575 0 0.85716542283191388 1.3013785648314962e-05 0 0.82100311444289331 0.0079331074149447608 0 0.83541315507721536 0.0057672499964059581 0 0.9803686235206478 0.010663763908224514 0 0.82100311444289331 0.0079331074149447608 0 0.9803686235206478 0.010663763908224514 0 0.95424010582001406 0.0099892846512781575 0 0.82100311444289331 0.0079331074149447608 0 0.81255875913003295 -0.026215189198582636 0 0.98271532509815396 -0.013906118676769002 0 0.83806506002352765 -0.017102622193546531 0 0.81255875913003295 -0.026215189198582636 0 0.95156367608815429 -0.018710862778256745 0 0.98271532509815396 -0.013906118676769002 0 0.81255875913003295 -0.026215189198582636 0 0.95156367608815429 -0.018710862778256745 0 0.83991838270967856 -0.025152072514013395 0 0.81255875913003295 -0.026215189198582636 0 0.6919621847705858 -0.030689553967224815 0 0.83991838270967856 -0.025152072514013395 0 0.95156367608815429 -0.018710862778256745 0 1.0000301385243255 1.5546024195089348e-06 0 1.1131300573975045 -0.0066896597454042918 0 0.95156367608815429 -0.018710862778256745 0 0.83991838270967856 -0.025152072514013395 0 1.0000301385243255 1.5546024195089348e-06 0 0.98271532509815396 -0.013906118676769002 0 1.1599880613183748 -0.0022368103848708137 0 1.1131300573975045 -0.0066896597454042918 0 0.95156367608815429 -0.018710862778256745 0 0.98271532509815396 -0.013906118676769002 0 1.1131300573975045 -0.0066896597454042918 0 0.98271532509815396 -0.013906118676769002 0 1.0054134562133592 -0.0066467798914533272 0 1.1599880613183748 -0.0022368103848708137 0 1.0054134562133592 -0.0066467798914533272 0 1.179502274846348 0.0034447341178404116 0 1.1599880613183748 -0.0022368103848708137 0 1.0132905789983775 0.00078570215079440788 0 1.1777796769953475 0.0091457554047668817 0 1.179502274846348 0.0034447341178404116 0 1.0054134562133592 -0.0066467798914533272 0 1.0132905789983775 0.00078570215079440788 0 1.179502274846348 0.0034447341178404116 0 1.0054134562133592 -0.0066467798914533272 0 1.0132905789983775 0.00078570215079440788 0 0.8549978207003861 -0.007857502960344499 0 0.84537119559037011 -0.00016574623510164462 0 1.0132905789983775 0.00078570215079440788 0 0.8549978207003861 -0.007857502960344499 0 0.98271532509815396 -0.013906118676769002 0 1.0054134562133592 -0.0066467798914533272 0 0.83806506002352765 -0.017102622193546531 0 1.0054134562133592 -0.0066467798914533272 0 0.8549978207003861 -0.007857502960344499 0 0.83806506002352765 -0.017102622193546531 0 0.83806506002352765 -0.017102622193546531 0 0.6866889087450091 -0.015618065605700924 0 0.67081405841828956 -0.024303502161711135 0 0.8549978207003861 -0.007857502960344499 0 0.83806506002352765 -0.017102622193546531 0 0.6866889087450091 -0.015618065605700924 0 0.84537119559037011 -0.00016574623510164462 0 0.8549978207003861 -0.007857502960344499 0 0.69535371673869817 -0.0068895597594917238 0 0.8549978207003861 -0.007857502960344499 0 0.69535371673869817 -0.0068895597594917238 0 0.6866889087450091 -0.015618065605700924 0 0.54707076392204823 -0.0045175947345232094 0 0.69535371673869817 -0.0068895597594917238 0 0.54364267182896231 -0.012153920962344484 0 0.69535371673869817 -0.0068895597594917238 0 0.6866889087450091 -0.015618065605700924 0 0.54364267182896231 -0.012153920962344484 0 0.6866889087450091 -0.015618065605700924 0 0.54364267182896231 -0.012153920962344484 0 0.53105218983686409 -0.02012412398534141 0 0.6866889087450091 -0.015618065605700924 0 0.67081405841828956 -0.024303502161711135 0 0.53105218983686409 -0.02012412398534141 0 0.67081405841828956 -0.024303502161711135 0 0.50836394868126922 -0.026424735661280105 0 0.53105218983686409 -0.02012412398534141 0 0.67081405841828956 -0.024303502161711135 0 0.647539675336815 -0.029198575169459031 0 0.50836394868126922 -0.026424735661280105 0 0.81255875913003295 -0.026215189198582636 0 0.67081405841828956 -0.024303502161711135 0 0.647539675336815 -0.029198575169459031 0 0.81255875913003295 -0.026215189198582636 0 0.83806506002352765 -0.017102622193546531 0 0.67081405841828956 -0.024303502161711135 0 0.81255875913003295 -0.026215189198582636 0 0.647539675336815 -0.029198575169459031 0 0.6919621847705858 -0.030689553967224815 0 0.647539675336815 -0.029198575169459031 0 0.6919621847705858 -0.030689553967224815 0 0.55029949986859039 -0.029426260527331723 0 0.647539675336815 -0.029198575169459031 0 0.50836394868126922 -0.026424735661280105 0 0.55029949986859039 -0.029426260527331723 0 0.50836394868126922 -0.026424735661280105 0 0.35539356080240503 -0.02181836343926398 0 0.41036881951694415 -0.024710984230995228 0 0.50836394868126922 -0.026424735661280105 0 0.41036881951694415 -0.024710984230995228 0 0.55029949986859039 -0.029426260527331723 0 0.50836394868126922 -0.026424735661280105 0 0.38267873236383809 -0.020331319734780365 0 0.53105218983686409 -0.02012412398534141 0 0.50836394868126922 -0.026424735661280105 0 0.38267873236383809 -0.020331319734780365 0 0.35539356080240503 -0.02181836343926398 0 0.38267873236383809 -0.020331319734780365 0 0.35539356080240503 -0.02181836343926398 0 0.23241624119046511 -0.015981558830716076 0 0.38267873236383809 -0.020331319734780365 0 0.25679871835273932 -0.013514044557272922 0 0.23241624119046511 -0.015981558830716076 0 0.35539356080240503 -0.02181836343926398 0 0.41036881951694415 -0.024710984230995228 0 0.2725593390660298 -0.018303739230471964 0 0.35539356080240503 -0.02181836343926398 0 0.23241624119046511 -0.015981558830716076 0 0.2725593390660298 -0.018303739230471964 0 0.54707076392204823 -0.0045175947345232094 0 0.54364267182896231 -0.012153920962344484 0 0.4050360838102573 -0.0078805065828296342 0 0.54364267182896231 -0.012153920962344484 0 0.39578650181066038 -0.014786937936894382 0 0.4050360838102573 -0.0078805065828296342 0 0.38267873236383809 -0.020331319734780365 0 0.53105218983686409 -0.02012412398534141 0 0.39578650181066038 -0.014786937936894382 0 0.54364267182896231 -0.012153920962344484 0 0.53105218983686409 -0.02012412398534141 0 0.39578650181066038 -0.014786937936894382 0 0.39578650181066038 -0.014786937936894382 0 0.26729759842630901 -0.008779620879641398 0 0.25679871835273932 -0.013514044557272922 0 0.38267873236383809 -0.020331319734780365 0 0.39578650181066038 -0.014786937936894382 0 0.25679871835273932 -0.013514044557272922 0 0.39578650181066038 -0.014786937936894382 0 0.4050360838102573 -0.0078805065828296342 0 0.26729759842630901 -0.008779620879641398 0 0.26855210655365963 -0.0038122631975288312 0 0.4050360838102573 -0.0078805065828296342 0 0.26729759842630901 -0.008779620879641398 0 0.26729759842630901 -0.008779620879641398 0 0.13219518778709749 -0.0067005623512799706 0 0.13339344844854101 -0.0035761697412695359 0 0.26855210655365963 -0.0038122631975288312 0 0.26729759842630901 -0.008779620879641398 0 0.13339344844854101 -0.0035761697412695359 0 0.26729759842630901 -0.008779620879641398 0 0.25679871835273932 -0.013514044557272922 0 0.13219518778709749 -0.0067005623512799706 0 0.25679871835273932 -0.013514044557272922 0 0.13219518778709749 -0.0067005623512799706 0 0.12742221492474298 -0.0090481685155449024 0 0.13219518778709749 -0.0067005623512799706 0 0.00014887172522585871 -5.7053457957933637e-06 0 0.12742221492474298 -0.0090481685155449024 0 0.13219518778709749 -0.0067005623512799706 0 0.00014887172522585871 -5.7053457957933637e-06 0 0.00015205752913303834 -3.4298533199209909e-06 0 0.13219518778709749 -0.0067005623512799706 0 0.13339344844854101 -0.0035761697412695359 0 0.00015205752913303834 -3.4298533199209909e-06 0 0.00015473385255843604 -1.0914086005755029e-06 0 0.13339344844854101 -0.0035761697412695359 0 0.00015205752913303834 -3.4298533199209909e-06 0 0.23241624119046511 -0.015981558830716076 0 0.10391144206760769 -0.0082816775016538689 0 0.1353039747786815 -0.010200774965502422 0 0.23241624119046511 -0.015981558830716076 0 0.1353039747786815 -0.010200774965502422 0 0.2725593390660298 -0.018303739230471964 0 0.25679871835273932 -0.013514044557272922 0 0.23241624119046511 -0.015981558830716076 0 0.12742221492474298 -0.0090481685155449024 0 0.23241624119046511 -0.015981558830716076 0 0.12742221492474298 -0.0090481685155449024 0 0.10391144206760769 -0.0082816775016538689 0 0.12742221492474298 -0.0090481685155449024 0 0.00014483940542694154 -6.888046283429429e-06 0 0.10391144206760769 -0.0082816775016538689 0 0.00014887172522585871 -5.7053457957933637e-06 0 0.12742221492474298 -0.0090481685155449024 0 0.00014483940542694154 -6.888046283429429e-06 0 0.10391144206760769 -0.0082816775016538689 0 0.00013258470621954827 -6.3737187457939267e-06 0 0.1353039747786815 -0.010200774965502422 0 0.00014483940542694154 -6.888046283429429e-06 0 0.10391144206760769 -0.0082816775016538689 0 0.00013258470621954827 -6.3737187457939267e-06 0 0.00013258470621954827 -6.3737187457939267e-06 0 0.098152207500853808 -0.0068737414186873661 0 0.00013439346291311074 -5.0794007097844541e-06 0 0.00013258470621954827 -6.3737187457939267e-06 0 0.098152207500853808 -0.0068737414186873661 0 0.1353039747786815 -0.010200774965502422 0 0.1353039747786815 -0.010200774965502422 0 0.20317080501967566 -0.013477400749024681 0 0.2725593390660298 -0.018303739230471964 0 0.098152207500853808 -0.0068737414186873661 0 0.1353039747786815 -0.010200774965502422 0 0.20317080501967566 -0.013477400749024681 0 0.098152207500853808 -0.0068737414186873661 0 0.20317080501967566 -0.013477400749024681 0 0.11830852472091083 -0.0071542766470614151 0 0.20317080501967566 -0.013477400749024681 0 0.11830852472091083 -0.0071542766470614151 0 0.2592020227438574 -0.014045949055250835 0 0.098152207500853808 -0.0068737414186873661 0 0.11830852472091083 -0.0071542766470614151 0 0.00013439346291311074 -5.0794007097844541e-06 0 0.11830852472091083 -0.0071542766470614151 0 0.00013439346291311074 -5.0794007097844541e-06 0 0.00013096422393434889 -3.3956838614653698e-06 0 0.080559541520220893 -0.003534886386415536 0 0.00013096422393434889 -3.3956838614653698e-06 0 0.00012973396104769679 -2.8368257814512457e-06 0 0.11830852472091083 -0.0071542766470614151 0 0.080559541520220893 -0.003534886386415536 0 0.00013096422393434889 -3.3956838614653698e-06 0 0.00012973396104769679 -2.8368257814512457e-06 0 0.11480759837087084 -0.0024433489980101833 0 0.00013169694728795139 1.711207083438397e-07 0 0.080559541520220893 -0.003534886386415536 0 0.00012973396104769679 -2.8368257814512457e-06 0 0.11480759837087084 -0.0024433489980101833 0 0.11480759837087084 -0.0024433489980101833 0 0.18892612155400337 -0.007824669784893868 0 0.2497858594997403 -0.0056143177274392804 0 0.080559541520220893 -0.003534886386415536 0 0.11480759837087084 -0.0024433489980101833 0 0.18892612155400337 -0.007824669784893868 0 0.11830852472091083 -0.0071542766470614151 0 0.18892612155400337 -0.007824669784893868 0 0.2592020227438574 -0.014045949055250835 0 0.11830852472091083 -0.0071542766470614151 0 0.080559541520220893 -0.003534886386415536 0 0.18892612155400337 -0.007824669784893868 0 0.31764781228410249 -0.012288168474894697 0 0.38855745151020438 -0.019381780359805735 0 0.2592020227438574 -0.014045949055250835 0 0.18892612155400337 -0.007824669784893868 0 0.31764781228410249 -0.012288168474894697 0 0.2592020227438574 -0.014045949055250835 0 0.31764781228410249 -0.012288168474894697 0 0.2497858594997403 -0.0056143177274392804 0 0.37815823960323586 -0.0082805670425527538 0 0.18892612155400337 -0.007824669784893868 0 0.31764781228410249 -0.012288168474894697 0 0.2497858594997403 -0.0056143177274392804 0 0.31764781228410249 -0.012288168474894697 0 0.37815823960323586 -0.0082805670425527538 0 0.44119896919353524 -0.015603279509772968 0 0.37815823960323586 -0.0082805670425527538 0 0.44119896919353524 -0.015603279509772968 0 0.49932418188849664 -0.0098576987850980506 0 0.44119896919353524 -0.015603279509772968 0 0.38855745151020438 -0.019381780359805735 0 0.51386541844099809 -0.02292820201464851 0 0.31764781228410249 -0.012288168474894697 0 0.44119896919353524 -0.015603279509772968 0 0.38855745151020438 -0.019381780359805735 0 0.38855745151020438 -0.019381780359805735 0 0.33339260617696131 -0.020123211115776064 0 0.46633945946364913 -0.025606285678976288 0 0.41036881951694415 -0.024710984230995228 0 0.33339260617696131 -0.020123211115776064 0 0.46633945946364913 -0.025606285678976288 0 0.20317080501967566 -0.013477400749024681 0 0.33339260617696131 -0.020123211115776064 0 0.2725593390660298 -0.018303739230471964 0 0.41036881951694415 -0.024710984230995228 0 0.33339260617696131 -0.020123211115776064 0 0.2725593390660298 -0.018303739230471964 0 0.38855745151020438 -0.019381780359805735 0 0.33339260617696131 -0.020123211115776064 0 0.2592020227438574 -0.014045949055250835 0 0.20317080501967566 -0.013477400749024681 0 0.33339260617696131 -0.020123211115776064 0 0.2592020227438574 -0.014045949055250835 0 0.20845831088555489 0.0018472598664500493 0 0.14283481964575043 3.1446772509653012e-06 0 0.28571334602028126 3.8458232177199394e-06 0 0.20845831088555489 0.0018472598664500493 0 0.14283481964575043 3.1446772509653012e-06 0 0.10080913266048278 0.0011430479187771155 0 0.14283481964575043 3.1446772509653012e-06 0 7.2020103532665004e-05 3.4118483394355055e-07 0 0.10080913266048278 0.0011430479187771155 0 7.2020103532665004e-05 3.4118483394355055e-07 0 0.10080913266048278 0.0011430479187771155 0 0.00015543998505600427 2.202657446697705e-06 0 0.00015543998505600427 2.202657446697705e-06 0 0.12095326760554802 0.0014247578460484553 0 0.00012768649661973187 7.3931137000093503e-07 0 0.10080913266048278 0.0011430479187771155 0 0.00015543998505600427 2.202657446697705e-06 0 0.12095326760554802 0.0014247578460484553 0 0.20845831088555489 0.0018472598664500493 0 0.12095326760554802 0.0014247578460484553 0 0.26185444232209831 0.0012260130465720372 0 0.20845831088555489 0.0018472598664500493 0 0.10080913266048278 0.0011430479187771155 0 0.12095326760554802 0.0014247578460484553 0 0.12095326760554802 0.0014247578460484553 0 0.19333758104651599 -0.00084393858517042906 0 0.26185444232209831 0.0012260130465720372 0 0.12095326760554802 0.0014247578460484553 0 0.19333758104651599 -0.00084393858517042906 0 0.085737722975812003 -8.9481705791149841e-05 0 0.12095326760554802 0.0014247578460484553 0 0.00012768649661973187 7.3931137000093503e-07 0 0.085737722975812003 -8.9481705791149841e-05 0 0.00012768649661973187 7.3931137000093503e-07 0 0.085737722975812003 -8.9481705791149841e-05 0 0.00013169694728795139 1.711207083438397e-07 0 0.11480759837087084 -0.0024433489980101833 0 0.085737722975812003 -8.9481705791149841e-05 0 0.00013169694728795139 1.711207083438397e-07 0 0.11480759837087084 -0.0024433489980101833 0 0.19333758104651599 -0.00084393858517042906 0 0.085737722975812003 -8.9481705791149841e-05 0 0.11480759837087084 -0.0024433489980101833 0 0.2497858594997403 -0.0056143177274392804 0 0.19333758104651599 -0.00084393858517042906 0 0.2497858594997403 -0.0056143177274392804 0 0.37815823960323586 -0.0082805670425527538 0 0.32179666556516834 -0.0023354525545053336 0 0.2497858594997403 -0.0056143177274392804 0 0.19333758104651599 -0.00084393858517042906 0 0.32179666556516834 -0.0023354525545053336 0 0.37815823960323586 -0.0082805670425527538 0 0.44523564156565459 -0.0032830385977409044 0 0.49932418188849664 -0.0098576987850980506 0 0.37815823960323586 -0.0082805670425527538 0 0.32179666556516834 -0.0023354525545053336 0 0.44523564156565459 -0.0032830385977409044 0 0.32179666556516834 -0.0023354525545053336 0 0.44523564156565459 -0.0032830385977409044 0 0.39515901056820185 0.0010972219552840216 0 0.44523564156565459 -0.0032830385977409044 0 0.39515901056820185 0.0010972219552840216 0 0.5199602648488445 0.0010754081925455248 0 0.19333758104651599 -0.00084393858517042906 0 0.32179666556516834 -0.0023354525545053336 0 0.26185444232209831 0.0012260130465720372 0 0.32179666556516834 -0.0023354525545053336 0 0.26185444232209831 0.0012260130465720372 0 0.39515901056820185 0.0010972219552840216 0 0.26185444232209831 0.0012260130465720372 0 0.39515901056820185 0.0010972219552840216 0 0.33974401300983853 0.002054622368997251 0 0.20845831088555489 0.0018472598664500493 0 0.26185444232209831 0.0012260130465720372 0 0.33974401300983853 0.002054622368997251 0 0.39515901056820185 0.0010972219552840216 0 0.47637384538757921 0.0024101810259369405 0 0.5199602648488445 0.0010754081925455248 0 0.39515901056820185 0.0010972219552840216 0 0.47637384538757921 0.0024101810259369405 0 0.33974401300983853 0.002054622368997251 0 0.47637384538757921 0.0024101810259369405 0 0.42855906717212083 4.3573234909935519e-06 0 0.33974401300983853 0.002054622368997251 0 0.47637384538757921 0.0024101810259369405 0 0.42855906717212083 4.3573234909935519e-06 0 0.57141458525336741 6.3670971375557024e-06 0 0.42855906717212083 4.3573234909935519e-06 0 0.28571334602028126 3.8458232177199394e-06 0 0.33974401300983853 0.002054622368997251 0 0.20845831088555489 0.0018472598664500493 0 0.28571334602028126 3.8458232177199394e-06 0 0.33974401300983853 0.002054622368997251 0 0.71425764226787736 4.7124886718011401e-06 0 0.60737601224243842 0.0030181648295799523 0 0.73179449174366629 0.0032345607769945044 0 0.71425764226787736 4.7124886718011401e-06 0 0.57141458525336741 6.3670971375557024e-06 0 0.60737601224243842 0.0030181648295799523 0 0.47637384538757921 0.0024101810259369405 0 0.57141458525336741 6.3670971375557024e-06 0 0.60737601224243842 0.0030181648295799523 0 0.47637384538757921 0.0024101810259369405 0 0.60737601224243842 0.0030181648295799523 0 0.5199602648488445 0.0010754081925455248 0 0.60737601224243842 0.0030181648295799523 0 0.63944664978687293 0.000823689016444438 0 0.73179449174366629 0.0032345607769945044 0 0.60737601224243842 0.0030181648295799523 0 0.63944664978687293 0.000823689016444438 0 0.5199602648488445 0.0010754081925455248 0 0.63944664978687293 0.000823689016444438 0 0.5199602648488445 0.0010754081925455248 0 0.56347871940247385 -0.0037963652392442857 0 0.63944664978687293 0.000823689016444438 0 0.56347871940247385 -0.0037963652392442857 0 0.67450840264162992 -0.0046611002193769156 0 0.44523564156565459 -0.0032830385977409044 0 0.5199602648488445 0.0010754081925455248 0 0.56347871940247385 -0.0037963652392442857 0 0.44523564156565459 -0.0032830385977409044 0 0.56347871940247385 -0.0037963652392442857 0 0.49932418188849664 -0.0098576987850980506 0 0.56347871940247385 -0.0037963652392442857 0 0.67450840264162992 -0.0046611002193769156 0 0.61284260678104097 -0.010079454272919262 0 0.56347871940247385 -0.0037963652392442857 0 0.49932418188849664 -0.0098576987850980506 0 0.61284260678104097 -0.010079454272919262 0 0.67450840264162992 -0.0046611002193769156 0 0.61284260678104097 -0.010079454272919262 0 0.72956070613959978 -0.0084225845833640171 0 0.67450840264162992 -0.0046611002193769156 0 0.76391246965125459 -0.0074545278477036615 0 0.72956070613959978 -0.0084225845833640171 0 0.76391246965125459 -0.0074545278477036615 0 0.72956070613959978 -0.0084225845833640171 0 0.82244892665160596 -0.0090378103267845285 0 0.76391246965125459 -0.0074545278477036615 0 0.76494995019279488 -0.0022751903044515727 0 0.8447474561638405 -0.014156612768337202 0 0.76391246965125459 -0.0074545278477036615 0 0.8447474561638405 -0.014156612768337202 0 0.82244892665160596 -0.0090378103267845285 0 0.63944664978687293 0.000823689016444438 0 0.67450840264162992 -0.0046611002193769156 0 0.76494995019279488 -0.0022751903044515727 0 0.67450840264162992 -0.0046611002193769156 0 0.76391246965125459 -0.0074545278477036615 0 0.76494995019279488 -0.0022751903044515727 0 0.63944664978687293 0.000823689016444438 0 0.76494995019279488 -0.0022751903044515727 0 0.73179449174366629 0.0032345607769945044 0 0.76494995019279488 -0.0022751903044515727 0 0.73179449174366629 0.0032345607769945044 0 0.83859264114526821 0.00040038843096313942 0 0.76494995019279488 -0.0022751903044515727 0 0.89387803590968762 -0.015203768576699358 0 0.8447474561638405 -0.014156612768337202 0 0.76494995019279488 -0.0022751903044515727 0 0.83859264114526821 0.00040038843096313942 0 0.89387803590968762 -0.015203768576699358 0 0.83859264114526821 0.00040038843096313942 0 0.85712647800367081 1.8396797774185283e-05 0 0.99988014940581915 -4.0842241054616826e-05 0 0.83859264114526821 0.00040038843096313942 0 0.99988014940581915 -4.0842241054616826e-05 0 0.89387803590968762 -0.015203768576699358 0 0.73179449174366629 0.0032345607769945044 0 0.83859264114526821 0.00040038843096313942 0 0.85712647800367081 1.8396797774185283e-05 0 0.71425764226787736 4.7124886718011401e-06 0 0.73179449174366629 0.0032345607769945044 0 0.85712647800367081 1.8396797774185283e-05 0 0.63324502966529683 -0.023386163355193213 0 0.59562764389751877 -0.028675964488793268 0 0.72053173698782602 -0.027648874016221001 0 0.63324502966529683 -0.023386163355193213 0 0.59562764389751877 -0.028675964488793268 0 0.51386541844099809 -0.02292820201464851 0 0.6919621847705858 -0.030689553967224815 0 0.59562764389751877 -0.028675964488793268 0 0.55029949986859039 -0.029426260527331723 0 0.6919621847705858 -0.030689553967224815 0 0.59562764389751877 -0.028675964488793268 0 0.72053173698782602 -0.027648874016221001 0 0.59562764389751877 -0.028675964488793268 0 0.46633945946364913 -0.025606285678976288 0 0.55029949986859039 -0.029426260527331723 0 0.41036881951694415 -0.024710984230995228 0 0.46633945946364913 -0.025606285678976288 0 0.55029949986859039 -0.029426260527331723 0 0.59562764389751877 -0.028675964488793268 0 0.46633945946364913 -0.025606285678976288 0 0.51386541844099809 -0.02292820201464851 0 0.38855745151020438 -0.019381780359805735 0 0.46633945946364913 -0.025606285678976288 0 0.51386541844099809 -0.02292820201464851 0 0.44119896919353524 -0.015603279509772968 0 0.51386541844099809 -0.02292820201464851 0 0.56060235322489682 -0.017089053471389011 0 0.44119896919353524 -0.015603279509772968 0 0.49932418188849664 -0.0098576987850980506 0 0.56060235322489682 -0.017089053471389011 0 0.49932418188849664 -0.0098576987850980506 0 0.61284260678104097 -0.010079454272919262 0 0.56060235322489682 -0.017089053471389011 0 0.61284260678104097 -0.010079454272919262 0 0.56060235322489682 -0.017089053471389011 0 0.67074907139819595 -0.01504123649953874 0 0.63324502966529683 -0.023386163355193213 0 0.56060235322489682 -0.017089053471389011 0 0.67074907139819595 -0.01504123649953874 0 0.63324502966529683 -0.023386163355193213 0 0.51386541844099809 -0.02292820201464851 0 0.56060235322489682 -0.017089053471389011 0 0.67074907139819595 -0.01504123649953874 0 0.76059088972338607 -0.0087763391851717193 0 0.7585530133327848 -0.016526958119458486 0 0.63324502966529683 -0.023386163355193213 0 0.67074907139819595 -0.01504123649953874 0 0.7585530133327848 -0.016526958119458486 0 0.67074907139819595 -0.01504123649953874 0 0.72956070613959978 -0.0084225845833640171 0 0.76059088972338607 -0.0087763391851717193 0 0.61284260678104097 -0.010079454272919262 0 0.67074907139819595 -0.01504123649953874 0 0.72956070613959978 -0.0084225845833640171 0 0.72956070613959978 -0.0084225845833640171 0 0.76059088972338607 -0.0087763391851717193 0 0.82062581619377717 -0.0036193897084925057 0 0.72956070613959978 -0.0084225845833640171 0 0.82062581619377717 -0.0036193897084925057 0 0.82244892665160596 -0.0090378103267845285 0 0.76059088972338607 -0.0087763391851717193 0 0.83989696183682216 0.002604808337390325 0 0.82062581619377717 -0.0036193897084925057 0 0.76059088972338607 -0.0087763391851717193 0 0.7585530133327848 -0.016526958119458486 0 0.83989696183682216 0.002604808337390325 0 0.7585530133327848 -0.016526958119458486 0 0.8868946387909008 0.0064887411930004907 0 0.83989696183682216 0.002604808337390325 0 0.7585530133327848 -0.016526958119458486 0 0.82733677704496955 -0.019117801483997613 0 0.8868946387909008 0.0064887411930004907 0 0.7585530133327848 -0.016526958119458486 0 0.72053173698782602 -0.027648874016221001 0 0.82733677704496955 -0.019117801483997613 0 0.63324502966529683 -0.023386163355193213 0 0.7585530133327848 -0.016526958119458486 0 0.72053173698782602 -0.027648874016221001 0 0.6919621847705858 -0.030689553967224815 0 0.72053173698782602 -0.027648874016221001 0 0.83991838270967856 -0.025152072514013395 0 0.72053173698782602 -0.027648874016221001 0 0.83991838270967856 -0.025152072514013395 0 0.82733677704496955 -0.019117801483997613 0 0.83991838270967856 -0.025152072514013395 0 0.82733677704496955 -0.019117801483997613 0 1.0000301385243255 1.5546024195089348e-06 0 0.82733677704496955 -0.019117801483997613 0 1.0000301385243255 1.5546024195089348e-06 0 0.8868946387909008 0.0064887411930004907 0 1.0000301385243255 1.5546024195089348e-06 0 1.0483667996489447 0.018945718870212354 0 0.8868946387909008 0.0064887411930004907 0 1.0000301385243255 1.5546024195089348e-06 0 1.0483667996489447 0.018945718870212354 0 1.1605161616219872 0.025155220573942233 0 1.1605161616219872 0.025155220573942233 0 1.1808015787720438 0.026011130995873065 0 1.3071730292998176 0.030558726614351387 0 1.0483667996489447 0.018945718870212354 0 1.1605161616219872 0.025155220573942233 0 1.1808015787720438 0.026011130995873065 0 1.0483667996489447 0.018945718870212354 0 1.1808015787720438 0.026011130995873065 0 1.0311937554676021 0.014154022997061292 0 1.1808015787720438 0.026011130995873065 0 1.0311937554676021 0.014154022997061292 0 1.2208829854556396 0.020538498949254538 0 1.0483667996489447 0.018945718870212354 0 1.0311937554676021 0.014154022997061292 0 0.8868946387909008 0.0064887411930004907 0 1.0311937554676021 0.014154022997061292 0 0.8868946387909008 0.0064887411930004907 0 0.83989696183682216 0.002604808337390325 0 0.83989696183682216 0.002604808337390325 0 0.95661212674790275 0.0046340963736027146 0 0.82062581619377717 -0.0036193897084925057 0 1.0311937554676021 0.014154022997061292 0 0.83989696183682216 0.002604808337390325 0 0.95661212674790275 0.0046340963736027146 0 0.82062581619377717 -0.0036193897084925057 0 0.99165356819810524 -0.00063784339105479372 0 0.82244892665160596 -0.0090378103267845285 0 0.95661212674790275 0.0046340963736027146 0 0.82062581619377717 -0.0036193897084925057 0 0.99165356819810524 -0.00063784339105479372 0 0.99165356819810524 -0.00063784339105479372 0 1.1113270633113392 0.010150384272470947 0 1.1875874723816078 0.0048609305003424778 0 0.95661212674790275 0.0046340963736027146 0 0.99165356819810524 -0.00063784339105479372 0 1.1113270633113392 0.010150384272470947 0 1.0311937554676021 0.014154022997061292 0 0.95661212674790275 0.0046340963736027146 0 1.1113270633113392 0.010150384272470947 0 1.0311937554676021 0.014154022997061292 0 1.1113270633113392 0.010150384272470947 0 1.2208829854556396 0.020538498949254538 0 1.2852705473041393 0.014246018982484721 0 1.3866859908809832 0.022141917595249781 0 1.2208829854556396 0.020538498949254538 0 1.1113270633113392 0.010150384272470947 0 1.2852705473041393 0.014246018982484721 0 1.2208829854556396 0.020538498949254538 0 1.1113270633113392 0.010150384272470947 0 1.2852705473041393 0.014246018982484721 0 1.1875874723816078 0.0048609305003424778 0 1.2852705473041393 0.014246018982484721 0 1.1875874723816078 0.0048609305003424778 0 1.3634110406407753 0.0078633976824776849 0 1.2852705473041393 0.014246018982484721 0 1.3634110406407753 0.0078633976824776849 0 1.4553302389888785 0.015264418228991661 0 1.2852705473041393 0.014246018982484721 0 1.3866859908809832 0.022141917595249781 0 1.4553302389888785 0.015264418228991661 0 1.3866859908809832 0.022141917595249781 0 1.489572724129367 0.026217435671948376 0 1.5478814337222684 0.02042045704443933 0 1.3866859908809832 0.022141917595249781 0 1.489572724129367 0.026217435671948376 0 1.3371539960089185 0.028031116794986748 0 1.489572724129367 0.026217435671948376 0 1.4504857065851287 0.029428317491404139 0 1.3371539960089185 0.028031116794986748 0 1.489572724129367 0.026217435671948376 0 1.4504857065851287 0.029428317491404139 0 1.5897220631527211 0.024773396937404695 0 1.1808015787720438 0.026011130995873065 0 1.3371539960089185 0.028031116794986748 0 1.3071730292998176 0.030558726614351387 0 1.4504857065851287 0.029428317491404139 0 1.3371539960089185 0.028031116794986748 0 1.3071730292998176 0.030558726614351387 0 1.3866859908809832 0.022141917595249781 0 1.3371539960089185 0.028031116794986748 0 1.2208829854556396 0.020538498949254538 0 1.1808015787720438 0.026011130995873065 0 1.3371539960089185 0.028031116794986748 0 1.2208829854556396 0.020538498949254538 0 1.168225978118925 -0.0077292207803431306 0 1.1428369363088682 -1.2431457647105223e-05 0 1.2856853056899527 -1.2107561070069275e-05 0 1.168225978118925 -0.0077292207803431306 0 1.1428369363088682 -1.2431457647105223e-05 0 1.0446873604982425 -0.010337306969293646 0 0.99988014940581915 -4.0842241054616826e-05 0 1.0446873604982425 -0.010337306969293646 0 0.89387803590968762 -0.015203768576699358 0 1.1428369363088682 -1.2431457647105223e-05 0 0.99988014940581915 -4.0842241054616826e-05 0 1.0446873604982425 -0.010337306969293646 0 1.0446873604982425 -0.010337306969293646 0 0.89387803590968762 -0.015203768576699358 0 1.0282324046013331 -0.010206318398170678 0 0.89387803590968762 -0.015203768576699358 0 1.0282324046013331 -0.010206318398170678 0 0.8447474561638405 -0.014156612768337202 0 1.168225978118925 -0.0077292207803431306 0 1.0282324046013331 -0.010206318398170678 0 1.2086959402705246 -0.0057401439197818302 0 1.168225978118925 -0.0077292207803431306 0 1.0446873604982425 -0.010337306969293646 0 1.0282324046013331 -0.010206318398170678 0 1.0282324046013331 -0.010206318398170678 0 1.1062549281298326 -0.0036809622021405975 0 1.2086959402705246 -0.0057401439197818302 0 1.0282324046013331 -0.010206318398170678 0 0.95969532930121382 -0.0077296060038249273 0 1.1062549281298326 -0.0036809622021405975 0 1.0282324046013331 -0.010206318398170678 0 0.95969532930121382 -0.0077296060038249273 0 0.8447474561638405 -0.014156612768337202 0 0.95969532930121382 -0.0077296060038249273 0 0.8447474561638405 -0.014156612768337202 0 0.82244892665160596 -0.0090378103267845285 0 0.99165356819810524 -0.00063784339105479372 0 0.95969532930121382 -0.0077296060038249273 0 0.82244892665160596 -0.0090378103267845285 0 0.99165356819810524 -0.00063784339105479372 0 0.95969532930121382 -0.0077296060038249273 0 1.1062549281298326 -0.0036809622021405975 0 0.99165356819810524 -0.00063784339105479372 0 1.1875874723816078 0.0048609305003424778 0 1.1062549281298326 -0.0036809622021405975 0 1.1875874723816078 0.0048609305003424778 0 1.3634110406407753 0.0078633976824776849 0 1.2804121088527676 0.00021994966427057788 0 1.1875874723816078 0.0048609305003424778 0 1.1062549281298326 -0.0036809622021405975 0 1.2804121088527676 0.00021994966427057788 0 1.3634110406407753 0.0078633976824776849 0 1.2804121088527676 0.00021994966427057788 0 1.4488981504334186 0.0023445987309830274 0 1.2804121088527676 0.00021994966427057788 0 1.3754603047986316 -0.0027823700634951464 0 1.4488981504334186 0.0023445987309830274 0 1.3754603047986316 -0.0027823700634951464 0 1.5380473652042932 -0.0011143526529011733 0 1.4488981504334186 0.0023445987309830274 0 1.1062549281298326 -0.0036809622021405975 0 1.2804121088527676 0.00021994966427057788 0 1.2086959402705246 -0.0057401439197818302 0 1.2804121088527676 0.00021994966427057788 0 1.3754603047986316 -0.0027823700634951464 0 1.2086959402705246 -0.0057401439197818302 0 1.3754603047986316 -0.0027823700634951464 0 1.2086959402705246 -0.0057401439197818302 0 1.3186582914555975 -0.0047858139954596859 0 1.168225978118925 -0.0077292207803431306 0 1.2086959402705246 -0.0057401439197818302 0 1.3186582914555975 -0.0047858139954596859 0 1.3754603047986316 -0.0027823700634951464 0 1.4754503991095675 -0.0029279913647756624 0 1.5380473652042932 -0.0011143526529011733 0 1.3754603047986316 -0.0027823700634951464 0 1.3186582914555975 -0.0047858139954596859 0 1.4754503991095675 -0.0029279913647756624 0 1.3186582914555975 -0.0047858139954596859 0 1.4754503991095675 -0.0029279913647756624 0 1.4285560931515935 -6.6482736366272898e-06 0 1.4754503991095675 -0.0029279913647756624 0 1.4285560931515935 -6.6482736366272898e-06 0 1.5714188350757368 -4.7842222253850514e-06 0 1.3186582914555975 -0.0047858139954596859 0 1.4285560931515935 -6.6482736366272898e-06 0 1.2856853056899527 -1.2107561070069275e-05 0 1.168225978118925 -0.0077292207803431306 0 1.3186582914555975 -0.0047858139954596859 0 1.2856853056899527 -1.2107561070069275e-05 0 1.714274687722591 -3.4512810965285726e-06 0 1.6271993577631787 -0.0019709050534218982 0 1.7720046669771066 -0.0015850935723794903 0 1.714274687722591 -3.4512810965285726e-06 0 1.5714188350757368 -4.7842222253850514e-06 0 1.6271993577631787 -0.0019709050534218982 0 1.4754503991095675 -0.0029279913647756624 0 1.5714188350757368 -4.7842222253850514e-06 0 1.6271993577631787 -0.0019709050534218982 0 1.4754503991095675 -0.0029279913647756624 0 1.6271993577631787 -0.0019709050534218982 0 1.5380473652042932 -0.0011143526529011733 0 1.6271993577631787 -0.0019709050534218982 0 1.6935681847396373 -0.00053312867512056395 0 1.7720046669771066 -0.0015850935723794903 0 1.6271993577631787 -0.0019709050534218982 0 1.6935681847396373 -0.00053312867512056395 0 1.5380473652042932 -0.0011143526529011733 0 1.6935681847396373 -0.00053312867512056395 0 1.5380473652042932 -0.0011143526529011733 0 1.6109687023178259 0.0029407062651930593 0 1.6935681847396373 -0.00053312867512056395 0 1.6109687023178259 0.0029407062651930593 0 1.7682139097997043 0.0021400529569889494 0 1.5380473652042932 -0.0011143526529011733 0 1.4488981504334186 0.0023445987309830274 0 1.6109687023178259 0.0029407062651930593 0 1.3634110406407753 0.0078633976824776849 0 1.4488981504334186 0.0023445987309830274 0 1.531580514776604 0.0084985351077594053 0 1.4488981504334186 0.0023445987309830274 0 1.6109687023178259 0.0029407062651930593 0 1.531580514776604 0.0084985351077594053 0 1.6109687023178259 0.0029407062651930593 0 1.7682139097997043 0.0021400529569889494 0 1.697496155081881 0.0070178376489756266 0 1.6109687023178259 0.0029407062651930593 0 1.531580514776604 0.0084985351077594053 0 1.697496155081881 0.0070178376489756266 0 1.7682139097997043 0.0021400529569889494 0 1.697496155081881 0.0070178376489756266 0 1.8632095962584152 0.0037724319281536522 0 1.7682139097997043 0.0021400529569889494 0 1.898131778675251 0.00080600358801641433 0 1.8632095962584152 0.0037724319281536522 0 1.9998450703226018 4.694996737990211e-07 0 1.898131778675251 0.00080600358801641433 0 1.8632095962584152 0.0037724319281536522 0 1.9998450703226018 4.694996737990211e-07 0 1.898131778675251 0.00080600358801641433 0 1.9998530251815543 -2.5959919689795064e-08 0 1.898131778675251 0.00080600358801641433 0 1.9998530251815543 -2.5959919689795064e-08 0 1.8601674745277459 -0.00082985276540246922 0 1.7682139097997043 0.0021400529569889494 0 1.898131778675251 0.00080600358801641433 0 1.8601674745277459 -0.00082985276540246922 0 1.6935681847396373 -0.00053312867512056395 0 1.7682139097997043 0.0021400529569889494 0 1.8601674745277459 -0.00082985276540246922 0 1.6935681847396373 -0.00053312867512056395 0 1.8601674745277459 -0.00082985276540246922 0 1.7720046669771066 -0.0015850935723794903 0 1.8601674745277459 -0.00082985276540246922 0 1.7720046669771066 -0.0015850935723794903 0 1.8921144410632385 -0.00092985904892197921 0 1.9998530251815543 -2.5959919689795064e-08 0 1.8601674745277459 -0.00082985276540246922 0 1.9998321558076741 -2.1184529675028872e-06 0 1.8601674745277459 -0.00082985276540246922 0 1.9998321558076741 -2.1184529675028872e-06 0 1.8921144410632385 -0.00092985904892197921 0 1.9999291657733125 -4.2953055716813473e-07 0 1.8921144410632385 -0.00092985904892197921 0 1.857158870773981 -2.6864088727361193e-06 0 1.9998321558076741 -2.1184529675028872e-06 0 1.9999291657733125 -4.2953055716813473e-07 0 1.8921144410632385 -0.00092985904892197921 0 1.714274687722591 -3.4512810965285726e-06 0 1.7720046669771066 -0.0015850935723794903 0 1.857158870773981 -2.6864088727361193e-06 0 1.7720046669771066 -0.0015850935723794903 0 1.8921144410632385 -0.00092985904892197921 0 1.857158870773981 -2.6864088727361193e-06 0 1.703954868696882 0.016095693742821826 0 1.6399086164283667 0.021505579466054046 0 1.7828595047260498 0.015201332916877714 0 1.703954868696882 0.016095693742821826 0 1.6399086164283667 0.021505579466054046 0 1.5478814337222684 0.02042045704443933 0 1.7281687250892592 0.018317850142258479 0 1.6399086164283667 0.021505579466054046 0 1.7828595047260498 0.015201332916877714 0 1.7281687250892592 0.018317850142258479 0 1.6399086164283667 0.021505579466054046 0 1.5897220631527211 0.024773396937404695 0 1.489572724129367 0.026217435671948376 0 1.6399086164283667 0.021505579466054046 0 1.5897220631527211 0.024773396937404695 0 1.489572724129367 0.026217435671948376 0 1.6399086164283667 0.021505579466054046 0 1.5478814337222684 0.02042045704443933 0 1.3866859908809832 0.022141917595249781 0 1.5478814337222684 0.02042045704443933 0 1.4553302389888785 0.015264418228991661 0 1.5478814337222684 0.02042045704443933 0 1.4553302389888785 0.015264418228991661 0 1.6175919492878097 0.013670500162444433 0 1.3634110406407753 0.0078633976824776849 0 1.4553302389888785 0.015264418228991661 0 1.531580514776604 0.0084985351077594053 0 1.4553302389888785 0.015264418228991661 0 1.531580514776604 0.0084985351077594053 0 1.6175919492878097 0.013670500162444433 0 1.697496155081881 0.0070178376489756266 0 1.6175919492878097 0.013670500162444433 0 1.7769134216750306 0.0098310347462285345 0 1.531580514776604 0.0084985351077594053 0 1.697496155081881 0.0070178376489756266 0 1.6175919492878097 0.013670500162444433 0 1.703954868696882 0.016095693742821826 0 1.5478814337222684 0.02042045704443933 0 1.6175919492878097 0.013670500162444433 0 1.703954868696882 0.016095693742821826 0 1.6175919492878097 0.013670500162444433 0 1.7769134216750306 0.0098310347462285345 0 1.703954868696882 0.016095693742821826 0 1.7769134216750306 0.0098310347462285345 0 1.8674378941039085 0.0091552986458865275 0 1.7769134216750306 0.0098310347462285345 0 1.9047826901429108 0.0048552845645489333 0 1.8674378941039085 0.0091552986458865275 0 1.7769134216750306 0.0098310347462285345 0 1.8632095962584152 0.0037724319281536522 0 1.9047826901429108 0.0048552845645489333 0 1.697496155081881 0.0070178376489756266 0 1.7769134216750306 0.0098310347462285345 0 1.8632095962584152 0.0037724319281536522 0 1.8632095962584152 0.0037724319281536522 0 1.9998478181200692 4.1882685564368649e-06 0 1.9047826901429108 0.0048552845645489333 0 1.9998450703226018 4.694996737990211e-07 0 1.8632095962584152 0.0037724319281536522 0 1.9998478181200692 4.1882685564368649e-06 0 1.9047826901429108 0.0048552845645489333 0 1.9998505820797274 4.7330562070958203e-06 0 1.8674378941039085 0.0091552986458865275 0 1.9998478181200692 4.1882685564368649e-06 0 1.9047826901429108 0.0048552845645489333 0 1.9998505820797274 4.7330562070958203e-06 0 1.9998556795091016 7.3836103142564331e-06 0 1.8674378941039085 0.0091552986458865275 0 1.8962144957890339 0.008227248867140078 0 1.9998505820797274 4.7330562070958203e-06 0 1.9998556795091016 7.3836103142564331e-06 0 1.8674378941039085 0.0091552986458865275 0 1.8674378941039085 0.0091552986458865275 0 1.7828595047260498 0.015201332916877714 0 1.8962144957890339 0.008227248867140078 0 1.703954868696882 0.016095693742821826 0 1.8674378941039085 0.0091552986458865275 0 1.7828595047260498 0.015201332916877714 0 1.7281687250892592 0.018317850142258479 0 1.7828595047260498 0.015201332916877714 0 1.8648083950036987 0.010199038322409038 0 1.7828595047260498 0.015201332916877714 0 1.8648083950036987 0.010199038322409038 0 1.8962144957890339 0.008227248867140078 0 1.9998556795091016 7.3836103142564331e-06 0 1.9998674380067356 6.4137085098164351e-06 0 1.8962144957890339 0.008227248867140078 0 1.8648083950036987 0.010199038322409038 0 1.9998674380067356 6.4137085098164351e-06 0 1.8962144957890339 0.008227248867140078 0 1.9998674380067356 6.4137085098164351e-06 0 1.9019786861138448 0.006905722588155791 0 1.9998659897946769 4.7586117954970849e-06 0 1.8648083950036987 0.010199038322409038 0 1.9998674380067356 6.4137085098164351e-06 0 1.9019786861138448 0.006905722588155791 0 1.9998659897946769 4.7586117954970849e-06 0 1.8856278925361105 0.0071151179012585008 0 1.999868758927752 4.1016611369306551e-06 0 1.9019786861138448 0.006905722588155791 0 1.9998659897946769 4.7586117954970849e-06 0 1.8856278925361105 0.0071151179012585008 0 1.9019786861138448 0.006905722588155791 0 1.8856278925361105 0.0071151179012585008 0 1.784080526666874 0.01416203109253184 0 1.8856278925361105 0.0071151179012585008 0 1.784080526666874 0.01416203109253184 0 1.7777073711100231 0.011435940633843735 0 1.7281687250892592 0.018317850142258479 0 1.8648083950036987 0.010199038322409038 0 1.784080526666874 0.01416203109253184 0 1.8648083950036987 0.010199038322409038 0 1.9019786861138448 0.006905722588155791 0 1.784080526666874 0.01416203109253184 0 1.7281687250892592 0.018317850142258479 0 1.784080526666874 0.01416203109253184 0 1.6648591159161157 0.020752394980689991 0 1.7281687250892592 0.018317850142258479 0 1.5897220631527211 0.024773396937404695 0 1.6648591159161157 0.020752394980689991 0 1.784080526666874 0.01416203109253184 0 1.6620070159323319 0.018779302347824298 0 1.7777073711100231 0.011435940633843735 0 1.784080526666874 0.01416203109253184 0 1.6648591159161157 0.020752394980689991 0 1.6620070159323319 0.018779302347824298 0 1.6620070159323319 0.018779302347824298 0 1.5371771021812914 0.025692623550924935 0 1.5555372214309198 0.020076007258800797 0 1.6648591159161157 0.020752394980689991 0 1.6620070159323319 0.018779302347824298 0 1.5371771021812914 0.025692623550924935 0 1.5897220631527211 0.024773396937404695 0 1.6648591159161157 0.020752394980689991 0 1.5371771021812914 0.025692623550924935 0 1.4504857065851287 0.029428317491404139 0 1.5897220631527211 0.024773396937404695 0 1.5371771021812914 0.025692623550924935 0 1.5644755896711509 0.012694158100746531 0 1.6699680998568394 0.0071827665393359675 0 1.5618161390639418 0.0054147090285116863 0 1.5644755896711509 0.012694158100746531 0 1.670056458532754 0.013550656735900434 0 1.6699680998568394 0.0071827665393359675 0 1.6620070159323319 0.018779302347824298 0 1.5555372214309198 0.020076007258800797 0 1.670056458532754 0.013550656735900434 0 1.5644755896711509 0.012694158100746531 0 1.5555372214309198 0.020076007258800797 0 1.670056458532754 0.013550656735900434 0 1.670056458532754 0.013550656735900434 0 1.7770827233617983 0.00713037401002929 0 1.7777073711100231 0.011435940633843735 0 1.6620070159323319 0.018779302347824298 0 1.670056458532754 0.013550656735900434 0 1.7777073711100231 0.011435940633843735 0 1.670056458532754 0.013550656735900434 0 1.6699680998568394 0.0071827665393359675 0 1.7770827233617983 0.00713037401002929 0 1.6699680998568394 0.0071827665393359675 0 1.7770827233617983 0.00713037401002929 0 1.7762514317404159 0.0026840725069977095 0 1.7770827233617983 0.00713037401002929 0 1.8865941941044444 0.0050406228196407448 0 1.887669129351162 0.0023749656974462597 0 1.7770827233617983 0.00713037401002929 0 1.887669129351162 0.0023749656974462597 0 1.7762514317404159 0.0026840725069977095 0 1.8856278925361105 0.0071151179012585008 0 1.7777073711100231 0.011435940633843735 0 1.8865941941044444 0.0050406228196407448 0 1.7770827233617983 0.00713037401002929 0 1.7777073711100231 0.011435940633843735 0 1.8865941941044444 0.0050406228196407448 0 1.8856278925361105 0.0071151179012585008 0 1.8865941941044444 0.0050406228196407448 0 1.999868758927752 4.1016611369306551e-06 0 1.8865941941044444 0.0050406228196407448 0 1.999868758927752 4.1016611369306551e-06 0 1.999870105735621 2.2104491141930169e-06 0 1.8865941941044444 0.0050406228196407448 0 1.887669129351162 0.0023749656974462597 0 1.999870105735621 2.2104491141930169e-06 0 1.887669129351162 0.0023749656974462597 0 1.999870105735621 2.2104491141930169e-06 0 1.9998681098103479 3.1490016451547699e-07 0 1.887669129351162 0.0023749656974462597 0 1.9998681098103479 3.1490016451547699e-07 0 1.8868526371346095 -5.298397986201693e-06 0 1.9998720104428458 -1.3658788074931049e-06 0 1.8868526371346095 -5.298397986201693e-06 0 1.8865118619271739 -0.0014829119235412354 0 1.9998681098103479 3.1490016451547699e-07 0 1.9998720104428458 -1.3658788074931049e-06 0 1.8868526371346095 -5.298397986201693e-06 0 1.8868526371346095 -5.298397986201693e-06 0 1.7721083705357052 -0.00074085131865238535 0 1.8865118619271739 -0.0014829119235412354 0 1.8868526371346095 -5.298397986201693e-06 0 1.7721083705357052 -0.00074085131865238535 0 1.7762514317404159 0.0026840725069977095 0 1.887669129351162 0.0023749656974462597 0 1.8868526371346095 -5.298397986201693e-06 0 1.7762514317404159 0.0026840725069977095 0 1.9999281779914739 -3.9883410153583159e-07 0 1.8987536806448364 -0.0011900005939198346 0 1.9998448369883883 -1.9168008517124151e-06 0 1.9999281779914739 -3.9883410153583159e-07 0 1.8987536806448364 -0.0011900005939198346 0 1.8571642705641414 -3.4212935405040278e-06 0 1.9998720104428458 -1.3658788074931049e-06 0 1.9998448369883883 -1.9168008517124151e-06 0 1.8865118619271739 -0.0014829119235412354 0 1.8987536806448364 -0.0011900005939198346 0 1.9998448369883883 -1.9168008517124151e-06 0 1.8865118619271739 -0.0014829119235412354 0 1.7721083705357052 -0.00074085131865238535 0 1.8865118619271739 -0.0014829119235412354 0 1.7768679812784653 -0.0020913096095019523 0 1.8987536806448364 -0.0011900005939198346 0 1.8865118619271739 -0.0014829119235412354 0 1.7768679812784653 -0.0020913096095019523 0 1.8987536806448364 -0.0011900005939198346 0 1.7768679812784653 -0.0020913096095019523 0 1.8571642705641414 -3.4212935405040278e-06 0 1.7768679812784653 -0.0020913096095019523 0 1.8571642705641414 -3.4212935405040278e-06 0 1.7142886842876723 -3.7674054277687633e-06 0 1.7142886842876723 -3.7674054277687633e-06 0 1.6528231644848639 -0.0017591028916771622 0 1.5714386741394404 -4.0187837933165332e-06 0 1.7768679812784653 -0.0020913096095019523 0 1.7142886842876723 -3.7674054277687633e-06 0 1.6528231644848639 -0.0017591028916771622 0 1.7768679812784653 -0.0020913096095019523 0 1.6528231644848639 -0.0017591028916771622 0 1.6554958164621203 -0.0018270002931791158 0 1.7721083705357052 -0.00074085131865238535 0 1.7768679812784653 -0.0020913096095019523 0 1.6554958164621203 -0.0018270002931791158 0 1.6554958164621203 -0.0018270002931791158 0 1.5260884861100492 -0.0027509019597167948 0 1.5489049646162023 -0.00030877838746845245 0 1.6528231644848639 -0.0017591028916771622 0 1.6554958164621203 -0.0018270002931791158 0 1.5260884861100492 -0.0027509019597167948 0 1.6528231644848639 -0.0017591028916771622 0 1.5260884861100492 -0.0027509019597167948 0 1.5714386741394404 -4.0187837933165332e-06 0 1.5260884861100492 -0.0027509019597167948 0 1.5714386741394404 -4.0187837933165332e-06 0 1.4285889147864204 -7.3524374138041174e-06 0 1.6699680998568394 0.0071827665393359675 0 1.7762514317404159 0.0026840725069977095 0 1.6644765192930717 0.0016202926214435001 0 1.7721083705357052 -0.00074085131865238535 0 1.6554958164621203 -0.0018270002931791158 0 1.6644765192930717 0.0016202926214435001 0 1.7721083705357052 -0.00074085131865238535 0 1.7762514317404159 0.0026840725069977095 0 1.6644765192930717 0.0016202926214435001 0 1.6554958164621203 -0.0018270002931791158 0 1.6644765192930717 0.0016202926214435001 0 1.5489049646162023 -0.00030877838746845245 0 1.6644765192930717 0.0016202926214435001 0 1.5489049646162023 -0.00030877838746845245 0 1.5618161390639418 0.0054147090285116863 0 1.6699680998568394 0.0071827665393359675 0 1.6644765192930717 0.0016202926214435001 0 1.5618161390639418 0.0054147090285116863 0 1.5618161390639418 0.0054147090285116863 0 1.4526633567769054 0.0026276931452546316 0 1.4614204854948367 0.0098445700267844986 0 1.5489049646162023 -0.00030877838746845245 0 1.5618161390639418 0.0054147090285116863 0 1.4526633567769054 0.0026276931452546316 0 1.5489049646162023 -0.00030877838746845245 0 1.4526633567769054 0.0026276931452546316 0 1.4261767421370168 -0.0023847335571204427 0 1.4526633567769054 0.0026276931452546316 0 1.4261767421370168 -0.0023847335571204427 0 1.3362260104008885 0.00049303616495839869 0 1.4526633567769054 0.0026276931452546316 0 1.3604946963290743 0.0063257944267255143 0 1.3362260104008885 0.00049303616495839869 0 1.3604946963290743 0.0063257944267255143 0 1.4614204854948367 0.0098445700267844986 0 1.362500805024657 0.013084116988598007 0 1.4526633567769054 0.0026276931452546316 0 1.3604946963290743 0.0063257944267255143 0 1.4614204854948367 0.0098445700267844986 0 1.5260884861100492 -0.0027509019597167948 0 1.4285889147864204 -7.3524374138041174e-06 0 1.3836928581877321 -0.0027283090907286246 0 1.5260884861100492 -0.0027509019597167948 0 1.4261767421370168 -0.0023847335571204427 0 1.3836928581877321 -0.0027283090907286246 0 1.5260884861100492 -0.0027509019597167948 0 1.5489049646162023 -0.00030877838746845245 0 1.4261767421370168 -0.0023847335571204427 0 1.4261767421370168 -0.0023847335571204427 0 1.3836928581877321 -0.0027283090907286246 0 1.283485425038313 -0.0035260219956501789 0 1.4261767421370168 -0.0023847335571204427 0 1.283485425038313 -0.0035260219956501789 0 1.3362260104008885 0.00049303616495839869 0 1.4285889147864204 -7.3524374138041174e-06 0 1.285738953452086 -3.3343015893214428e-06 0 1.3836928581877321 -0.0027283090907286246 0 1.285738953452086 -3.3343015893214428e-06 0 1.3836928581877321 -0.0027283090907286246 0 1.283485425038313 -0.0035260219956501789 0 1.1428751903515315 -1.907172832970839e-05 0 1.283485425038313 -0.0035260219956501789 0 1.1599110247656987 -0.0002830949566462852 0 1.285738953452086 -3.3343015893214428e-06 0 1.1428751903515315 -1.907172832970839e-05 0 1.283485425038313 -0.0035260219956501789 0 1.283485425038313 -0.0035260219956501789 0 1.2183689021061908 0.0025925866037830778 0 1.3362260104008885 0.00049303616495839869 0 1.283485425038313 -0.0035260219956501789 0 1.2183689021061908 0.0025925866037830778 0 1.1599110247656987 -0.0002830949566462852 0 1.2183689021061908 0.0025925866037830778 0 1.1062193649529339 0.015271589395326718 0 1.1550345838960068 0.013844566381464017 0 1.2183689021061908 0.0025925866037830778 0 1.1062193649529339 0.015271589395326718 0 1.1599110247656987 -0.0002830949566462852 0 1.1428751903515315 -1.907172832970839e-05 0 1.0001186369404294 4.1023696794912429e-05 0 1.1599110247656987 -0.0002830949566462852 0 1.1062193649529339 0.015271589395326718 0 1.0001186369404294 4.1023696794912429e-05 0 1.1599110247656987 -0.0002830949566462852 0 1.3604946963290743 0.0063257944267255143 0 1.2695716560201527 0.0083319437569423001 0 1.2562602906347857 0.0058027730763565424 0 1.3604946963290743 0.0063257944267255143 0 1.2695716560201527 0.0083319437569423001 0 1.362500805024657 0.013084116988598007 0 1.2183689021061908 0.0025925866037830778 0 1.3362260104008885 0.00049303616495839869 0 1.2562602906347857 0.0058027730763565424 0 1.3604946963290743 0.0063257944267255143 0 1.3362260104008885 0.00049303616495839869 0 1.2562602906347857 0.0058027730763565424 0 1.2183689021061908 0.0025925866037830778 0 1.2562602906347857 0.0058027730763565424 0 1.1550345838960068 0.013844566381464017 0 1.2562602906347857 0.0058027730763565424 0 1.1550345838960068 0.013844566381464017 0 1.1777796769953475 0.0091457554047668817 0 1.2695716560201527 0.0083319437569423001 0 1.2562602906347857 0.0058027730763565424 0 1.1777796769953475 0.0091457554047668817 0 1.2695716560201527 0.0083319437569423001 0 1.1777796769953475 0.0091457554047668817 0 1.179502274846348 0.0034447341178404116 0 1.2695716560201527 0.0083319437569423001 0 1.179502274846348 0.0034447341178404116 0 1.2607278823844585 0.011104591870361434 0 1.2695716560201527 0.0083319437569423001 0 1.2607278823844585 0.011104591870361434 0 1.362500805024657 0.013084116988598007 0 1.2607278823844585 0.011104591870361434 0 1.2291352884087403 0.01545045204693575 0 1.3447262327927436 0.020378940438103926 0 1.2607278823844585 0.011104591870361434 0 1.362500805024657 0.013084116988598007 0 1.3447262327927436 0.020378940438103926 0 1.179502274846348 0.0034447341178404116 0 1.2607278823844585 0.011104591870361434 0 1.1599880613183748 -0.0022368103848708137 0 1.2607278823844585 0.011104591870361434 0 1.1599880613183748 -0.0022368103848708137 0 1.2291352884087403 0.01545045204693575 0 1.1599880613183748 -0.0022368103848708137 0 1.1131300573975045 -0.0066896597454042918 0 1.2291352884087403 0.01545045204693575 0 1.1131300573975045 -0.0066896597454042918 0 1.2291352884087403 0.01545045204693575 0 1.1723878263923444 0.019063747543029103 0 1.0000301385243255 1.5546024195089348e-06 0 1.1131300573975045 -0.0066896597454042918 0 1.1723878263923444 0.019063747543029103 0 1.0000301385243255 1.5546024195089348e-06 0 1.1605161616219872 0.025155220573942233 0 1.1723878263923444 0.019063747543029103 0 1.1605161616219872 0.025155220573942233 0 1.1723878263923444 0.019063747543029103 0 1.296720175797869 0.027902987490958871 0 1.1605161616219872 0.025155220573942233 0 1.3071730292998176 0.030558726614351387 0 1.296720175797869 0.027902987490958871 0 1.2291352884087403 0.01545045204693575 0 1.1723878263923444 0.019063747543029103 0 1.296720175797869 0.027902987490958871 0 1.2291352884087403 0.01545045204693575 0 1.296720175797869 0.027902987490958871 0 1.3447262327927436 0.020378940438103926 0 1.296720175797869 0.027902987490958871 0 1.3997449682607259 0.029385254953978951 0 1.4410180625806535 0.025423293706121161 0 1.296720175797869 0.027902987490958871 0 1.4410180625806535 0.025423293706121161 0 1.3447262327927436 0.020378940438103926 0 1.3071730292998176 0.030558726614351387 0 1.296720175797869 0.027902987490958871 0 1.3997449682607259 0.029385254953978951 0 1.4504857065851287 0.029428317491404139 0 1.3071730292998176 0.030558726614351387 0 1.3997449682607259 0.029385254953978951 0 1.4504857065851287 0.029428317491404139 0 1.5371771021812914 0.025692623550924935 0 1.3997449682607259 0.029385254953978951 0 1.5371771021812914 0.025692623550924935 0 1.3997449682607259 0.029385254953978951 0 1.4410180625806535 0.025423293706121161 0 1.5371771021812914 0.025692623550924935 0 1.5555372214309198 0.020076007258800797 0 1.4410180625806535 0.025423293706121161 0 1.5644755896711509 0.012694158100746531 0 1.5555372214309198 0.020076007258800797 0 1.4564922315193292 0.017864160513332991 0 1.5555372214309198 0.020076007258800797 0 1.4410180625806535 0.025423293706121161 0 1.4564922315193292 0.017864160513332991 0 1.5644755896711509 0.012694158100746531 0 1.5618161390639418 0.0054147090285116863 0 1.4614204854948367 0.0098445700267844986 0 1.5644755896711509 0.012694158100746531 0 1.4564922315193292 0.017864160513332991 0 1.4614204854948367 0.0098445700267844986 0 1.4564922315193292 0.017864160513332991 0 1.4614204854948367 0.0098445700267844986 0 1.362500805024657 0.013084116988598007 0 1.4564922315193292 0.017864160513332991 0 1.362500805024657 0.013084116988598007 0 1.3447262327927436 0.020378940438103926 0 1.4410180625806535 0.025423293706121161 0 1.4564922315193292 0.017864160513332991 0 1.3447262327927436 0.020378940438103926 0 
</DataArray>
</PointData>
<CellData Scalars="region_id,displacement_divergence," Vectors="" Tensors="stress,">
<DataArray type="Float64" Name="region_id" format="ascii">
15 15 15 15 15 15 15 15 15 15 15 15 15 15 15 15 15 15 15 15 15 15 15 15 15 15 15 15 15 15 15 15 15 15 15 15 15 15 15 15 15 15 15 15 15 15 15 15 15 15 15 15 15 15 15 15 15 15 15 15 15 15 15 15 15 15 15 15 15 15 15 15 15 15 15 15 15 15 15 15 15 15 15 15 15 15 15 15 15 15 15 15 15 15 15 15 15 15 15 15 15 15 15 15 15 15 15 15 15 15 15 15 15 15 15 15 15 15 14 14 14 14 14 14 14 14 14 14 14 14 14 14 14 14 14 14 14 14 14 14 14 14 14 14 14 14 14 14 14 14 14 14 14 14 14 14 14 14 14 14 14 14 14 14 14 14 14 14 14 14 14 14 14 14 14 14 14 14 14 14 14 14 14 14 14 14 14 14 14 14 14 14 14 14 14 14 14 14 14 14 14 14 14 14 14 14 14 14 14 14 14 14 14 14 14 14 14 14 14 14 14 14 14 14 14 14 14 14 14 14 14 14 14 14 14 14 15 15 15 15 15 15 15 15 15 15 15 15 15 15 15 15 15 15 15 15 15 15 15 15 15 15 15 15 15 15 15 15 15 15 15 15 15 15 15 15 15 15 15 15 15 15 15 15 15 15 15 15 15 15 15 15 15 15 15 15 15 15 15 15 15 15 15 15 15 15 15 15 15 15 15 15 15 15 15 15 15 15 15 15 15 15 15 15 15 15 15 15 15 15 15 15 15 15 15 15 15 15 15 15 15 15 15 15 15 15 15 15 15 15 15 15 15 15 14 14 14 14 14 14 14 14 14 14 14 14 14 14 14 14 14 14 14 14 14 14 14 14 14 14 14 14 14 14 14 14 14 14 14 14 14 14 14 14 14 14 14 14 14 14 14 14 14 14 14 14 14 14 14 14 14 14 14 14 14 14 14 14 14 14 14 14 14 14 14 14 14 14 14 14 14 14 14 14 14 14 14 14 14 14 14 14 14 14 14 14 14 14 14 14 14 14 14 14 14 14 14 14 14 14 14 14 14 14 14 14 14 14 14 14 14 14 
</DataArray>
<DataArray type="Float64" Name="stress" NumberOfComponents="9" format="ascii">
51.527601888733791 0.25593336857385302 0 0.25593336857385302 0.0004387653313550502 0 0 0 0 49.969314119240813 0.7965965800196293 0 0.7965965800196293 0.47740011192825949 0 0 0 0 52.754321283898804 0.20954217205955544 0 0.20954217205955544 -0.00030710683138074276 0 0 0 0 51.964929757043855 0.84391832666594579 0 0.84391832666594579 -0.051011323689007571 0 0 0 0 51.969921176593843 0.76989655984485172 0 0.76989655984485172 -0.03061612704969538 0 0 0 0 53.016732048526919 1.2336742735901491 0 1.2336742735901491 -0.54541221766186054 0 0 0 0 50.010432537334324 1.7138324019213882 0 1.7138324019213882 0.6737861222242989 0 0 0 0 51.75251847745929 1.2166922110831464 0 1.2166922110831464 0.5460273740460484 0 0 0 0 53.770141556327985 -0.37284879388370074 0 -0.37284879388370074 -0.97803714165539157 0 0 0 0 53.210697315044314 0.44663604228003345 0 0.44663604228003345 -0.65953228661583196 0 0 0 0 53.694795037501322 -0.15896670046784042 0 -0.15896670046784042 -0.00068412979441487753 0 0 0 0 54.148807937036523 0.36314479232935448 0 0.36314479232935448 -1.3644057788068917 0 0 0 0 53.945055097378543 0.38985109890781655 0 0.38985109890781655 -0.65762013147658493 0 0 0 0 54.738313072266365 -0.26448209797380134 0 -0.26448209797380134 -0.97886253479044194 0 0 0 0 55.24684846776384 0.15704616018650375 0 0.15704616018650375 -2.055749718306124 0 0 0 0 55.488648460459061 0.56556112945019521 0 0.56556112945019521 -1.3660957495173836 0 0 0 0 54.292956841819333 1.5956263399874409 0 1.5956263399874409 -1.2939149040907969 0 0 0 0 56.000337357913352 1.6146234667434911 0 1.6146234667434911 -1.958125155811659 0 0 0 0 56.059451345438362 1.8574389121678445 0 1.8574389121678445 -1.3007582151597306 0 0 0 0 57.376832084973103 0.45044093066402557 0 0.45044093066402557 -2.0516256373058166 0 0 0 0 52.114925054353421 2.2362255244864162 0 2.2362255244864162 0.75222729977286162 0 0 0 0 49.997985446985624 2.9457620178465413 0 2.9457620178465413 0.89988245221092189 0 0 0 0 52.312020790779833 2.4709617522296186 0 2.4709617522296186 -0.0027546911519857886 0 0 0 0 53.844229115440044 1.410313008614406 0 1.410313008614406 -0.58528915713681007 0 0 0 0 53.196185675247136 2.7364785561697431 0 2.7364785561697431 -0.055982712245291291 0 0 0 0 54.311777479496143 3.3468110384392888 0 3.3468110384392888 -0.69546745826195933 0 0 0 0 50.004051186422714 4.5320043689771037 0 4.5320043689771037 1.2788779914177886 0 0 0 0 52.505896097822408 4.0128322038962256 0 4.0128322038962256 1.1190473511305761 0 0 0 0 53.740291446079254 5.9167125829676559 0 5.9167125829676559 1.6457897033752318 0 0 0 0 54.572934621050365 9.1440778775659268 0 9.1440778775659268 2.7232766538327988 0 0 0 0 50.002127596276921 6.8820022605142643 0 6.8820022605142643 2.0904070960624352 0 0 0 0 57.084334274960241 6.5398871863577757 0 6.5398871863577757 -0.5931976220587003 0 0 0 0 56.284010919136193 6.1687076627837758 0 6.1687076627837758 0.41023898557214011 0 0 0 0 53.641587053709827 5.5567184298484094 0 5.5567184298484094 0.34341491832048621 0 0 0 0 56.368274064200477 3.7684865352249761 0 3.7684865352249761 -0.68968144751452753 0 0 0 0 56.510389409591369 3.6873211024574077 0 3.6873211024574077 -1.5040387308862588 0 0 0 0 58.700852136694323 1.9985161570535628 0 1.9985161570535628 -1.947565993718545 0 0 0 0 58.020833620254564 1.2453583725232047 0 1.2453583725232047 -2.5170484910062592 0 0 0 0 61.624512206271902 1.6105903072578425 0 1.6105903072578425 -2.5232421273348025 0 0 0 0 60.153025800703006 4.1828127082970274 0 4.1828127082970274 -1.4516782685333578 0 0 0 0 59.441404717586096 3.3822003738566475 0 3.3822003738566475 -2.0236521196658472 0 0 0 0 60.795308410215966 6.0552586080380797 0 6.0552586080380797 -1.3110028335286765 0 0 0 0 63.776017333762127 3.7964206140699224 0 3.7964206140699224 -1.997761598444886 0 0 0 0 62.501743280018786 2.6225428315994721 0 2.6225428315994721 -2.1327169761271181 0 0 0 0 67.335071318347673 2.8320465059821869 0 2.8320465059821869 -2.1464895606224612 0 0 0 0 64.939691651528648 4.8876908219573716 0 4.8876908219573716 -1.644583841848791 0 0 0 0 66.823576513032833 6.6914998349224231 0 6.6914998349224231 -1.2498564045480602 0 0 0 0 63.605238340870443 9.3492008159628242 0 9.3492008159628242 -0.49945805485340067 0 0 0 0 65.385011319581963 11.095583570665866 0 11.095583570665866 0.59336760650579901 0 0 0 0 50.033624937848629 14.054247378648554 0 14.054247378648554 4.7661554844470162 0 0 0 0 59.070188453886004 18.854800391699001 0 18.854800391699001 5.3306979944964157 0 0 0 0 49.999150149417225 9.7503059102143101 0 9.7503059102143101 3.0576657681225239 0 0 0 0 58.317779271360166 13.360421613685915 0 13.360421613685915 4.1642049641843046 0 0 0 0 61.82094186728969 7.2826885432368575 0 7.2826885432368575 -0.47912807325098017 0 0 0 0 57.068103862859402 9.8570271825791043 0 9.8570271825791043 0.41218388589617699 0 0 0 0 64.157921001944914 -6.1651374195572437 0 -6.1651374195572437 -3.2971594144013254 0 0 0 0 59.774637496636345 -8.6764587508901165 0 -8.6764587508901165 -2.5515172917247542 0 0 0 0 61.706732129621329 -13.629272898571482 0 -13.629272898571482 -1.8386783930070507 0 0 0 0 51.784669278546119 -11.027587491284361 0 -11.027587491284361 -0.8827821742661186 0 0 0 0 62.881546379760323 -16.466160820335151 0 -16.466160820335151 2.3419250217321625 0 0 0 0 56.039114534978808 -11.969385134999275 0 -11.969385134999275 0.19080549584200937 0 0 0 0 65.950700687702437 -6.1716992985224683 0 -6.1716992985224683 -1.5584972761826128 0 0 0 0 69.450455400266605 -8.6099885704844308 0 -8.6099885704844308 -2.6987038025016616 0 0 0 0 68.677400395478685 -4.2458047950443323 0 -4.2458047950443323 -2.8035837049384704 0 0 0 0 65.935998132286585 -1.9806340066002892 0 -1.9806340066002892 -1.9885405759436905 0 0 0 0 65.632560806599969 1.3891093824666203 0 1.3891093824666203 -1.9953574504245455 0 0 0 0 67.93254163430089 -0.49306098461067871 0 -0.49306098461067871 -2.5896342962376004 0 0 0 0 62.956560661880872 -0.69537974699065153 0 -0.69537974699065153 -2.5843246990828943 0 0 0 0 64.745894650605692 0.78258098317137315 0 0.78258098317137315 -2.8047837307441843 0 0 0 0 62.230062396502888 -4.4078297049430111 0 -4.4078297049430111 -2.7691094921177721 0 0 0 0 65.007704763869725 -2.2171387624450798 0 -2.2171387624450798 -3.183778917040303 0 0 0 0 61.269624474118871 -3.8595669622008417 0 -3.8595669622008417 -3.0680532590445937 0 0 0 0 60.084791436917101 -2.7724332234489015 0 -2.7724332234489015 -3.1638748018714224 0 0 0 0 60.421931365451485 0.50417731162240875 0 0.50417731162240875 -2.7584199324414853 0 0 0 0 62.054109790928237 -0.93731800397761011 0 -0.93731800397761011 -3.0570857915413465 0 0 0 0 59.541750763406853 -0.055854925657182752 0 -0.055854925657182752 -2.6277054434309406 0 0 0 0 58.103188012935533 -1.4181748686746869 0 -1.4181748686746869 -3.0552765136130797 0 0 0 0 58.987521220672662 -2.325496555608999 0 -2.325496555608999 -2.6952447860790594 0 0 0 0 56.571104938861083 -4.3516969563174186 0 -4.3516969563174186 -2.9991894032958584 0 0 0 0 56.668008007028249 -4.6801613825934147 0 -4.6801613825934147 -2.0665618229406126 0 0 0 0 53.511987602384181 -7.0670347037449019 0 -7.0670347037449019 -2.0272441595619162 0 0 0 0 57.720340666357117 -6.6790583982713692 0 -6.6790583982713692 -2.1036455465454846 0 0 0 0 58.123010451913615 -6.7323720576404193 0 -6.7323720576404193 -3.1049916449820536 0 0 0 0 55.507510352088403 -10.805843909206811 0 -10.805843909206811 -1.4117232292079649 0 0 0 0 49.581939715567813 -8.9350512382548963 0 -8.9350512382548963 -0.43027978254087174 0 0 0 0 53.730965647276641 -7.6834681342191882 0 -7.6834681342191882 -0.70340769492781163 0 0 0 0 51.405965039940611 -6.0736251443054954 0 -6.0736251443054954 -0.25980148410777737 0 0 0 0 48.975738123083119 -6.7155033706719633 0 -6.7155033706719633 -0.23064331330517174 0 0 0 0 53.578918629936496 -4.936098105389358 0 -4.936098105389358 -2.0528511805581209 0 0 0 0 52.402137900094758 -4.3090830320182372 0 -4.3090830320182372 -0.8250578737642158 0 0 0 0 51.011917552036039 -4.4776958569810201 0 -4.4776958569810201 -0.84468029190227789 0 0 0 0 52.786023241242489 -2.9263114348781949 0 -2.9263114348781949 -0.98791412351701613 0 0 0 0 48.233318157960625 -5.0612348151522273 0 -5.0612348151522273 0.17593425124268514 0 0 0 0 50.699721980205148 -4.1173594513880047 0 -4.1173594513880047 0.090705178637547235 0 0 0 0 56.527358099078839 -0.4443105212724805 0 -0.4443105212724805 -2.6342257103040709 0 0 0 0 57.345506682444665 -1.2458517698716554 0 -1.2458517698716554 -2.2958416128346553 0 0 0 0 55.813946799773262 -3.0024447026922654 0 -3.0024447026922654 -1.9270207429466835 0 0 0 0 55.694446783804068 -2.6858714573750762 0 -2.6858714573750762 -2.688865562132269 0 0 0 0 55.052021171986731 -1.7815290689678374 0 -1.7815290689678374 -1.6175803995216591 0 0 0 0 53.52602222511058 -3.2540125360218148 0 -3.2540125360218148 -1.923500840567516 0 0 0 0 55.036342477731438 -1.5360346686372304 0 -1.5360346686372304 -2.3049871994636666 0 0 0 0 55.97583719695178 -0.54546924265425822 0 -0.54546924265425822 -1.7400620859619618 0 0 0 0 54.509277123839901 -1.0856477143488172 0 -1.0856477143488172 -1.0592993926762575 0 0 0 0 54.389990439862366 -0.78590952508673018 0 -0.78590952508673018 -1.7397628862810648 0 0 0 0 53.585060949619326 -2.0167507672251919 0 -2.0167507672251919 -1.6282459594626191 0 0 0 0 53.111140727465525 -1.8786999533444724 0 -1.8786999533444724 -0.85498874976355754 0 0 0 0 52.268606399093393 -2.299428315305474 0 -2.299428315305474 -0.8593622646343837 0 0 0 0 53.05324233590057 -1.3457115361205703 0 -1.3457115361205703 -0.00079642236656055597 0 0 0 0 53.459319723198178 -1.3642972754175999 0 -1.3642972754175999 -1.0565045225153604 0 0 0 0 53.848326228653043 -0.72265744201458737 0 -0.72265744201458737 -0.00081845565177189779 0 0 0 0 50.089473655593075 -3.1646713569930629 0 -3.1646713569930629 0.18213887857007904 0 0 0 0 48.039377500711922 -3.7931833535031094 0 -3.7931833535031094 0.29917576367279608 0 0 0 0 51.840699813632781 -3.0980039037387841 0 -3.0980039037387841 -1.0096812878884491 0 0 0 0 50.338642375456494 -2.5018165266031671 0 -2.5018165266031671 -0.1863087335265603 0 0 0 0 50.320526697963743 -2.8877143638796028 0 -2.8877143638796028 -0.32040301883022204 0 0 0 0 51.437724091512784 -1.8278201511168084 0 -1.8278201511168084 -0.0004139451706754952 0 0 0 0 47.309986525452935 -2.9378241735158239 0 -2.9378241735158239 0.3884558806584244 0 0 0 0 49.613305291394298 -1.9803027235575958 0 -1.9803027235575958 0.00018001463817119085 0 0 0 0 93.72684023512619 -3.2831695038078341 0 -3.2831695038078341 0.00090602262520662977 0 0 0 0 94.619973050905912 -4.0139737794184782 0 -4.0139737794184782 0.56938175806704816 0 0 0 0 96.078755001423801 -4.3463845829653103 0 -4.3463845829653103 0.80462353135070863 0 0 0 0 93.425355292561662 -3.6503824099785547 0 -3.6503824099785547 0.99559754549268842 0 0 0 0 93.443534544559057 -3.7304755416859114 0 -3.7304755416859114 0.89411138465817164 0 0 0 0 91.088821657533003 -3.9520944781484837 0 -3.9520944781484837 1.9843349235041217 0 0 0 0 93.194388255302044 -3.8380646282468276 0 -3.8380646282468276 0.94317835953942442 0 0 0 0 92.202359468606403 -2.7905431179992211 0 -2.7905431179992211 0.0011786017938252634 0 0 0 0 90.99789074862835 -1.9983595956668538 0 -1.9983595956668538 0.00039120065600988614 0 0 0 0 91.783910780138413 -3.0009629424370559 0 -3.0009629424370559 1.2781125587730497 0 0 0 0 90.623029657874909 -0.96419519470473114 0 -0.96419519470473114 0.0021055625428566659 0 0 0 0 90.775575996838725 -1.5209514719523303 0 -1.5209514719523303 1.5222813178661969 0 0 0 0 89.074412221966512 -1.3982806970761776 0 -1.3982806970761776 2.7459804253668856 0 0 0 0 90.161442513610922 -1.8807994133412114 0 -1.8807994133412114 1.7619490177331949 0 0 0 0 91.004530917065154 -3.2597360707414809 0 -3.2597360707414809 2.2784588253943494 0 0 0 0 90.225106151474606 -2.5562678542138579 0 -2.5562678542138579 1.7112791779570951 0 0 0 0 89.585374836514575 -3.8781931891874288 0 -3.8781931891874288 3.5114746351414974 0 0 0 0 88.56728337646274 -3.275685193806777 0 -3.275685193806777 3.1558242907005827 0 0 0 0 86.788255057790821 -1.622761054030359 0 -1.622761054030359 4.1445972221867686 0 0 0 0 88.504135113098627 -1.8039829605191244 0 -1.8039829605191244 3.332039339282038 0 0 0 0 86.0321005330849 -1.731398762295433 0 -1.731398762295433 4.508506893476449 0 0 0 0 83.558826692181697 -1.8087243716650154 0 -1.8087243716650154 5.2461074787679927 0 0 0 0 87.365981093820153 -4.6629805474169812 0 -4.6629805474169812 4.4367417785542855 0 0 0 0 86.14369947933011 -4.2273362136691741 0 -4.2273362136691741 4.3295359615056981 0 0 0 0 92.596497058156189 -6.0549645756441475 0 -6.0549645756441475 2.8277178464282891 0 0 0 0 92.611837818720062 -6.4511395656507187 0 -6.4511395656507187 1.5343410696781117 0 0 0 0 93.096137081231177 -4.7780735873752374 0 -4.7780735873752374 1.328758762678877 0 0 0 0 96.466636315921306 -5.6311056275525422 0 -5.6311056275525422 1.1529706784976206 0 0 0 0 89.641846167618667 -5.1489763609617771 0 -5.1489763609617771 2.762766423106167 0 0 0 0 93.08605319079112 -4.6058986439188505 0 -4.6058986439188505 2.1116363732129777 0 0 0 0 100.0149684624631 3.2869217286841708 0 3.2869217286841708 -1.5744586879790476 0 0 0 0 96.499704501251315 2.4259626766331852 0 2.4259626766331852 -1.2747625801580411 0 0 0 0 99.933959679745158 1.5462369010789521 0 1.5462369010789521 -1.096576690758305 0 0 0 0 96.785054405210573 0.51942109377787382 0 0.51942109377787382 -0.0013030308289279065 0 0 0 0 93.84810717107473 0.56257283059068541 0 0.56257283059068541 0.0010243422536877459 0 0 0 0 95.713971205220304 1.9550665511142473 0 1.9550665511142473 -0.0079507719547473599 0 0 0 0 92.830240606043617 2.7940740771600385 0 2.7940740771600385 0.44230431108905699 0 0 0 0 96.331700793997541 1.7742421057027986 0 1.7742421057027986 -0.10369449595236357 0 0 0 0 92.576849315868259 1.6812518513793679 0 1.6812518513793679 1.6133162501239031 0 0 0 0 90.906900584903383 0.89956606134069983 0 0.89956606134069983 1.2694951900492948 0 0 0 0 93.072763698480671 1.232953595819172 0 1.232953595819172 0.94552409707651053 0 0 0 0 91.594168504985802 -0.049503392771629025 0 -0.049503392771629025 0.00039773346315997039 0 0 0 0 91.062092499401444 -0.16948463778305109 0 -0.16948463778305109 1.4375557095143985 0 0 0 0 90.789493097125032 0.085266126005505788 0 0.085266126005505788 1.574839299830969 0 0 0 0 89.13479866311954 -0.12469541267048431 0 -0.12469541267048431 2.5665398500140792 0 0 0 0 86.830243735337632 0.62350974963209105 0 0.62350974963209105 3.7171971934284098 0 0 0 0 88.947611287001649 0.41670463923885515 0 0.41670463923885515 3.1471235350784146 0 0 0 0 83.498373819157109 1.6722523126326809 0 1.6722523126326809 4.599533918325319 0 0 0 0 86.406124259759878 1.0644607321872479 0 1.0644607321872479 4.3251214332682961 0 0 0 0 86.417411161095615 3.9070541635463742 0 3.9070541635463742 2.9588957557725752 0 0 0 0 87.952230056159124 4.7290003952185691 0 4.7290003952185691 3.3990746440684081 0 0 0 0 89.142745271624094 2.1465786598456011 0 2.1465786598456011 2.1390958068960879 0 0 0 0 90.755373623738365 3.0314582117035687 0 3.0314582117035687 2.6244898425201928 0 0 0 0 90.8176688389823 4.8878674984142725 0 4.8878674984142725 0.72960518211086511 0 0 0 0 95.510510632153284 3.6082344492381475 0 3.6082344492381475 0.57617460996006986 0 0 0 0 88.275048721453174 7.7324604707085838 0 7.7324604707085838 1.0538580930022252 0 0 0 0 94.283719489461333 6.097377595149946 0 6.097377595149946 0.92897618836172391 0 0 0 0 94.318096142049512 7.6048060331447527 0 7.6048060331447527 -1.7840488964292627 0 0 0 0 99.998862656886615 9.0876916253401347 0 9.0876916253401347 -1.9095035328228891 0 0 0 0 99.992004806579175 5.7941228163642062 0 5.7941228163642062 -1.6496377809988012 0 0 0 0 95.622447093184576 4.6240714373859024 0 4.6240714373859024 -1.6134322703079227 0 0 0 0 89.069526515681218 16.507788198720533 0 16.507788198720533 -2.4457706741503893 0 0 0 0 99.9901399098936 13.367186704191225 0 13.367186704191225 -2.3123786926867989 0 0 0 0 92.325402575650685 11.465639949415237 0 11.465639949415237 -2.1155454517475003 0 0 0 0 92.174245486573156 9.0291636644554547 0 9.0291636644554547 1.2898832716552915 0 0 0 0 89.332684209519357 12.566079331369316 0 12.566079331369316 1.8022713239996035 0 0 0 0 84.190027902694737 10.976414189130711 0 10.976414189130711 1.6509107921587844 0 0 0 0 84.1603972481889 6.5098079313493633 0 6.5098079313493633 3.7755677021696901 0 0 0 0 77.651407968813203 8.1238768995094315 0 8.1238768995094315 4.02083559623272 0 0 0 0 82.664961045287896 6.0035348583956036 0 6.0035348583956036 3.6824337643203107 0 0 0 0 82.597663128966488 1.8202933294786412 0 1.8202933294786412 5.0610056435270003 0 0 0 0 77.639004633675682 2.2096438642640237 0 2.2096438642640237 4.7258296706605059 0 0 0 0 79.198300667634385 2.8757513595847222 0 2.8757513595847222 4.9749402754200194 0 0 0 0 73.908349746254999 4.0795227077562259 0 4.0795227077562259 3.8102311925156513 0 0 0 0 73.997422886028616 2.3690826555019746 0 2.3690826555019746 1.3278358900967113 0 0 0 0 67.436610574832343 3.9024028148463747 0 3.9024028148463747 0.97035322933340895 0 0 0 0 67.863589347851871 5.8981007031835357 0 5.8981007031835357 1.5826154494662918 0 0 0 0 71.819028724897521 5.8091893477330174 0 5.8091893477330174 -3.5831617090868697 0 0 0 0 79.022765158079324 7.638868600072513 0 7.638868600072513 3.0059084023324285 0 0 0 0 72.290791440900506 9.3809510846399355 0 9.3809510846399355 3.2133473915176864 0 0 0 0 77.412912446079673 14.394969230234247 0 14.394969230234247 3.0676763728998586 0 0 0 0 85.798137736727881 17.404086862849923 0 17.404086862849923 2.6206370935989662 0 0 0 0 73.052559083911831 12.560373118106796 0 12.560373118106796 -0.73300906585350667 0 0 0 0 68.023142950826013 14.112764426256867 0 14.112764426256867 4.735600697708894 0 0 0 0 99.927569981240708 27.128473104517607 0 27.128473104517607 -0.38044528765254104 0 0 0 0 80.02450407018307 31.582759198759444 0 31.582759198759444 10.614048434951311 0 0 0 0 83.852670380979504 23.085691415546918 0 23.085691415546918 -1.1863387047392588 0 0 0 0 100.0081850147921 19.26258525315221 0 19.26258525315221 -2.5666940149392339 0 0 0 0 90.06391016529949 -10.269053887947361 0 -10.269053887947361 3.810923598092014 0 0 0 0 84.177271105907323 -9.1372779545991634 0 -9.1372779545991634 4.4554692359794164 0 0 0 0 99.16387943113557 -10.501835312097478 0 -10.501835312097478 1.1173983685735411 0 0 0 0 89.987097517251016 -12.358881600509216 0 -12.358881600509216 2.0948568078661136 0 0 0 0 91.652123722392048 -8.99073479526702 0 -8.99073479526702 1.8590665700264566 0 0 0 0 97.951476246166123 -7.7526477726402359 0 -7.7526477726402359 1.2160291452648018 0 0 0 0 91.652501683252638 -7.9452246986563075 0 -7.9452246986563075 3.3921334518261119 0 0 0 0 87.502488823148212 -6.9668563250250006 0 -6.9668563250250006 3.6180090510882117 0 0 0 0 82.577478708858962 -5.3571698921418962 0 -5.3571698921418962 5.3509951502869146 0 0 0 0 82.488526991095 -1.4723244079805751 0 -1.4723244079805751 5.2186199669780846 0 0 0 0 79.225321541195925 -1.9579256869123443 0 -1.9579256869123443 5.7476043269699204 0 0 0 0 77.856021531208683 -0.72355677258130147 0 -0.72355677258130147 4.777563218472296 0 0 0 0 77.720089879166096 -6.3688917593817029 0 -6.3688917593817029 5.9410122992298522 0 0 0 0 84.204814330996598 -5.4335136421528283 0 -5.4335136421528283 4.9013208842844076 0 0 0 0 72.912382268271443 -6.8629206249915473 0 -6.8629206249915473 4.5176211196144394 0 0 0 0 79.455921440805355 -5.2297837898257846 0 -5.2297837898257846 4.0453303864288577 0 0 0 0 74.088718036320643 0.1574716559131768 0 0.1574716559131768 1.5060412915410359 0 0 0 0 74.115473832164071 -2.0238815078851209 0 -2.0238815078851209 4.4838247582443511 0 0 0 0 67.598574368249842 -1.0386864297338052 0 -1.0386864297338052 1.302319889019564 0 0 0 0 71.803497953787712 1.4920167979817407 0 1.4920167979817407 -3.792894432804411 0 0 0 0 72.656847101029712 -2.4621471760465901 0 -2.4621471760465901 -4.3569386321179762 0 0 0 0 69.047022720905147 -2.2849228119163132 0 -2.2849228119163132 2.210669377022616 0 0 0 0 74.999266425946246 -8.6445882570577481 0 -8.6445882570577481 -2.718752998927136 0 0 0 0 71.096286793024433 -8.3124743437953619 0 -8.3124743437953619 6.7284636291996387 0 0 0 0 87.832160159435603 -13.578553529917642 0 -13.578553529917642 3.7175844095939841 0 0 0 0 78.315552349496883 -11.303780322697982 0 -11.303780322697982 6.0249849458249223 0 0 0 0 103.56933855709229 -14.525403064581202 0 -14.525403064581202 0.40331034243173214 0 0 0 0 86.632761548696635 -17.967006899405909 0 -17.967006899405909 2.9126879443732996 0 0 0 0 112.07822906995784 -17.723347570055612 0 -17.723347570055612 -0.67472930111716189 0 0 0 0 85.937613378153515 -28.185775458710914 0 -28.185775458710914 4.5410306134066758 0 0 0 0 62.707612367320905 -16.405283419128658 0 -16.405283419128658 2.2705153067033392 0 0 0 0 56.17010808418155 -12.128068766763189 0 -12.128068766763189 0.25359028511169335 0 0 0 0 51.32990368724063 -11.233085500516175 0 -11.233085500516175 -0.85242565224125322 0 0 0 0 61.757184736841396 -13.852950230918974 0 -13.852950230918974 -1.7576369222496622 0 0 0 0 60.177014269586543 -8.0858071821552571 0 -8.0858071821552571 -2.608424071614162 0 0 0 0 62.843461990111791 -7.5622066084025334 0 -7.5622066084025334 -3.4324731573664113 0 0 0 0 69.312195431543159 -8.3333420535737872 0 -8.3333420535737872 -2.9208559574437913 0 0 0 0 65.849578017908385 -6.3108960756795058 0 -6.3108960756795058 -1.3593764994635649 0 0 0 0 66.132376293962608 -2.0128059540418981 0 -2.0128059540418981 -2.1784693160589881 0 0 0 0 68.511206523259773 -3.3212285332766545 0 -3.3212285332766545 -2.8447087531539959 0 0 0 0 65.651336900520874 1.3979412925928765 0 1.3979412925928765 -1.8964472164022053 0 0 0 0 68.1259351702397 -0.76986392351854627 0 -0.76986392351854627 -2.5044470445476059 0 0 0 0 63.481181642235583 -0.92795643585106824 0 -0.92795643585106824 -3.0113078418116803 0 0 0 0 64.26819393047748 -0.29025982468067957 0 -0.29025982468067957 -2.5085905799875574 0 0 0 0 64.940310762100069 -4.1755780999871863 0 -4.1755780999871863 -3.0409014871628277 0 0 0 0 62.067262747998882 -3.3926184876998979 0 -3.3926184876998979 -2.9085344960873374 0 0 0 0 58.540682538707415 -3.4486796638024595 0 -3.4486796638024595 -2.866543107698365 0 0 0 0 61.741554446962922 -3.9047243067581103 0 -3.9047243067581103 -3.3897455074684455 0 0 0 0 61.659461466131511 -0.57983091657190355 0 -0.57983091657190355 -2.869012711520103 0 0 0 0 60.441661326567726 -1.1831407785588723 0 -1.1831407785588723 -3.1571783826861339 0 0 0 0 58.759808162646038 -1.034544107494471 0 -1.034544107494471 -2.7665542918024948 0 0 0 0 58.7055236366499 -3.5301593816536831 0 -3.5301593816536831 -3.0143515453556735 0 0 0 0 55.777255699244733 -5.2279150284035349 0 -5.2279150284035349 -2.0152269330713244 0 0 0 0 54.028293767916978 -5.7163027761623759 0 -5.7163027761623759 -2.0063612221878291 0 0 0 0 54.029056840642511 -7.8269208883369217 0 -7.8269208883369217 -0.93665821929170345 0 0 0 0 48.73272479865733 -6.8063446148310316 0 -6.8063446148310316 -0.37271399936695992 0 0 0 0 57.011115591451841 -10.246123265216681 0 -10.246123265216681 -1.4716690920527871 0 0 0 0 50.159437049858809 -8.8144763477135815 0 -8.8144763477135815 -0.79477822190165437 0 0 0 0 58.563196738664885 -6.3970368395243611 0 -6.3970368395243611 -2.6997270679687171 0 0 0 0 56.883060841734689 -6.7783608513831961 0 -6.7783608513831961 -2.5829551557986292 0 0 0 0 49.99692928337987 10.06459772194034 0 10.06459772194034 3.2432658043713065 0 0 0 0 58.389848360787767 13.521843432015885 0 13.521843432015885 4.3177512608160615 0 0 0 0 58.689609064878653 18.723376865745628 0 18.723376865745628 5.3070242174756528 0 0 0 0 50.034875416067045 14.227974924513417 0 14.227974924513417 4.9709539838229961 0 0 0 0 65.350640999377163 10.805794903499949 0 10.805794903499949 0.39171170579442727 0 0 0 0 63.782331448249153 9.4284800451874347 0 9.4284800451874347 -0.36650453292675422 0 0 0 0 61.160821675867055 8.238825383899588 0 8.238825383899588 -0.026287838337374581 0 0 0 0 57.377340631941706 9.4987679586697631 0 9.4987679586697631 0.18842789472127119 0 0 0 0 60.500413120901896 4.7540990781118975 0 4.7540990781118975 -1.5354505582775422 0 0 0 0 64.283802759999276 5.9712064871291215 0 5.9712064871291215 -1.4263214159778885 0 0 0 0 66.684773023426033 5.9580547138817117 0 5.9580547138817117 -1.5988594833103764 0 0 0 0 65.230058445466 4.902598976752552 0 4.902598976752552 -1.7915808545434349 0 0 0 0 67.776575142738352 3.2408436581860771 0 3.2408436581860771 -1.9571887913728978 0 0 0 0 63.19202597033285 2.3633606178036257 0 2.3633606178036257 -2.1195235589393913 0 0 0 0 63.542151178472452 2.4255579014914805 0 2.4255579014914805 -2.3533527261334766 0 0 0 0 60.501867161752784 1.5055805907946982 0 1.5055805907946982 -2.4663421972315027 0 0 0 0 61.008243180341424 1.4890173986862667 0 1.4890173986862667 -2.6214344536825811 0 0 0 0 58.596862376478668 0.81959461796645949 0 0.81959461796645949 -2.6207860018756275 0 0 0 0 58.596558952474084 3.0978410214836791 0 3.0978410214836791 -1.6095751351525207 0 0 0 0 56.000674080755282 2.2415446174226616 0 2.2415446174226616 -1.7111192369251618 0 0 0 0 61.230372045175571 4.547640807689505 0 4.547640807689505 -1.5248353634231373 0 0 0 0 57.874507164739612 3.4057558399778269 0 3.4057558399778269 -1.7289650215359562 0 0 0 0 58.064845952118503 5.8484015279123973 0 5.8484015279123973 -0.20403464800652338 0 0 0 0 55.49534622983623 6.61947376761991 0 6.61947376761991 -0.23208971653156008 0 0 0 0 56.013079927857916 3.9193988348610151 0 3.9193988348610151 -0.38173059322593861 0 0 0 0 54.007887652723298 4.5190512917098387 0 4.5190512917098387 -0.41704541897436975 0 0 0 0 54.034196439168255 5.974836855733006 0 5.974836855733006 1.5089312361246128 0 0 0 0 50.001959673450074 4.5387678269986518 0 4.5387678269986518 1.1499043287468418 0 0 0 0 50.004775611574189 6.8575605156387853 0 6.8575605156387853 1.8992134158823972 0 0 0 0 55.722998611139104 8.9902040289800027 0 8.9902040289800027 2.5417694086320743 0 0 0 0 52.293399755940868 2.2850635950746661 0 2.2850635950746661 0.68963887910649024 0 0 0 0 49.999548426398938 2.8611452835027587 0 2.8611452835027587 0.75285393361376596 0 0 0 0 53.009299556981716 3.8540726554255937 0 3.8540726554255937 0.94569352321248945 0 0 0 0 52.964596454169758 2.9332146457387323 0 2.9332146457387323 -0.52430956989189914 0 0 0 0 52.336156310845581 1.7118730185383555 0 1.7118730185383555 -0.48411771095627326 0 0 0 0 54.656564830385832 2.394139408833575 0 2.394139408833575 -0.45790111919853371 0 0 0 0 54.652174507800957 1.3013224837792245 0 1.3013224837792245 -1.4961334619663831 0 0 0 0 55.219394620720664 0.90224993411080856 0 0.90224993411080856 -1.2273600943371745 0 0 0 0 56.647362568332937 1.8714315945910771 0 1.8714315945910771 -1.4993036418793295 0 0 0 0 58.038249146119028 0.70849696312890742 0 0.70849696312890742 -2.3154517369640657 0 0 0 0 56.620945542017729 0.28884433535627108 0 0.28884433535627108 -2.3221695232390394 0 0 0 0 55.220734340317463 -0.090451392089530666 0 -0.090451392089530666 -1.8156729513286836 0 0 0 0 56.118860379465787 0.088725756457844529 0 0.088725756457844529 -1.9476476670969156 0 0 0 0 54.764122605407692 -0.35641625594582704 0 -0.35641625594582704 -1.4230514330583386 0 0 0 0 54.28259418406526 -0.22677918948462861 0 -0.22677918948462861 -0.98763462147892866 0 0 0 0 53.814938916231711 -0.44245407722264324 0 -0.44245407722264324 -0.85908615051034187 0 0 0 0 53.753401984949448 -0.2115111368252286 0 -0.2115111368252286 -0.00017341085772108544 0 0 0 0 53.171073531101968 0.38617521677597666 0 0.38617521677597666 -0.60312982372081003 0 0 0 0 54.166712978393292 0.24916702612582964 0 0.24916702612582964 -0.76444468138473665 0 0 0 0 53.72031223517871 0.62514847937277407 0 0.62514847937277407 -1.0484375788674505 0 0 0 0 53.549305941070884 1.2970974988340018 0 1.2970974988340018 -0.37762680589231185 0 0 0 0 51.873594471853153 0.8152347808678837 0 0.8152347808678837 -0.10003608932084607 0 0 0 0 52.920086462491838 0.15341239345382304 0 0.15341239345382304 -0.00073237256673456858 0 0 0 0 51.978881565616689 0.85288709979571398 0 0.85288709979571398 -0.12003997560948132 0 0 0 0 49.96960324976601 0.78918257861972962 0 0.78918257861972962 0.44357860917926034 0 0 0 0 51.513225011621671 0.23886544085974168 0 0.23886544085974168 0.0005911228436171422 0 0 0 0 50.009464067986528 1.6287911058017075 0 1.6287911058017075 0.62949254673806787 0 0 0 0 51.711307891719827 1.2027786730145578 0 1.2027786730145578 0.51300778795585245 0 0 0 0 50.894962128184261 -3.5074565368050856 0 -3.5074565368050856 -0.85601119460325403 0 0 0 0 53.847187623474838 -4.049360808672299 0 -4.049360808672299 -1.3199484343882109 0 0 0 0 50.848090013952856 -4.3489067210457648 0 -4.3489067210457648 -0.013147546102857621 0 0 0 0 48.456331677788285 -5.0637370199422644 0 -5.0637370199422644 -0.018391762319382998 0 0 0 0 52.078090493774397 -5.8296387076219078 0 -5.8296387076219078 -0.38222318390780252 0 0 0 0 52.124323591565286 -4.6139468873643317 0 -4.6139468873643317 -1.3996308507762389 0 0 0 0 55.898597704478604 -3.1751700299936996 0 -3.1751700299936996 -2.4155623355452436 0 0 0 0 56.3567922971298 -3.0182414268542495 0 -3.0182414268542495 -2.3824532578549693 0 0 0 0 58.005315347532189 -1.3177146321081676 0 -1.3177146321081676 -2.8400402201231891 0 0 0 0 56.438229531676711 -1.2674346271891994 0 -1.2674346271891994 -2.3736573234387004 0 0 0 0 54.752234336842321 -1.3183397138740909 0 -1.3183397138740909 -1.7869203731730516 0 0 0 0 56.13584588062735 -1.2910220530373144 0 -1.2910220530373144 -2.304091220918425 0 0 0 0 53.906222499940505 -2.746682422057082 0 -2.746682422057082 -1.8261905564831524 0 0 0 0 54.702010670616005 -2.4338136311615761 0 -2.4338136311615761 -1.7259014561185597 0 0 0 0 52.593507325187034 -2.2675901769483304 0 -2.2675901769483304 -1.1501699137384869 0 0 0 0 53.611923183373214 -1.8672121604375527 0 -1.8672121604375527 -1.0404315131732571 0 0 0 0 53.650703303409387 -1.341247058340354 0 -1.341247058340354 -0.96059046176627638 0 0 0 0 54.793933066874729 -1.1482761837566133 0 -1.1482761837566133 -1.619013043759028 0 0 0 0 53.559023236718701 -1.2831830307389296 0 -1.2831830307389296 -0.92277558520416192 0 0 0 0 53.872892899981537 -0.74369906627778204 0 -0.74369906627778204 -0.0013015691089229924 0 0 0 0 52.157772636203561 -2.2188158537613152 0 -2.2188158537613152 -0.69403149458669144 0 0 0 0 53.100770389853892 -1.3552338147967227 0 -1.3552338147967227 -0.00019067567773063416 0 0 0 0 50.285812597843346 -2.9047155469799728 0 -2.9047155469799728 -0.34423101990986993 0 0 0 0 51.655664897624888 -1.7855344053178177 0 -1.7855344053178177 -0.00092769393750601005 0 0 0 0 50.128096447890243 -2.5776891834362319 0 -2.5776891834362319 -0.21613920786334617 0 0 0 0 52.494769192980549 -3.0867162230541658 0 -3.0867162230541658 -0.86470754772726277 0 0 0 0 47.823884470054054 -3.7549444266612282 0 -3.7549444266612282 0.33447260120566602 0 0 0 0 49.995293257379103 -3.1809355165045856 0 -3.1809355165045856 0.18384475389534405 0 0 0 0 49.553277812061538 -1.9671151959975097 0 -1.9671151959975097 0.00033946563155399893 0 0 0 0 47.270665051062906 -2.9270734250175976 0 -2.9270734250175976 0.36303576858989617 0 0 0 0 93.601951533096099 -3.2986933289906601 0 -3.2986933289906601 0.0011585677000200212 0 0 0 0 94.541330102125869 -4.0366010251584061 0 -4.0366010251584061 0.53759539100638776 0 0 0 0 92.33867381797063 -2.8747194431843592 0 -2.8747194431843592 0.00045986546099937653 0 0 0 0 93.111144307549921 -3.8041541072495244 0 -3.8041541072495244 0.90270451767498905 0 0 0 0 93.246772013221289 -3.6184485392470038 0 -3.6184485392470038 0.83378111881239381 0 0 0 0 91.681730638678459 -4.0393670789684704 0 -4.0393670789684704 2.1871324836739872 0 0 0 0 95.647768940108421 -4.3780130059722406 0 -4.3780130059722406 0.83759346308788452 0 0 0 0 93.254946378566501 -3.6551856978788626 0 -3.6551856978788626 0.98915352930757727 0 0 0 0 93.546481832985592 -4.4217311529008239 0 -4.4217311529008239 1.1836560673372549 0 0 0 0 96.912663355576498 -5.6048449164397862 0 -5.6048449164397862 0.89746177457726262 0 0 0 0 90.949751841353873 -3.9108950921560091 0 -3.9108950921560091 2.1710135023413573 0 0 0 0 92.765577793077512 -5.5346608752958009 0 -5.5346608752958009 2.1543911195686523 0 0 0 0 90.227375029075574 -6.616504198613077 0 -6.616504198613077 3.6354675063825912 0 0 0 0 92.368724119964554 -5.2675429107921259 0 -5.2675429107921259 2.1064371110933298 0 0 0 0 93.236885015732128 -6.7745146483620715 0 -6.7745146483620715 1.4075829752821445 0 0 0 0 97.465449597314546 -7.6203795394771401 0 -7.6203795394771401 1.0622246047556914 0 0 0 0 86.105533379456006 -0.19847064156042937 0 -0.19847064156042937 5.0363146887195169 0 0 0 0 84.644467444928409 -1.6808496185132593 0 -1.6808496185132593 4.2549503957429309 0 0 0 0 87.262377665963186 -4.098347800058507 0 -4.098347800058507 3.6270304415909589 0 0 0 0 87.111648681790484 -3.873657260243859 0 -3.873657260243859 4.971570119730548 0 0 0 0 88.078580816837416 -2.5429810115301921 0 -2.5429810115301921 2.9614929638231251 0 0 0 0 89.874453785904961 -4.3588538992799997 0 -4.3588538992799997 3.6234281956545109 0 0 0 0 88.290199272124255 -1.944584229644104 0 -1.944584229644104 4.2628360871186688 0 0 0 0 87.118229326271148 -0.5835405936503506 0 -0.5835405936503506 3.1146383843527792 0 0 0 0 89.218084681960022 -1.5458078729937961 0 -1.5458078729937961 1.8062653632975056 0 0 0 0 89.754427503706665 -0.70366996463470577 0 -0.70366996463470577 3.1144881865752603 0 0 0 0 90.531297603213375 -2.7911511269812452 0 -2.7911511269812452 1.5126809462214039 0 0 0 0 90.137345445385563 -2.6529275968218986 0 -2.6529275968218986 2.96565397348115 0 0 0 0 91.662682857565414 -3.0229139463999424 0 -3.0229139463999424 1.5150719287333994 0 0 0 0 91.023905792528012 -2.0244163991946156 0 -2.0244163991946156 0.0013238484159259741 0 0 0 0 90.854119489521281 -1.6214249886525824 0 -1.6214249886525824 1.8054735658577514 0 0 0 0 90.69016284309771 -0.95862208159252005 0 -0.95862208159252005 0.0013268842647761187 0 0 0 0 91.218744248626763 -0.018164308121373617 0 -0.018164308121373617 1.6734239597273535 0 0 0 0 92.941031933571026 1.335798352397924 0 1.335798352397924 1.0810444013355276 0 0 0 0 91.745125664604757 0.0005764490484860892 0 0.0005764490484860892 0.0011765452804011107 0 0 0 0 91.705715244589783 0.99486827189455962 0 0.99486827189455962 1.0683907775947659 0 0 0 0 90.959787947554219 1.2557048727127254 0 1.2557048727127254 2.4116137539525035 0 0 0 0 89.59727131126715 -0.15168845476430282 0 -0.15168845476430282 1.6724464366924903 0 0 0 0 96.68651481093093 0.53905853906009438 0 0.53905853906009438 -0.0010625767251188701 0 0 0 0 99.934735199132774 1.5959987038221874 0 1.5959987038221874 -1.1354026353958135 0 0 0 0 94.042522756590643 0.62401163673884497 0 0.62401163673884497 0.00038564543095191207 0 0 0 0 95.705080128797022 1.8964160840463982 0 1.8964160840463982 -0.092273934518920742 0 0 0 0 93.623805699055765 2.7435216996848615 0 2.7435216996848615 0.85926194286802016 0 0 0 0 95.950589046955201 1.6638758782960492 0 1.6638758782960492 -0.16134942135915695 0 0 0 0 96.345879164229984 2.4661602580471285 0 2.4661602580471285 -1.2915895657346645 0 0 0 0 100.01291039352827 3.4957861415558984 0 3.4957861415558984 -1.5823552421123719 0 0 0 0 99.995007103761964 5.948614592394847 0 5.948614592394847 -1.8345546164435886 0 0 0 0 95.793206963768625 4.4570602385567106 0 4.4570602385567106 -1.6698121846889991 0 0 0 0 95.295527818527376 5.09430975339734 0 5.09430975339734 -0.076966310091932222 0 0 0 0 92.235764828330502 2.9283770351285714 0 2.9283770351285714 0.9055329934553914 0 0 0 0 91.292139447896034 6.8219506704919581 0 6.8219506704919581 1.5863490372521878 0 0 0 0 93.796703838813073 5.5080903124455984 0 5.5080903124455984 0.0055544203814366921 0 0 0 0 95.067299557977719 7.86429628191991 0 7.86429628191991 -1.9997354787625454 0 0 0 0 99.994831547113904 9.0612337177198441 0 9.0612337177198441 -2.1185053311610109 0 0 0 0 88.661798770957716 0.92642070342639249 0 0.92642070342639249 3.8579482508709027 0 0 0 0 91.04496209465924 3.5225490824324917 0 3.5225490824324917 2.4359158869267095 0 0 0 0 88.613337966440895 1.3842369344485812 0 1.3842369344485812 2.4127397217167399 0 0 0 0 87.860193192498855 3.8079451022284108 0 3.8079451022284108 2.4439564800703457 0 0 0 0 87.602114401250446 3.5837531155844724 0 3.5837531155844724 3.9462979640305602 0 0 0 0 84.874746970314163 1.1980754597604109 0 1.1980754597604109 3.8545058619043027 0 0 0 0 83.641360856470328 2.708217638433005 0 2.708217638433005 5.0198003978466756 0 0 0 0 82.536706194547151 3.9729565317440105 0 3.9729565317440105 3.9386125362768807 0 0 0 0 86.863745031456915 7.5343648580970326 0 7.5343648580970326 3.5194142159645883 0 0 0 0 79.984705114044573 7.6169917071188475 0 7.6169917071188475 3.5225101807776 0 0 0 0 81.080064552686736 6.5092636265670585 0 6.5092636265670585 4.0609697705098373 0 0 0 0 79.513565092699992 0.84707520883204612 0 0.84707520883204612 4.6501757068980076 0 0 0 0 76.868084749247146 2.9665089173682659 0 2.9665089173682659 5.0198957488270501 0 0 0 0 92.876512313911462 11.35948269897187 0 11.35948269897187 -2.4214516494160621 0 0 0 0 92.900157207264897 10.998410863536824 0 10.998410863536824 0.30694336515776666 0 0 0 0 87.597887375563232 7.3910534601053284 0 7.3910534601053284 1.5767349237873978 0 0 0 0 88.170631366850444 11.755427754412123 0 11.755427754412123 0.18597841339704568 0 0 0 0 85.902751242673276 12.902129556273726 0 12.902129556273726 2.7384358640401878 0 0 0 0 99.994972934033967 13.722007968998604 0 13.722007968998604 -2.8171807243798588 0 0 0 0 91.215128839822569 16.918013905998283 0 16.918013905998283 -2.746019590441954 0 0 0 0 84.584085250777434 23.009824511797802 0 23.009824511797802 -1.1028240376781189 0 0 0 0 100.00463417038878 18.691515456693313 0 18.691515456693313 -2.702959311041274 0 0 0 0 76.609890298374353 12.215473794142364 0 12.215473794142364 2.9572846951518965 0 0 0 0 86.167751088719228 18.660952656558813 0 18.660952656558813 2.9743139190665433 0 0 0 0 73.237023587210842 12.063242501367403 0 12.063242501367403 -0.99891610970680489 0 0 0 0 67.882251080622041 14.758482104671263 0 14.758482104671263 4.3616457331874088 0 0 0 0 99.929587387771278 27.004837989449257 0 27.004837989449257 -0.27026486017931706 0 0 0 0 79.710820555375449 31.648390981072463 0 31.648390981072463 10.661395988992822 0 0 0 0 75.802575931757531 4.0333322240273963 0 4.0333322240273963 1.7501274071988684 0 0 0 0 71.848439745642963 1.3377705927197678 0 1.3377705927197678 4.6535563684031045 0 0 0 0 78.453112991728801 10.486591084912188 0 10.486591084912188 2.4835644258005622 0 0 0 0 72.77014304904128 6.0646555453895576 0 6.0646555453895576 4.106456574677626 0 0 0 0 67.49684153640726 8.2478147765771155 0 8.2478147765771155 2.7293343275231043 0 0 0 0 72.020359851756098 5.6426392837953117 0 5.6426392837953117 -3.2891676836975821 0 0 0 0 67.685070182859818 3.5501188748437005 0 3.5501188748437005 1.7574602166810704 0 0 0 0 71.791117453569768 1.3742821341010762 0 1.3742821341010762 -3.9907149008490923 0 0 0 0 68.007683961663076 -0.15184875509784446 0 -0.15184875509784446 1.9927662784896425 0 0 0 0 75.77082294927618 -1.3122479046294737 0 -1.3122479046294737 1.9628660887541756 0 0 0 0 78.599420723485537 -7.4214401441295301 0 -7.4214401441295301 3.3053384405519797 0 0 0 0 72.928166042100202 -3.0328895738266026 0 -3.0328895738266026 5.2463586510406959 0 0 0 0 72.690719823954112 -2.647815873045976 0 -2.647815873045976 -3.9770811518873836 0 0 0 0 68.621236882602375 -3.9563413065461823 0 -3.9563413065461823 3.5307418553308958 0 0 0 0 75.263130568386487 -8.2155446384290851 0 -8.2155446384290851 -3.1169945523652269 0 0 0 0 71.073148517062464 -8.5137758634112668 0 -8.5137758634112668 6.2429223643624745 0 0 0 0 85.641542904214475 -28.12924265074524 0 -28.12924265074524 4.683850043464326 0 0 0 0 112.34021616836293 -17.431851883413906 0 -17.431851883413906 -0.62004168599101561 0 0 0 0 86.510474339420625 -17.791401727314259 0 -17.791401727314259 3.1036962994140387 0 0 0 0 102.6598073744812 -13.980148907276648 0 -13.980148907276648 0.55439116406709488 0 0 0 0 87.753919003423334 -14.692859205960495 0 -14.692859205960495 4.2017081138373911 0 0 0 0 77.106361136735586 -8.3027536744387334 0 -8.3027536744387334 5.5300440689394925 0 0 0 0 88.542202793137278 -8.6576971297053813 0 -8.6576971297053813 3.4194095208616311 0 0 0 0 85.830325068980642 -10.627536638411499 0 -10.627536638411499 4.972830513215774 0 0 0 0 91.318723111462987 -13.325005389897438 0 -13.325005389897438 1.7421922968580503 0 0 0 0 100.31887409971777 -10.711793462147485 0 -10.711793462147485 0.62059975025995939 0 0 0 0 92.440140968695687 -8.5592953893812158 0 -8.5592953893812158 1.6627594173114932 0 0 0 0 92.034736020895593 -9.4026852768153244 0 -9.4026852768153244 2.9857035897472812 0 0 0 0 87.143527009533955 -6.2841388986259714 0 -6.2841388986259714 3.6522165142815224 0 0 0 0 82.220573511331395 -3.3543711926118753 0 -3.3543711926118753 4.9806638594887138 0 0 0 0 86.273252342273622 -6.6996729742772363 0 -6.6996729742772363 5.3264882564899629 0 0 0 0 80.845608543061644 0.24664453648055185 0 0.24664453648055185 5.029424476660818 0 0 0 0 83.399962273104848 -2.1054473178686668 0 -2.1054473178686668 5.6000042781813253 0 0 0 0 76.774906561448688 -1.3138006487103624 0 -1.3138006487103624 5.6048216570150595 0 0 0 0 80.812097047122847 -4.6898589829465251 0 -4.6898589829465251 5.1476413105337624 0 0 0 0 79.983191663024854 -5.413281754647377 0 -5.413281754647377 5.298684231995292 0 0 0 0 
</DataArray>
<DataArray type="Float64" Name="displacement_divergence" format="ascii">
1.0305608130813029 1.0089342846233813 1.0550802835413484 1.0382783686670969 1.038786100990883 1.049426396617301 1.013684373191172 1.0459709170301068 1.0558420882934516 1.0510233005685696 1.0738822181541383 1.0556880431645925 1.0657486993180387 1.0751890107495181 1.0638219749891547 1.082451054218833 1.0599808387545704 1.0808442440420343 1.095173862605572 1.1065041289533464 1.0573430470825262 1.0179573579839303 1.0461853219925568 1.0651787991660646 1.0628040592600363 1.0723262004246841 1.0256585835568102 1.0724988689790598 1.1077216229890898 1.145924225497664 1.0418506938467864 1.1298227330580308 1.1338849980941663 1.0797000394406062 1.1135718523337188 1.1001270135741021 1.1350657228595158 1.1100757025849659 1.1820254015787415 1.1740269506433927 1.1483550519584058 1.1896861115337463 1.2355651147063458 1.2073805260778334 1.3037716351545028 1.2659021561935966 1.3114744021696931 1.2621156057203402 1.3195675785217544 1.0959956084459126 1.2880177289676475 1.0611363183507938 1.2496396847108879 1.2268362758807736 1.1496057549751117 1.2172152317508738 1.1444624040982307 1.1973610747322856 1.0180377420856004 1.3044694280298499 1.1245984006164178 1.2878440682303964 1.335035031955301 1.3174763338108035 1.2789491511268578 1.2727440671235075 1.3068581467612648 1.207444719255959 1.2388222183972299 1.1892190580877027 1.2364785169365866 1.1640314243014853 1.1384183327009134 1.1532702286601992 1.1799404799877371 1.138280906399519 1.1009582299864511 1.1258455286918723 1.0714383107113046 1.0920289236817533 1.029694868856446 1.1123339023962335 1.100360376138632 1.0819157424576078 0.98303319866053829 1.0605511590469772 1.0229232711166567 0.97490189619555856 1.0305213489875675 1.03154160052661 1.0033447452026751 1.0359621823545095 0.96818504818406603 1.0158085431768538 1.0778626477754956 1.1009933013922002 1.0777385211365311 1.0601116244334359 1.0686888154493013 1.0320504276908613 1.0546271055653555 1.0847155022197965 1.0689995546232731 1.0530045510716259 1.0391362998031344 1.0451230395540398 1.02818488268918 1.0610489182706804 1.0480563040136566 1.0769501554600256 1.0054322506832634 0.96677106528769441 1.0166203705148871 1.0030466728385985 1.0000024735826702 1.0287462029268424 0.95396884812222738 0.99226970612064935 0.93727746257751399 0.95189354808972948 0.968833785327745 0.94420952838054328 0.94337645929217229 0.93073156581037153 0.94137566614841461 0.92203538070400248 0.90998281949284354 0.93062023338911459 0.90625135220417774 0.92297857314704923 0.91820392647333382 0.91923391531344101 0.93282989742459521 0.91936385329431702 0.93096849471656107 0.91723107667163317 0.90932852279977616 0.91836174452380659 0.90540607426561348 0.88804934170949668 0.91802722872374387 0.9047323544083582 0.95424214904584481 0.94146178888398124 0.94424895843910062 0.97619606994418862 0.92404612590724799 0.95197689564004073 0.98440509774484064 0.95224941921093265 0.98837382988986844 0.96783751374381655 0.9384913151332841 0.95706020433265537 0.93272544917132671 0.96228006298045177 0.94190165565992146 0.92176395774952669 0.94018287795557187 0.9159456623844896 0.92499648208915852 0.92364332396956017 0.91701338513133612 0.90547440928766076 0.92094734822080093 0.8809790773748245 0.90731245693028184 0.89376306916868187 0.91351304700227531 0.91281841078520187 0.93379863466258561 0.91547274021093183 0.96086685242113334 0.89328906814455378 0.95212695677823056 0.92534047245620299 0.9808935912406378 0.98342367025580368 0.94009014822876624 0.86623755841530814 0.97677761217206793 0.90209857123903214 0.93464128758228404 0.91134955533518969 0.85840938694853508 0.87935964950358558 0.81672243565045999 0.86347394809608224 0.87658668772493498 0.82364834304336165 0.84173240943054417 0.77718580938770587 0.75325258776125215 0.6840696380416571 0.69446204797318067 0.68235867015810869 0.82028673560411736 0.75504138832418133 0.80480588818979548 0.88418774830326796 0.72319550018058265 0.72758743648534907 0.99547124693588085 0.90638552505134551 0.82666331676240257 0.97441490999852842 0.93874833763391463 0.88632740341886773 1.0028127779970912 0.92081954325117077 0.93511190292418522 0.99167505391430988 0.95044635135078703 0.91120497874236395 0.87928473859145817 0.87707146958073012 0.84972925868165872 0.82633584749680999 0.8366110217839593 0.89106135215280891 0.77430003387885982 0.83501251827234269 0.75594759327861727 0.78599298590408495 0.68900894257269507 0.6801060352098327 0.68299908468911796 0.71257692097927805 0.72280513427019055 0.77824750422223987 0.91549744569029701 0.84340537295321782 1.0397264889952393 0.89545449493069862 1.1140349976884067 0.90478643991560037 1.2995625534804836 1.1284739673858653 1.009549560699986 1.1999909562918338 1.151371803959446 1.1882197766549074 1.3278267894819884 1.2898040303688967 1.2790781395580724 1.3133299554021165 1.2750977936823729 1.3124297625138406 1.2093974760084774 1.2351920670098004 1.2379881854987453 1.1831745650382306 1.1134827886201808 1.1670361787898895 1.1758089750922276 1.1456896588776331 1.1198650774168721 1.1138234418258848 1.0752405753234688 1.040438650914584 1.0618479724270138 0.96720021598580708 1.1107889299879783 0.98729317655914317 1.1172693934139224 1.0860021137187221 1.0648039017550233 1.254151992432075 1.279932665647088 1.1001165879978019 1.3148470541034325 1.2683165383064481 1.2226906767505954 1.1513153705332604 1.179299251252486 1.2571496268804285 1.3017182708023132 1.2687695518184516 1.3163877270273088 1.2214500482278685 1.2237759690467782 1.1607104992904265 1.1677361745331776 1.1195215274920609 1.1397396763464296 1.0857910968766016 1.1941107336350489 1.1229108428640713 1.1572162260822387 1.1052651302660936 1.1126269866926382 1.071816844674979 1.1108625535058569 1.0230372800439385 1.0380797805491335 1.1652953603954233 1.0596607727009486 1.0150480472002528 1.0790998616038847 1.048805737685556 1.037040771997787 1.0839732742237433 1.0631208209166927 1.0798406905276683 1.102961178529074 1.1144559481831007 1.085975520375575 1.0681012277797766 1.0834242542473782 1.0668214234469897 1.0658991912517275 1.0591170553144267 1.0750645714818363 1.0513588741476227 1.0680453659401725 1.0534374931262256 1.0634335827035721 1.0354711676506438 1.0583870817985035 1.0371768318001438 1.0082636371789047 1.0302763226893028 1.0127791322944903 1.0444863135935096 1.0007790186716212 1.0505447837817323 1.0166988493570022 0.96875879830937939 1.033917346197333 1.0144938548157829 1.0696607073786677 1.0794867807854993 1.1033055025481797 1.0812914441647594 1.0593062792733856 1.0766350931941784 1.0416006388691448 1.0595221842899492 1.0288667482289702 1.0514298334040002 1.0538022568328624 1.0634984004623171 1.0527249530302922 1.0774318266174527 1.0292748228323345 1.062011594283524 0.99883163155866839 1.0330947440737428 0.99823914480053788 1.032601232905068 0.96316714142519499 1.003582760225489 0.99107234555385915 0.95267401639305593 0.9360311010079656 0.95078925493132205 0.92339133683431651 0.94013848825225121 0.94080553132033629 0.93868863122352419 0.96485362403196306 0.94244099907874135 0.94730137900322575 0.9781012513015388 0.931207653436955 0.94919968912646202 0.93862842535458002 0.94475161231057947 0.94644467991014414 0.98527674202070314 0.91141848068175735 0.88899417840671413 0.90889408107554026 0.92083218801521116 0.91040073780660558 0.93497881981559738 0.9255303535924273 0.90232867710623899 0.91024350045257674 0.92868915690282028 0.92043978549434868 0.93102999418866683 0.93177754786298916 0.91025229640943961 0.92659593055378986 0.90691489727362562 0.92892168208354109 0.94022076334906413 0.917463022098854 0.92774106022184433 0.93371401701506596 0.91269717747959644 0.96685452234205882 0.98799332563736708 0.94042908402021463 0.95612806194278077 0.94483067641923779 0.95789239625596079 0.95054289598495367 0.98430555151415733 0.98160452487318628 0.94123394779079894 0.95218561508435573 0.93141297821785984 0.92878488485148325 0.93802258259194482 0.93067564079214959 0.97876326215952869 0.92519747021828813 0.93480877981585964 0.91026077688157658 0.90304149672569201 0.91548412365280951 0.88729252832218286 0.88661161254316789 0.86475318730824147 0.90383159247421241 0.83507215294822057 0.85141034323196452 0.84163740799597875 0.81887980498074031 0.90455060664495468 0.93207100572422685 0.89174622299350714 0.88356609780247441 0.88641187106713426 0.97177792209654146 0.88469109249380806 0.83481261213099422 0.97301674859347431 0.79567174993526402 0.89142065007785865 0.72238107477503999 0.72243896813809472 0.99659322527592142 0.90372216544367978 0.77552703338956197 0.76501996114046245 0.80936677417529446 0.76876599623718722 0.70226175863930296 0.68731192168058564 0.69442530399540758 0.67800402552720784 0.70000450240152667 0.77733689038030351 0.81904759164037544 0.78174524693141045 0.68713638672066712 0.72151978737933231 0.72146136016021267 0.77316070881424925 0.90325392947678929 1.1172017448237208 0.89614170638834578 1.0321419853854821 0.91955627117260796 0.82636405205675056 0.91961612313998864 0.90803155582196371 0.93060915408321065 1.0093947384997759 0.94102900386007438 0.95020439610643015 0.90795743523815498 0.87201237370819817 0.91599740598763524 0.85875033019722502 0.88999966551286258 0.8237972821846371 0.85959738357656612 0.85281875895020298 
</DataArray>
</CellData>
</Piece>
</UnstructuredGrid>
</VTKFile>
