<?xml version="1.0"?>
<VTKFile type="UnstructuredGrid" version="0.1" byte_order="LittleEndian">
<UnstructuredGrid>
<Piece NumberOfPoints="3186" NumberOfCells="1062">
<Points>
<DataArray type="Float64" NumberOfComponents="3" format="ascii">
0 0 0 0.14285714285686729 0 0 0.10402057578810379 0.10402057578810379 0 0 0 0 0.10402057578810379 0.10402057578810379 0 0 0.14285714285686729 0 0.14285714285686729 0 0 0.10402057578810379 0.10402057578810379 0 0.21622614199724011 0.1170905489967794 0 0.10402057578810379 0.10402057578810379 0 0.12873413335214179 0.22892000827465461 0 0.21622614199724011 0.1170905489967794 0 0.10402057578810379 0.10402057578810379 0 0 0.14285714285686729 0 0.12873413335214179 0.22892000827465461 0 0 0.14285714285686729 0 0 0.28571428571359381 0 0.12873413335214179 0.22892000827465461 0 0.093737460955887239 0.36334567880837831 0 0 0.28571428571359381 0 0 0.42857142857032021 0 0.093737460955887239 0.36334567880837831 0 0 0.28571428571359381 0 0.12873413335214179 0.22892000827465461 0 0.093737460955887239 0.36334567880837831 0 0.12873413335214179 0.22892000827465461 0 0.21341038379882901 0.37169997079090128 0 0.12873413335214179 0.22892000827465461 0 0.28183877965613813 0.2453094238274868 0 0.21622614199724011 0.1170905489967794 0 0.12873413335214179 0.22892000827465461 0 0.21341038379882901 0.37169997079090128 0 0.28183877965613813 0.2453094238274868 0 0.21341038379882901 0.37169997079090128 0 0.28183877965613813 0.2453094238274868 0 0.35714458040172548 0.37949340689832922 0 0.28183877965613813 0.2453094238274868 0 0.35714458040172548 0.37949340689832922 0 0.42857142856968189 0.24782843958009351 0 0.28183877965613813 0.2453094238274868 0 0.35419193461659548 0.1242932860904311 0 0.42857142856968189 0.24782843958009351 0 0.28183877965613813 0.2453094238274868 0 0.35419193461659548 0.1242932860904311 0 0.21622614199724011 0.1170905489967794 0 0.35419193461659548 0.1242932860904311 0 0.28571428571359381 0 0 0.21622614199724011 0.1170905489967794 0 0.35419193461659548 0.1242932860904311 0 0.28571428571359381 0 0 0.42857142857032021 0 0 0.14285714285686729 0 0 0.28571428571359381 0 0 0.21622614199724011 0.1170905489967794 0 0.091975849439628388 0.63906079561326345 0 0.21183497469564019 0.63320029487793694 0 0.12868163055416221 0.76697400229767487 0 0 0.71428571428496201 0 0.091975849439628388 0.63906079561326345 0 0.12868163055416221 0.76697400229767487 0 0.091975849439628388 0.63906079561326345 0 0 0.57142857142744297 0 0.12654278762846541 0.50182270069242174 0 0 0.71428571428496201 0 0.091975849439628388 0.63906079561326345 0 0 0.57142857142744297 0 0.091975849439628388 0.63906079561326345 0 0.12654278762846541 0.50182270069242174 0 0.21183497469564019 0.63320029487793694 0 0 0.57142857142744297 0 0.12654278762846541 0.50182270069242174 0 0 0.42857142857032021 0 0.093737460955887239 0.36334567880837831 0 0.12654278762846541 0.50182270069242174 0 0 0.42857142857032021 0 0.093737460955887239 0.36334567880837831 0 0.21341038379882901 0.37169997079090128 0 0.12654278762846541 0.50182270069242174 0 0.21341038379882901 0.37169997079090128 0 0.12654278762846541 0.50182270069242174 0 0.28571428571288859 0.50512834069527579 0 0.35714458040172548 0.37949340689832922 0 0.28571428571288859 0.50512834069527579 0 0.42857911129460902 0.5051327763182708 0 0.21341038379882901 0.37169997079090128 0 0.35714458040172548 0.37949340689832922 0 0.28571428571288859 0.50512834069527579 0 0.28571428571288859 0.50512834069527579 0 0.35657912408519199 0.6297632267709089 0 0.42857911129460902 0.5051327763182708 0 0.12654278762846541 0.50182270069242174 0 0.28571428571288859 0.50512834069527579 0 0.21183497469564019 0.63320029487793694 0 0.28571428571288859 0.50512834069527579 0 0.21183497469564019 0.63320029487793694 0 0.35657912408519199 0.6297632267709089 0 0.35657912408519199 0.6297632267709089 0 0.42876602422768972 0.75267652020288756 0 0.28454251053718921 0.75357332720455328 0 0.21183497469564019 0.63320029487793694 0 0.35657912408519199 0.6297632267709089 0 0.28454251053718921 0.75357332720455328 0 0.21183497469564019 0.63320029487793694 0 0.28454251053718921 0.75357332720455328 0 0.12868163055416221 0.76697400229767487 0 0.50003783804313584 0.62886810132652948 0 0.57146100403685018 0.75258289532342593 0 0.42876602422768972 0.75267652020288756 0 0.35657912408519199 0.6297632267709089 0 0.50003783804313584 0.62886810132652948 0 0.42876602422768972 0.75267652020288756 0 0.35657912408519199 0.6297632267709089 0 0.50003783804313584 0.62886810132652948 0 0.42857911129460902 0.5051327763182708 0 0.50003783804313584 0.62886810132652948 0 0.42857911129460902 0.5051327763182708 0 0.57143682973041188 0.50513310862866234 0 0.35714458040172548 0.37949340689832922 0 0.42857911129460902 0.5051327763182708 0 0.50000265683637624 0.3797679478844822 0 0.42857911129460902 0.5051327763182708 0 0.50000265683637624 0.3797679478844822 0 0.57143682973041188 0.50513310862866234 0 0.6428589620457259 0.38113747419351418 0 0.71689882325258081 0.50562151542895928 0 0.57143682973041188 0.50513310862866234 0 0.50000265683637624 0.3797679478844822 0 0.6428589620457259 0.38113747419351418 0 0.57143682973041188 0.50513310862866234 0 0.6428589620457259 0.38113747419351418 0 0.71689882325258081 0.50562151542895928 0 0.78571428571267199 0.38141042586853341 0 0.71689882325258081 0.50562151542895928 0 0.57143682973041188 0.50513310862866234 0 0.6428688546313952 0.62885301731806609 0 0.50003783804313584 0.62886810132652948 0 0.57143682973041188 0.50513310862866234 0 0.6428688546313952 0.62885301731806609 0 0.71689882325258081 0.50562151542895928 0 0.6428688546313952 0.62885301731806609 0 0.7865654166374938 0.63474444568669874 0 0.6428688546313952 0.62885301731806609 0 0.7865654166374938 0.63474444568669874 0 0.71537080136980369 0.7565812122385458 0 0.50003783804313584 0.62886810132652948 0 0.6428688546313952 0.62885301731806609 0 0.57146100403685018 0.75258289532342593 0 0.6428688546313952 0.62885301731806609 0 0.57146100403685018 0.75258289532342593 0 0.71537080136980369 0.7565812122385458 0 0.49927531931040692 0.1259400136946118 0 0.42857142857032021 0 0 0.57142857142744297 0 0 0.35419193461659548 0.1242932860904311 0 0.49927531931040692 0.1259400136946118 0 0.42857142857032021 0 0 0.35419193461659548 0.1242932860904311 0 0.49927531931040692 0.1259400136946118 0 0.42857142856968189 0.24782843958009351 0 0.35714458040172548 0.37949340689832922 0 0.50000265683637624 0.3797679478844822 0 0.42857142856968189 0.24782843958009351 0 0.50000265683637624 0.3797679478844822 0 0.42857142856968189 0.24782843958009351 0 0.57134283277699616 0.25528695228377429 0 0.49927531931040692 0.1259400136946118 0 0.42857142856968189 0.24782843958009351 0 0.57134283277699616 0.25528695228377429 0 0.57134283277699616 0.25528695228377429 0 0.71335089116972128 0.25578338314493299 0 0.64223892332544308 0.130274960827549 0 0.6428589620457259 0.38113747419351418 0 0.57134283277699616 0.25528695228377429 0 0.71335089116972128 0.25578338314493299 0 0.50000265683637624 0.3797679478844822 0 0.6428589620457259 0.38113747419351418 0 0.57134283277699616 0.25528695228377429 0 0.6428589620457259 0.38113747419351418 0 0.71335089116972128 0.25578338314493299 0 0.78571428571267199 0.38141042586853341 0 0.71335089116972128 0.25578338314493299 0 0.64223892332544308 0.130274960827549 0 0.78018926648548503 0.12559094919453551 0 0.49927531931040692 0.1259400136946118 0 0.57134283277699616 0.25528695228377429 0 0.64223892332544308 0.130274960827549 0 0.64223892332544308 0.130274960827549 0 0.57142857142744297 0 0 0.71428571428496201 0 0 0.49927531931040692 0.1259400136946118 0 0.64223892332544308 0.130274960827549 0 0.57142857142744297 0 0 0.64223892332544308 0.130274960827549 0 0.71428571428496201 0 0 0.78018926648548503 0.12559094919453551 0 0.71428571428496201 0 0 0.78018926648548503 0.12559094919453551 0 0.85714285714248095 0 0 0.78018926648548503 0.12559094919453551 0 0.89542131320406015 0.10457868679576519 0 0.86802342313663505 0.2373869704637242 0 0.89542131320406015 0.10457868679576519 0 1 0.14285714285686729 0 0.86802342313663505 0.2373869704637242 0 0.89542131320406015 0.10457868679576519 0 0.85714285714248095 0 0 1 0 0 0.78018926648548503 0.12559094919453551 0 0.89542131320406015 0.10457868679576519 0 0.85714285714248095 0 0 0.89542131320406015 0.10457868679576519 0 1 0 0 1 0.14285714285686729 0 1 0.14285714285686729 0 1.1045786867956009 0.1045786867955263 0 1.11654878083672 0.2171580770020253 0 1 0 0 1 0.14285714285686729 0 1.1045786867956009 0.1045786867955263 0 1 0 0 1.1045786867956009 0.1045786867955263 0 1.142857142857143 0 0 1.120408926261548 0.35723491808527941 0 1 0.28571428571359381 0 1 0.42857142857032021 0 1.120408926261548 0.35723491808527941 0 1.11654878083672 0.2171580770020253 0 1 0.28571428571359381 0 1 0.14285714285686729 0 1.11654878083672 0.2171580770020253 0 1 0.28571428571359381 0 1 0.14285714285686729 0 1 0.28571428571359381 0 0.86802342313663505 0.2373869704637242 0 1 0.28571428571359381 0 0.90513725992141869 0.36710674629889062 0 1 0.42857142857032021 0 1 0.28571428571359381 0 0.90513725992141869 0.36710674629889062 0 0.86802342313663505 0.2373869704637242 0 0.90513725992141869 0.36710674629889062 0 0.86802342313663505 0.2373869704637242 0 0.78571428571267199 0.38141042586853341 0 0.71335089116972128 0.25578338314493299 0 0.78018926648548503 0.12559094919453551 0 0.86802342313663505 0.2373869704637242 0 0.71335089116972128 0.25578338314493299 0 0.86802342313663505 0.2373869704637242 0 0.78571428571267199 0.38141042586853341 0 0.71689882325258081 0.50562151542895928 0 0.78571428571267199 0.38141042586853341 0 0.87194859075778619 0.50245062087828152 0 0.71689882325258081 0.50562151542895928 0 0.87194859075778619 0.50245062087828152 0 0.7865654166374938 0.63474444568669874 0 0.90513725992141869 0.36710674629889062 0 0.87194859075778619 0.50245062087828152 0 1 0.42857142857032021 0 0.90513725992141869 0.36710674629889062 0 0.78571428571267199 0.38141042586853341 0 0.87194859075778619 0.50245062087828152 0 0.7865654166374938 0.63474444568669874 0 0.87061467893647215 0.77259634013423817 0 0.71537080136980369 0.7565812122385458 0 0.87194859075778619 0.50245062087828152 0 0.90582573726635052 0.63910113848232464 0 1 0.57142857142744297 0 0.87194859075778619 0.50245062087828152 0 0.7865654166374938 0.63474444568669874 0 0.90582573726635052 0.63910113848232464 0 0.90582573726635052 0.63910113848232464 0 1 0.71428571428496201 0 0.87061467893647215 0.77259634013423817 0 0.7865654166374938 0.63474444568669874 0 0.90582573726635052 0.63910113848232464 0 0.87061467893647215 0.77259634013423817 0 0.90582573726635052 0.63910113848232464 0 1 0.71428571428496201 0 1 0.57142857142744297 0 1 0.57142857142744297 0 1.1230850406616231 0.64211163998861642 0 1.1231105411754949 0.50105200202130007 0 1 0.71428571428496201 0 1 0.57142857142744297 0 1.1230850406616231 0.64211163998861642 0 1 0.71428571428496201 0 1.1230850406616231 0.64211163998861642 0 1.1205280434883049 0.78018926648583675 0 0.87194859075778619 0.50245062087828152 0 1 0.57142857142744297 0 1 0.42857142857032021 0 1 0.57142857142744297 0 1 0.42857142857032021 0 1.1231105411754949 0.50105200202130007 0 1.120408926261548 0.35723491808527941 0 1 0.42857142857032021 0 1.1231105411754949 0.50105200202130007 0 1.120408926261548 0.35723491808527941 0 1.1231105411754949 0.50105200202130007 0 1.242992467502205 0.4277245950738956 0 1.1231105411754949 0.50105200202130007 0 1.242992467502205 0.4277245950738956 0 1.247229121683481 0.57147965461975947 0 1.242992467502205 0.4277245950738956 0 1.247229121683481 0.57147965461975947 0 1.369122867196076 0.49769215192747729 0 1.1230850406616231 0.64211163998861642 0 1.246702098928647 0.71318645322081164 0 1.1205280434883049 0.78018926648583675 0 1.1230850406616231 0.64211163998861642 0 1.1231105411754949 0.50105200202130007 0 1.247229121683481 0.57147965461975947 0 1.1230850406616231 0.64211163998861642 0 1.247229121683481 0.57147965461975947 0 1.246702098928647 0.71318645322081164 0 1.247229121683481 0.57147965461975947 0 1.246702098928647 0.71318645322081164 0 1.3707808136040489 0.64248101537579216 0 1.246702098928647 0.71318645322081164 0 1.3707808136040489 0.64248101537579216 0 1.369080439626563 0.78389141510404459 0 1.247229121683481 0.57147965461975947 0 1.3707808136040489 0.64248101537579216 0 1.369122867196076 0.49769215192747729 0 1.3707808136040489 0.64248101537579216 0 1.49447102461245 0.57098124216803303 0 1.4948716593059641 0.71428571428344279 0 1.3707808136040489 0.64248101537579216 0 1.49447102461245 0.57098124216803303 0 1.369122867196076 0.49769215192747729 0 1.3707808136040489 0.64248101537579216 0 1.4948716593059641 0.71428571428344279 0 1.369080439626563 0.78389141510404459 0 1.242992467502205 0.4277245950738956 0 1.369122867196076 0.49769215192747729 0 1.365913983939659 0.35404229584497132 0 1.49447102461245 0.57098124216803303 0 1.369122867196076 0.49769215192747729 0 1.493210541712801 0.42593700932760992 0 1.369122867196076 0.49769215192747729 0 1.493210541712801 0.42593700932760992 0 1.365913983939659 0.35404229584497132 0 1.493210541712801 0.42593700932760992 0 1.365913983939659 0.35404229584497132 0 1.4945915486603041 0.278046120036475 0 1.365913983939659 0.35404229584497132 0 1.362797304713371 0.2085843731968661 0 1.239801768054871 0.28318912013054159 0 1.362797304713371 0.2085843731968661 0 1.4945915486603041 0.278046120036475 0 1.4981772993068541 0.1265427876282571 0 1.365913983939659 0.35404229584497132 0 1.362797304713371 0.2085843731968661 0 1.4945915486603041 0.278046120036475 0 1.4981772993068541 0.1265427876282571 0 1.4285714285714279 0 0 1.357142857142857 0.088385776599927718 0 1.4981772993068541 0.1265427876282571 0 1.4285714285714279 0 0 1.571428571428571 0 0 1.4285714285714279 0 0 1.357142857142857 0.088385776599927718 0 1.2857142857142849 0 0 1.362797304713371 0.2085843731968661 0 1.357142857142857 0.088385776599927718 0 1.230484398416066 0.12817051038898539 0 1.362797304713371 0.2085843731968661 0 1.4981772993068541 0.1265427876282571 0 1.357142857142857 0.088385776599927718 0 1.230484398416066 0.12817051038898539 0 1.2857142857142849 0 0 1.142857142857143 0 0 1.357142857142857 0.088385776599927718 0 1.230484398416066 0.12817051038898539 0 1.2857142857142849 0 0 1.1045786867956009 0.1045786867955263 0 1.230484398416066 0.12817051038898539 0 1.142857142857143 0 0 1.1045786867956009 0.1045786867955263 0 1.11654878083672 0.2171580770020253 0 1.230484398416066 0.12817051038898539 0 1.11654878083672 0.2171580770020253 0 1.230484398416066 0.12817051038898539 0 1.239801768054871 0.28318912013054159 0 1.120408926261548 0.35723491808527941 0 1.242992467502205 0.4277245950738956 0 1.239801768054871 0.28318912013054159 0 1.120408926261548 0.35723491808527941 0 1.11654878083672 0.2171580770020253 0 1.239801768054871 0.28318912013054159 0 1.242992467502205 0.4277245950738956 0 1.365913983939659 0.35404229584497132 0 1.239801768054871 0.28318912013054159 0 1.362797304713371 0.2085843731968661 0 1.230484398416066 0.12817051038898539 0 1.239801768054871 0.28318912013054159 0 1.2843187895246739 1.251849118408489 0 1.356519680644851 1.1297688427831769 0 1.217136293327606 1.122039968907099 0 1.2843187895246739 1.251849118408489 0 1.1309902448456099 1.235084640813384 0 1.217136293327606 1.122039968907099 0 1.1309902448456099 1.235084640813384 0 1.217136293327606 1.122039968907099 0 1.1045786867955529 1.1045786867955529 0 1.2843187895246739 1.251849118408489 0 1.1309902448456099 1.235084640813384 0 1.214285714285708 1.381410425868262 0 1.1309902448456099 1.235084640813384 0 1.214285714285708 1.381410425868262 0 1.0966122299857239 1.357142857142857 0 1.214285714285708 1.381410425868262 0 1.1265427876294609 1.501822700692834 0 1.285714285714282 1.505128340694609 0 1.214285714285708 1.381410425868262 0 1.0966122299857239 1.357142857142857 0 1.1265427876294609 1.501822700692834 0 1.214285714285708 1.381410425868262 0 1.3557237634480139 1.380474745153186 0 1.285714285714282 1.505128340694609 0 1.2843187895246739 1.251849118408489 0 1.214285714285708 1.381410425868262 0 1.3557237634480139 1.380474745153186 0 1.3557237634480139 1.380474745153186 0 1.285714285714282 1.505128340694609 0 1.42857911129607 1.505132776317748 0 1.3557237634480139 1.380474745153186 0 1.4999999999999949 1.3814104258682569 0 1.42857911129607 1.505132776317748 0 1.3557237634480139 1.380474745153186 0 1.4999999999999949 1.3814104258682569 0 1.426914538806672 1.255395578508163 0 1.4999999999999949 1.3814104258682569 0 1.426914538806672 1.255395578508163 0 1.571152652531757 1.256105255633247 0 1.2843187895246739 1.251849118408489 0 1.3557237634480139 1.380474745153186 0 1.426914538806672 1.255395578508163 0 1.2843187895246739 1.251849118408489 0 1.426914538806672 1.255395578508163 0 1.356519680644851 1.1297688427831769 0 1.426914538806672 1.255395578508163 0 1.499999999999998 1.1271398115696349 0 1.571152652531757 1.256105255633247 0 1.426914538806672 1.255395578508163 0 1.356519680644851 1.1297688427831769 0 1.499999999999998 1.1271398115696349 0 1.499999999999998 1.1271398115696349 0 1.4285714285714279 1 0 1.571428571428571 1 0 1.356519680644851 1.1297688427831769 0 1.499999999999998 1.1271398115696349 0 1.4285714285714279 1 0 1.4285714285714279 1 0 1.497549379121643 0.87194859075748521 0 1.571428571428571 1 0 1.4285714285714279 1 0 1.359152564409752 0.9044833397938371 0 1.2857142857142849 1 0 1.356519680644851 1.1297688427831769 0 1.4285714285714279 1 0 1.2857142857142849 1 0 1.4948716593059641 0.71428571428344279 0 1.497549379121643 0.87194859075748521 0 1.369080439626563 0.78389141510404459 0 1.497549379121643 0.87194859075748521 0 1.359152564409752 0.9044833397938371 0 1.369080439626563 0.78389141510404459 0 1.4285714285714279 1 0 1.497549379121643 0.87194859075748521 0 1.359152564409752 0.9044833397938371 0 1.359152564409752 0.9044833397938371 0 1.369080439626563 0.78389141510404459 0 1.2323719363650789 0.86814175826561835 0 1.246702098928647 0.71318645322081164 0 1.369080439626563 0.78389141510404459 0 1.2323719363650789 0.86814175826561835 0 1.359152564409752 0.9044833397938371 0 1.2323719363650789 0.86814175826561835 0 1.2857142857142849 1 0 1.2323719363650789 0.86814175826561835 0 1.142857142857143 1 0 1.104578686795793 0.89542131320410689 0 1.2323719363650789 0.86814175826561835 0 1.1205280434883049 0.78018926648583675 0 1.104578686795793 0.89542131320410689 0 1.246702098928647 0.71318645322081164 0 1.2323719363650789 0.86814175826561835 0 1.1205280434883049 0.78018926648583675 0 1.356519680644851 1.1297688427831769 0 1.2857142857142849 1 0 1.217136293327606 1.122039968907099 0 1.2323719363650789 0.86814175826561835 0 1.2857142857142849 1 0 1.142857142857143 1 0 1.142857142857143 1 0 1.217136293327606 1.122039968907099 0 1.1045786867955529 1.1045786867955529 0 1.2857142857142849 1 0 1.142857142857143 1 0 1.217136293327606 1.122039968907099 0 1.1045786867955529 1.1045786867955529 0 1 1 0 1 1.142857142857143 0 1.142857142857143 1 0 1.1045786867955529 1.1045786867955529 0 1 1 0 1.142857142857143 1 0 1 1 0 1.104578686795793 0.89542131320410689 0 1 1 0 0.89542131320410701 1.104578686795793 0 1 1.142857142857143 0 1 0.71428571428496201 0 1.1205280434883049 0.78018926648583675 0 1 0.85714285714248095 0 1 1 0 1.104578686795793 0.89542131320410689 0 1 0.85714285714248095 0 1.1205280434883049 0.78018926648583675 0 1.104578686795793 0.89542131320410689 0 1 0.85714285714248095 0 1 1 0 1 0.85714285714248095 0 0.89542131320417073 0.89542131320417073 0 1 0.71428571428496201 0 1 0.85714285714248095 0 0.87061467893647215 0.77259634013423817 0 1 0.85714285714248095 0 0.87061467893647215 0.77259634013423817 0 0.89542131320417073 0.89542131320417073 0 0.89542131320417073 0.89542131320417073 0 0.78149925341697946 0.88257916460195274 0 0.85714285714248095 1 0 0.87061467893647215 0.77259634013423817 0 0.89542131320417073 0.89542131320417073 0 0.78149925341697946 0.88257916460195274 0 0.87061467893647215 0.77259634013423817 0 0.78149925341697946 0.88257916460195274 0 0.71537080136980369 0.7565812122385458 0 0.89542131320410701 1.104578686795793 0 0.85714285714248095 1 0 0.78018926648585263 1.1205280434881351 0 1 1 0 0.89542131320410701 1.104578686795793 0 0.85714285714248095 1 0 1 1 0 0.89542131320417073 0.89542131320417073 0 0.85714285714248095 1 0 0.78149925341697946 0.88257916460195274 0 0.85714285714248095 1 0 0.71428571428496201 1 0 0.85714285714248095 1 0 0.78018926648585263 1.1205280434881351 0 0.71428571428496201 1 0 0.78018926648585263 1.1205280434881351 0 0.8681417582656602 1.2323719363648691 0 0.71318645322083074 1.246702098928443 0 0.8681417582656602 1.2323719363648691 0 0.78389141510410065 1.3690804396262211 0 0.71318645322083074 1.246702098928443 0 0.8681417582656602 1.2323719363648691 0 1 1.2857142857142849 0 0.90448333979397377 1.359152564409229 0 0.89542131320410701 1.104578686795793 0 0.78018926648585263 1.1205280434881351 0 0.8681417582656602 1.2323719363648691 0 0.89542131320410701 1.104578686795793 0 0.8681417582656602 1.2323719363648691 0 1 1.142857142857143 0 0.8681417582656602 1.2323719363648691 0 1 1.142857142857143 0 1 1.2857142857142849 0 1.1309902448456099 1.235084640813384 0 1 1.2857142857142849 0 1.0966122299857239 1.357142857142857 0 1.1309902448456099 1.235084640813384 0 1 1.142857142857143 0 1 1.2857142857142849 0 1.1309902448456099 1.235084640813384 0 1.1045786867955529 1.1045786867955529 0 1 1.142857142857143 0 1.0966122299857239 1.357142857142857 0 1 1.4285714285714279 0 1.1265427876294609 1.501822700692834 0 1 1.2857142857142849 0 1.0966122299857239 1.357142857142857 0 1 1.4285714285714279 0 1 1.2857142857142849 0 1 1.4285714285714279 0 0.90448333979397377 1.359152564409229 0 1 1.4285714285714279 0 0.87194859075750586 1.497549379121565 0 1 1.571428571428571 0 0.87194859075750586 1.497549379121565 0 0.90448333979397377 1.359152564409229 0 0.78389141510410065 1.3690804396262211 0 1 1.4285714285714279 0 0.87194859075750586 1.497549379121565 0 0.90448333979397377 1.359152564409229 0 0.8681417582656602 1.2323719363648691 0 0.90448333979397377 1.359152564409229 0 0.78389141510410065 1.3690804396262211 0 0.87194859075750586 1.497549379121565 0 0.78389141510410065 1.3690804396262211 0 0.71428571428344279 1.494871659305963 0 0.78389141510410065 1.3690804396262211 0 0.71428571428344279 1.494871659305963 0 0.64248101537579227 1.370780813604048 0 0.71428571428344279 1.494871659305963 0 0.5709812421680337 1.49447102461245 0 0.64248101537579227 1.370780813604048 0 0.5709812421680337 1.49447102461245 0 0.64248101537579227 1.370780813604048 0 0.49769215192747779 1.3691228671960749 0 0.64248101537579227 1.370780813604048 0 0.57147965461975991 1.2472291216834761 0 0.49769215192747779 1.3691228671960749 0 0.78389141510410065 1.3690804396262211 0 0.64248101537579227 1.370780813604048 0 0.71318645322083074 1.246702098928443 0 0.78018926648585263 1.1205280434881351 0 0.71318645322083074 1.246702098928443 0 0.64211163998861909 1.1230850406615951 0 0.71318645322083074 1.246702098928443 0 0.57147965461975991 1.2472291216834761 0 0.64211163998861909 1.1230850406615951 0 0.57147965461975991 1.2472291216834761 0 0.64211163998861909 1.1230850406615951 0 0.50105200202129974 1.1231105411754949 0 0.64248101537579227 1.370780813604048 0 0.71318645322083074 1.246702098928443 0 0.57147965461975991 1.2472291216834761 0 0.57147965461975991 1.2472291216834761 0 0.42772459507389549 1.2429924675022059 0 0.49769215192747779 1.3691228671960749 0 0.57147965461975991 1.2472291216834761 0 0.42772459507389549 1.2429924675022059 0 0.50105200202129974 1.1231105411754949 0 0.42772459507389549 1.2429924675022059 0 0.50105200202129974 1.1231105411754949 0 0.35723491808528002 1.1204089262615491 0 0.42772459507389549 1.2429924675022059 0 0.49769215192747779 1.3691228671960749 0 0.35404229584497188 1.365913983939661 0 0.42593700932761119 1.4932105417128021 0 0.49769215192747779 1.3691228671960749 0 0.35404229584497188 1.365913983939661 0 0.5709812421680337 1.49447102461245 0 0.42593700932761119 1.4932105417128021 0 0.49769215192747779 1.3691228671960749 0 0.57146100403685018 0.75258289532342593 0 0.71537080136980369 0.7565812122385458 0 0.64285714285588325 0.87628208517373918 0 0.57146100403685018 0.75258289532342593 0 0.64285714285588325 0.87628208517373918 0 0.49999999999885258 0.87628208517384021 0 0.78149925341697946 0.88257916460195274 0 0.71537080136980369 0.7565812122385458 0 0.64285714285588325 0.87628208517373918 0 0.78149925341697946 0.88257916460195274 0 0.64285714285588325 0.87628208517373918 0 0.71428571428496201 1 0 0.64285714285588325 0.87628208517373918 0 0.57142857142744297 1 0 0.49999999999885258 0.87628208517384021 0 0.64285714285588325 0.87628208517373918 0 0.57142857142744297 1 0 0.71428571428496201 1 0 0.78018926648585263 1.1205280434881351 0 0.71428571428496201 1 0 0.64211163998861909 1.1230850406615951 0 0.57142857142744297 1 0 0.71428571428496201 1 0 0.64211163998861909 1.1230850406615951 0 0.57142857142744297 1 0 0.64211163998861909 1.1230850406615951 0 0.50105200202129974 1.1231105411754949 0 0.57142857142744297 1 0 0.50105200202129974 1.1231105411754949 0 0.42857142857032021 1 0 0.50105200202129974 1.1231105411754949 0 0.42857142857032021 1 0 0.35723491808528002 1.1204089262615491 0 0.57142857142744297 1 0 0.42857142857032021 1 0 0.49999999999885258 0.87628208517384021 0 0.42857142857032021 1 0 0.49999999999885258 0.87628208517384021 0 0.35831043108656913 0.87695618430515165 0 0.49999999999885258 0.87628208517384021 0 0.42876602422768972 0.75267652020288756 0 0.35831043108656913 0.87695618430515165 0 0.57146100403685018 0.75258289532342593 0 0.49999999999885258 0.87628208517384021 0 0.42876602422768972 0.75267652020288756 0 0.28454251053718921 0.75357332720455328 0 0.22029060869521661 0.88080238224013152 0 0.12868163055416221 0.76697400229767487 0 0.28454251053718921 0.75357332720455328 0 0.35831043108656913 0.87695618430515165 0 0.22029060869521661 0.88080238224013152 0 0.42876602422768972 0.75267652020288756 0 0.28454251053718921 0.75357332720455328 0 0.35831043108656913 0.87695618430515165 0 0.35831043108656913 0.87695618430515165 0 0.22029060869521661 0.88080238224013152 0 0.28571428571359381 1 0 0.22029060869521661 0.88080238224013152 0 0.28571428571359381 1 0 0.14285714285686729 1 0 0.42857142857032021 1 0 0.35831043108656913 0.87695618430515165 0 0.28571428571359381 1 0 0.42857142857032021 1 0 0.28571428571359381 1 0 0.35723491808528002 1.1204089262615491 0 0.28571428571359381 1 0 0.35723491808528002 1.1204089262615491 0 0.21715807700202849 1.116548780836722 0 0.28571428571359381 1 0 0.21715807700202849 1.116548780836722 0 0.14285714285686729 1 0 0.21715807700202849 1.116548780836722 0 0.1045786867955263 1.1045786867956 0 0.14285714285686729 1 0 0.1045786867955263 1.1045786867956 0 0 1 0 0 1.142857142857143 0 0.1045786867955263 1.1045786867956 0 0 1 0 0.14285714285686729 1 0 0 1 0 0.14285714285686729 1 0 0.1045786867957653 0.89542131320405993 0 0.22029060869521661 0.88080238224013152 0 0.1045786867957653 0.89542131320405993 0 0.12868163055416221 0.76697400229767487 0 0.22029060869521661 0.88080238224013152 0 0.14285714285686729 1 0 0.1045786867957653 0.89542131320405993 0 0 1 0 0.1045786867957653 0.89542131320405993 0 0 0.85714285714248095 0 0.1045786867957653 0.89542131320405993 0 0 0.85714285714248095 0 0.12868163055416221 0.76697400229767487 0 0 0.71428571428496201 0 0 0.85714285714248095 0 0.12868163055416221 0.76697400229767487 0 0.2085843731968674 1.3627973047133739 0 0.27804612003647688 1.494591548660307 0 0.12654278762825799 1.4981772993068549 0 0.2085843731968674 1.3627973047133739 0 0.27804612003647688 1.494591548660307 0 0.35404229584497188 1.365913983939661 0 0.42593700932761119 1.4932105417128021 0 0.27804612003647688 1.494591548660307 0 0.35404229584497188 1.365913983939661 0 0.2085843731968674 1.3627973047133739 0 0.35404229584497188 1.365913983939661 0 0.2831891201305422 1.2398017680548721 0 0.42772459507389549 1.2429924675022059 0 0.35404229584497188 1.365913983939661 0 0.2831891201305422 1.2398017680548721 0 0.42772459507389549 1.2429924675022059 0 0.35723491808528002 1.1204089262615491 0 0.2831891201305422 1.2398017680548721 0 0.35723491808528002 1.1204089262615491 0 0.21715807700202849 1.116548780836722 0 0.2831891201305422 1.2398017680548721 0 0.21715807700202849 1.116548780836722 0 0.2831891201305422 1.2398017680548721 0 0.1281705103889863 1.2304843984160669 0 0.2085843731968674 1.3627973047133739 0 0.2831891201305422 1.2398017680548721 0 0.1281705103889863 1.2304843984160669 0 0.21715807700202849 1.116548780836722 0 0.1045786867955263 1.1045786867956 0 0.1281705103889863 1.2304843984160669 0 0.1045786867955263 1.1045786867956 0 0.1281705103889863 1.2304843984160669 0 0 1.142857142857143 0 0.1281705103889863 1.2304843984160669 0 0 1.2857142857142849 0 0.088385776599929494 1.357142857142857 0 0.1281705103889863 1.2304843984160669 0 0 1.142857142857143 0 0 1.2857142857142849 0 0 1.2857142857142849 0 0.088385776599929494 1.357142857142857 0 0 1.4285714285714279 0 0.2085843731968674 1.3627973047133739 0 0.088385776599929494 1.357142857142857 0 0.12654278762825799 1.4981772993068549 0 0.2085843731968674 1.3627973047133739 0 0.1281705103889863 1.2304843984160669 0 0.088385776599929494 1.357142857142857 0 0.12654278762825799 1.4981772993068549 0 0 1.4285714285714279 0 0 1.571428571428571 0 0.088385776599929494 1.357142857142857 0 0.12654278762825799 1.4981772993068549 0 0 1.4285714285714279 0 0.12654278762825799 1.4981772993068549 0 0 1.571428571428571 0 0.093464308857800493 1.636633879872754 0 0 1.571428571428571 0 0.093464308857800493 1.636633879872754 0 0 1.714285714285714 0 0.093464308857800493 1.636633879872754 0 0.21204462330902701 1.6281978226174341 0 0.12873413335171741 1.7710799917251949 0 0.12654278762825799 1.4981772993068549 0 0.093464308857800493 1.636633879872754 0 0.21204462330902701 1.6281978226174341 0 0.27804612003647688 1.494591548660307 0 0.12654278762825799 1.4981772993068549 0 0.21204462330902701 1.6281978226174341 0 0.21204462330902701 1.6281978226174341 0 0.35661818314176119 1.6201734641978449 0 0.2815234200304042 1.7546180202569051 0 0.27804612003647688 1.494591548660307 0 0.21204462330902701 1.6281978226174341 0 0.35661818314176119 1.6201734641978449 0 0.42593700932761119 1.4932105417128021 0 0.27804612003647688 1.494591548660307 0 0.35661818314176119 1.6201734641978449 0 0.2815234200304042 1.7546180202569051 0 0.35415439180319602 1.875698076300893 0 0.42857142856855118 1.752171560420507 0 0.2815234200304042 1.7546180202569051 0 0.21616732492381949 1.8828959187492971 0 0.35415439180319602 1.875698076300893 0 0.35661818314176119 1.6201734641978449 0 0.2815234200304042 1.7546180202569051 0 0.42857142856855118 1.752171560420507 0 0.21204462330902701 1.6281978226174341 0 0.2815234200304042 1.7546180202569051 0 0.12873413335171741 1.7710799917251949 0 0.2815234200304042 1.7546180202569051 0 0.12873413335171741 1.7710799917251949 0 0.21616732492381949 1.8828959187492971 0 0.12873413335171741 1.7710799917251949 0 0.1040205757871384 1.895979424212787 0 0.21616732492381949 1.8828959187492971 0 0.093464308857800493 1.636633879872754 0 0.12873413335171741 1.7710799917251949 0 0 1.714285714285714 0 0.12873413335171741 1.7710799917251949 0 0 1.714285714285714 0 0 1.857142857142857 0 0.12873413335171741 1.7710799917251949 0 0 1.857142857142857 0 0.1040205757871384 1.895979424212787 0 0 2 0 0.14285714285686729 2 0 0.1040205757871384 1.895979424212787 0 0 1.857142857142857 0 0 2 0 0.1040205757871384 1.895979424212787 0 0 2 0 0.14285714285686729 2 0 0.10402057578714501 2.104020575787219 0 0.14285714285686729 2 0 0.1040205757871384 1.895979424212787 0 0.21616732492381949 1.8828959187492971 0 0 2.1428571428571428 0 0.12873413335172121 2.2289200082748062 0 0 2.2857142857142851 0 0 2.1428571428571428 0 0.10402057578714501 2.104020575787219 0 0.12873413335172121 2.2289200082748062 0 0 2 0 0 2.1428571428571428 0 0.10402057578714501 2.104020575787219 0 0.10402057578714501 2.104020575787219 0 0.12873413335172121 2.2289200082748062 0 0.21616732492382371 2.1171040812507051 0 0.14285714285686729 2 0 0.10402057578714501 2.104020575787219 0 0.21616732492382371 2.1171040812507051 0 0.12873413335172121 2.2289200082748062 0 0.21616732492382371 2.1171040812507051 0 0.2815234200304122 2.2453819797430978 0 0.21616732492382371 2.1171040812507051 0 0.35415439180320291 2.1243019236991101 0 0.28571428571359381 2 0 0.21616732492382371 2.1171040812507051 0 0.35415439180320291 2.1243019236991101 0 0.2815234200304122 2.2453819797430978 0 0.35415439180320291 2.1243019236991101 0 0.2815234200304122 2.2453819797430978 0 0.42857142856855918 2.2478284395795001 0 0.14285714285686729 2 0 0.21616732492381949 1.8828959187492971 0 0.28571428571359381 2 0 0.14285714285686729 2 0 0.21616732492382371 2.1171040812507051 0 0.28571428571359381 2 0 0.35415439180320291 2.1243019236991101 0 0.28571428571359381 2 0 0.42857142857032021 2 0 0.28571428571359381 2 0 0.35415439180319602 1.875698076300893 0 0.42857142857032021 2 0 0.21616732492381949 1.8828959187492971 0 0.28571428571359381 2 0 0.35415439180319602 1.875698076300893 0 0.35415439180319602 1.875698076300893 0 0.42857142857032021 2 0 0.49927531931007929 1.874059986305624 0 0.42857142857032021 2 0 0.49927531931008179 2.1259400136943771 0 0.57142857142744297 2 0 0.42857142857032021 2 0 0.57142857142744297 2 0 0.49927531931007929 1.874059986305624 0 0.35415439180320291 2.1243019236991101 0 0.42857142856855918 2.2478284395795001 0 0.49927531931008179 2.1259400136943771 0 0.35415439180320291 2.1243019236991101 0 0.42857142857032021 2 0 0.49927531931008179 2.1259400136943771 0 0.42857142856855918 2.2478284395795001 0 0.49927531931008179 2.1259400136943771 0 0.57126208756432351 2.2553423194843969 0 0.49927531931008179 2.1259400136943771 0 0.64222861727828873 2.130282196703202 0 0.57126208756432351 2.2553423194843969 0 0.64222861727828873 2.130282196703202 0 0.57126208756432351 2.2553423194843969 0 0.7133104372685124 2.2558131098502412 0 0.49927531931008179 2.1259400136943771 0 0.64222861727828873 2.130282196703202 0 0.57142857142744297 2 0 0.64222861727828873 2.130282196703202 0 0.71428571428496201 2 0 0.78018926648515108 2.1255909491940099 0 0.64222861727828873 2.130282196703202 0 0.7133104372685124 2.2558131098502412 0 0.78018926648515108 2.1255909491940099 0 0.57142857142744297 2 0 0.71428571428496201 2 0 0.6422286172782864 1.869717803296798 0 0.57142857142744297 2 0 0.6422286172782864 1.869717803296798 0 0.49927531931007929 1.874059986305624 0 0.64222861727828873 2.130282196703202 0 0.57142857142744297 2 0 0.71428571428496201 2 0 0.71428571428496201 2 0 0.6422286172782864 1.869717803296798 0 0.78018926648514864 1.8744090508059901 0 0.6422286172782864 1.869717803296798 0 0.71331043726850674 1.744186890149759 0 0.78018926648514864 1.8744090508059901 0 0.6422286172782864 1.869717803296798 0 0.57126208756431718 1.7446576805156051 0 0.71331043726850674 1.744186890149759 0 0.6422286172782864 1.869717803296798 0 0.57126208756431718 1.7446576805156051 0 0.49927531931007929 1.874059986305624 0 0.57126208756431718 1.7446576805156051 0 0.71331043726850674 1.744186890149759 0 0.64269698385324503 1.618739532771452 0 0.71331043726850674 1.744186890149759 0 0.64269698385324503 1.618739532771452 0 0.78571428571188839 1.618589574132365 0 0.71428571428344279 1.494871659305963 0 0.64269698385324503 1.618739532771452 0 0.78571428571188839 1.618589574132365 0 0.71428571428344279 1.494871659305963 0 0.5709812421680337 1.49447102461245 0 0.64269698385324503 1.618739532771452 0 0.5709812421680337 1.49447102461245 0 0.64269698385324503 1.618739532771452 0 0.49948637524749079 1.619889960661181 0 0.57126208756431718 1.7446576805156051 0 0.64269698385324503 1.618739532771452 0 0.49948637524749079 1.619889960661181 0 0.5709812421680337 1.49447102461245 0 0.42593700932761119 1.4932105417128021 0 0.49948637524749079 1.619889960661181 0 0.42593700932761119 1.4932105417128021 0 0.35661818314176119 1.6201734641978449 0 0.49948637524749079 1.619889960661181 0 0.35661818314176119 1.6201734641978449 0 0.49948637524749079 1.619889960661181 0 0.42857142856855118 1.752171560420507 0 0.35415439180319602 1.875698076300893 0 0.42857142856855118 1.752171560420507 0 0.49927531931007929 1.874059986305624 0 0.57126208756431718 1.7446576805156051 0 0.42857142856855118 1.752171560420507 0 0.49927531931007929 1.874059986305624 0 0.57126208756431718 1.7446576805156051 0 0.49948637524749079 1.619889960661181 0 0.42857142856855118 1.752171560420507 0 0.28571428571359381 3 0 0.35723491808528102 2.87959107373845 0 0.42857142857032021 3 0 0.28571428571359381 3 0 0.35723491808528102 2.87959107373845 0 0.21715807700202869 2.883451219163276 0 0.35723491808528102 2.87959107373845 0 0.21715807700202869 2.883451219163276 0 0.28318912013054431 2.760198231945127 0 0.28571428571359381 3 0 0.21715807700202869 2.883451219163276 0 0.14285714285686729 3 0 0.21715807700202869 2.883451219163276 0 0.14285714285686729 3 0 0.10457868679552811 2.8954213132043991 0 0 3 0 0 2.8571428571428572 0 0.10457868679552811 2.8954213132043991 0 0.14285714285686729 3 0 0 3 0 0.10457868679552811 2.8954213132043991 0 0 2.8571428571428572 0 0.10457868679552811 2.8954213132043991 0 0.1281705103889878 2.7695156015839308 0 0.21715807700202869 2.883451219163276 0 0.10457868679552811 2.8954213132043991 0 0.1281705103889878 2.7695156015839308 0 0 2.8571428571428572 0 0.1281705103889878 2.7695156015839308 0 0 2.714285714285714 0 0.1281705103889878 2.7695156015839308 0 0 2.714285714285714 0 0.088385776599930521 2.6428571428571428 0 0 2.714285714285714 0 0.088385776599930521 2.6428571428571428 0 0 2.5714285714285712 0 0.1281705103889878 2.7695156015839308 0 0.088385776599930521 2.6428571428571428 0 0.20858437319687029 2.6372026952866259 0 0.21715807700202869 2.883451219163276 0 0.1281705103889878 2.7695156015839308 0 0.28318912013054431 2.760198231945127 0 0.1281705103889878 2.7695156015839308 0 0.20858437319687029 2.6372026952866259 0 0.28318912013054431 2.760198231945127 0 0.35723491808528102 2.87959107373845 0 0.28318912013054431 2.760198231945127 0 0.42772459507389821 2.7570075324977932 0 0.28318912013054431 2.760198231945127 0 0.35404229584497637 2.6340860160603379 0 0.42772459507389821 2.7570075324977932 0 0.20858437319687029 2.6372026952866259 0 0.28318912013054431 2.760198231945127 0 0.35404229584497637 2.6340860160603379 0 0.35404229584497637 2.6340860160603379 0 0.27804612003648221 2.5054084513396928 0 0.42593700932761791 2.506789458287197 0 0.27804612003648221 2.5054084513396928 0 0.35661818314176918 2.3798265358021551 0 0.42593700932761791 2.506789458287197 0 0.27804612003648221 2.5054084513396928 0 0.1265427876282616 2.5018227006931442 0 0.21204462330903229 2.3718021773825648 0 0.20858437319687029 2.6372026952866259 0 0.27804612003648221 2.5054084513396928 0 0.1265427876282616 2.5018227006931442 0 0.20858437319687029 2.6372026952866259 0 0.35404229584497637 2.6340860160603379 0 0.27804612003648221 2.5054084513396928 0 0.088385776599930521 2.6428571428571428 0 0.20858437319687029 2.6372026952866259 0 0.1265427876282616 2.5018227006931442 0 0.088385776599930521 2.6428571428571428 0 0 2.5714285714285712 0 0.1265427876282616 2.5018227006931442 0 0 2.5714285714285712 0 0.1265427876282616 2.5018227006931442 0 0 2.4285714285714279 0 0.1265427876282616 2.5018227006931442 0 0.093464308857803033 2.363366120127246 0 0.21204462330903229 2.3718021773825648 0 0.1265427876282616 2.5018227006931442 0 0.093464308857803033 2.363366120127246 0 0 2.4285714285714279 0 0.093464308857803033 2.363366120127246 0 0 2.4285714285714279 0 0 2.2857142857142851 0 0.12873413335172121 2.2289200082748062 0 0.093464308857803033 2.363366120127246 0 0 2.2857142857142851 0 0.12873413335172121 2.2289200082748062 0 0.093464308857803033 2.363366120127246 0 0.21204462330903229 2.3718021773825648 0 0.12873413335172121 2.2289200082748062 0 0.2815234200304122 2.2453819797430978 0 0.21204462330903229 2.3718021773825648 0 0.27804612003648221 2.5054084513396928 0 0.21204462330903229 2.3718021773825648 0 0.35661818314176918 2.3798265358021551 0 0.2815234200304122 2.2453819797430978 0 0.21204462330903229 2.3718021773825648 0 0.35661818314176918 2.3798265358021551 0 0.2815234200304122 2.2453819797430978 0 0.42857142856855918 2.2478284395795001 0 0.35661818314176918 2.3798265358021551 0 0.42857142856855918 2.2478284395795001 0 0.35661818314176918 2.3798265358021551 0 0.49948637524749862 2.3801100393388199 0 0.35661818314176918 2.3798265358021551 0 0.49948637524749862 2.3801100393388199 0 0.42593700932761791 2.506789458287197 0 0.42857142856855918 2.2478284395795001 0 0.49948637524749862 2.3801100393388199 0 0.57126208756432351 2.2553423194843969 0 0.49948637524749862 2.3801100393388199 0 0.57126208756432351 2.2553423194843969 0 0.64269698385325302 2.3812604672285489 0 0.57126208756432351 2.2553423194843969 0 0.7133104372685124 2.2558131098502412 0 0.64269698385325302 2.3812604672285489 0 0.7133104372685124 2.2558131098502412 0 0.64269698385325302 2.3812604672285489 0 0.78571428571189661 2.3814104258676352 0 0.64269698385325302 2.3812604672285489 0 0.714285714283452 2.5051283406940419 0 0.78571428571189661 2.3814104258676352 0 0.49948637524749862 2.3801100393388199 0 0.64269698385325302 2.3812604672285489 0 0.57098124216804058 2.5055289753875498 0 0.64269698385325302 2.3812604672285489 0 0.57098124216804058 2.5055289753875498 0 0.714285714283452 2.5051283406940419 0 0.714285714283452 2.5051283406940419 0 0.64248101537579549 2.6292191863959529 0 0.78389141510404725 2.630919560373445 0 0.57098124216804058 2.5055289753875498 0 0.49769215192748217 2.6308771328039229 0 0.64248101537579549 2.6292191863959529 0 0.57098124216804058 2.5055289753875498 0 0.714285714283452 2.5051283406940419 0 0.64248101537579549 2.6292191863959529 0 0.57098124216804058 2.5055289753875498 0 0.42593700932761791 2.506789458287197 0 0.49769215192748217 2.6308771328039229 0 0.49948637524749862 2.3801100393388199 0 0.57098124216804058 2.5055289753875498 0 0.42593700932761791 2.506789458287197 0 0.35404229584497637 2.6340860160603379 0 0.42593700932761791 2.506789458287197 0 0.49769215192748217 2.6308771328039229 0 0.35404229584497637 2.6340860160603379 0 0.42772459507389821 2.7570075324977932 0 0.49769215192748217 2.6308771328039229 0 0.42772459507389821 2.7570075324977932 0 0.57147965461976069 2.752770878316519 0 0.50105200202130085 2.8768894588245049 0 0.42772459507389821 2.7570075324977932 0 0.49769215192748217 2.6308771328039229 0 0.57147965461976069 2.752770878316519 0 0.49769215192748217 2.6308771328039229 0 0.64248101537579549 2.6292191863959529 0 0.57147965461976069 2.752770878316519 0 0.64248101537579549 2.6292191863959529 0 0.71318645322081142 2.7532979010713579 0 0.57147965461976069 2.752770878316519 0 0.64248101537579549 2.6292191863959529 0 0.71318645322081142 2.7532979010713579 0 0.78389141510404725 2.630919560373445 0 0.71318645322081142 2.7532979010713579 0 0.57147965461976069 2.752770878316519 0 0.64211163998861565 2.8769149593383769 0 0.57147965461976069 2.752770878316519 0 0.64211163998861565 2.8769149593383769 0 0.50105200202130085 2.8768894588245049 0 0.71318645322081142 2.7532979010713579 0 0.64211163998861565 2.8769149593383769 0 0.78018926648583442 2.8794719565116988 0 0.64211163998861565 2.8769149593383769 0 0.71428571428496201 3 0 0.78018926648583442 2.8794719565116988 0 0.64211163998861565 2.8769149593383769 0 0.71428571428496201 3 0 0.57142857142744297 3 0 0.64211163998861565 2.8769149593383769 0 0.57142857142744297 3 0 0.50105200202130085 2.8768894588245049 0 0.57142857142744297 3 0 0.50105200202130085 2.8768894588245049 0 0.42857142857032021 3 0 0.35723491808528102 2.87959107373845 0 0.42772459507389821 2.7570075324977932 0 0.50105200202130085 2.8768894588245049 0 0.35723491808528102 2.87959107373845 0 0.50105200202130085 2.8768894588245049 0 0.42857142857032021 3 0 1.1045786867955549 2.8954213132044448 0 1 3 0 1.142857142857143 3 0 1.1045786867955549 2.8954213132044448 0 1 2.8571428571428572 0 1 3 0 1.1045786867955549 2.8954213132044448 0 1 2.8571428571428572 0 1.1205280434878859 2.780189266486456 0 1 2.8571428571428572 0 1 3 0 0.89542131320410789 2.8954213132042099 0 1 3 0 0.85714285714248095 3 0 0.89542131320410789 2.8954213132042099 0 0.85714285714248095 3 0 0.78018926648583442 2.8794719565116988 0 0.89542131320410789 2.8954213132042099 0 0.71428571428496201 3 0 0.85714285714248095 3 0 0.78018926648583442 2.8794719565116988 0 1 2.8571428571428572 0 0.89542131320410789 2.8954213132042099 0 0.86814175826561968 2.7676280636349269 0 0.78018926648583442 2.8794719565116988 0 0.89542131320410789 2.8954213132042099 0 0.86814175826561968 2.7676280636349269 0 0.71318645322081142 2.7532979010713579 0 0.78018926648583442 2.8794719565116988 0 0.86814175826561968 2.7676280636349269 0 0.71318645322081142 2.7532979010713579 0 0.86814175826561968 2.7676280636349269 0 0.78389141510404725 2.630919560373445 0 0.86814175826561968 2.7676280636349269 0 0.78389141510404725 2.630919560373445 0 0.9044833397938421 2.6408474355902611 0 0.86814175826561968 2.7676280636349269 0 0.9044833397938421 2.6408474355902611 0 1 2.714285714285714 0 0.9044833397938421 2.6408474355902611 0 1 2.714285714285714 0 1 2.5714285714285712 0 1 2.8571428571428572 0 0.86814175826561968 2.7676280636349269 0 1 2.714285714285714 0 1 2.8571428571428572 0 1 2.714285714285714 0 1.1205280434878859 2.780189266486456 0 1 2.714285714285714 0 1.1231862696032711 2.6419363063191699 0 1 2.5714285714285712 0 1 2.714285714285714 0 1.1205280434878859 2.780189266486456 0 1.1231862696032711 2.6419363063191699 0 1.1231862696032711 2.6419363063191699 0 1.1237179148263481 2.4999999999999978 0 1 2.5714285714285712 0 1.1237179148263481 2.4999999999999978 0 1 2.5714285714285712 0 1 2.4285714285714279 0 1 2.5714285714285712 0 0.87194859075748876 2.5024506208783599 0 1 2.4285714285714279 0 0.78389141510404725 2.630919560373445 0 0.9044833397938421 2.6408474355902611 0 0.87194859075748876 2.5024506208783599 0 0.9044833397938421 2.6408474355902611 0 1 2.5714285714285712 0 0.87194859075748876 2.5024506208783599 0 0.714285714283452 2.5051283406940419 0 0.78389141510404725 2.630919560373445 0 0.87194859075748876 2.5024506208783599 0 0.714285714283452 2.5051283406940419 0 0.87194859075748876 2.5024506208783599 0 0.78571428571189661 2.3814104258676352 0 0.87194859075748876 2.5024506208783599 0 0.905136104095428 2.367107595633493 0 0.78571428571189661 2.3814104258676352 0 0.87194859075748876 2.5024506208783599 0 0.905136104095428 2.367107595633493 0 1 2.4285714285714279 0 0.7133104372685124 2.2558131098502412 0 0.78571428571189661 2.3814104258676352 0 0.86801764400775483 2.2373912171357588 0 0.905136104095428 2.367107595633493 0 0.78571428571189661 2.3814104258676352 0 0.86801764400775483 2.2373912171357588 0 0.905136104095428 2.367107595633493 0 1 2.2857142857142851 0 0.86801764400775483 2.2373912171357588 0 0.905136104095428 2.367107595633493 0 1 2.2857142857142851 0 1 2.4285714285714279 0 1.1237179148263481 2.4999999999999978 0 1 2.4285714285714279 0 1.124445554570056 2.3535499438421961 0 1 2.2857142857142851 0 1 2.4285714285714279 0 1.124445554570056 2.3535499438421961 0 1 2.2857142857142851 0 1.124445554570056 2.3535499438421961 0 1.1237179148263481 2.2142857142857149 0 1.124445554570056 2.3535499438421961 0 1.2437589323753271 2.2790339186609172 0 1.1237179148263481 2.2142857142857149 0 1.1237179148263481 2.4999999999999978 0 1.124445554570056 2.3535499438421961 0 1.247435829652694 2.4285714285714248 0 1.124445554570056 2.3535499438421961 0 1.247435829652694 2.4285714285714248 0 1.2437589323753271 2.2790339186609172 0 1.247435829652694 2.4285714285714248 0 1.2437589323753271 2.2790339186609172 0 1.367319104369215 2.3469268258187319 0 1.2437589323753271 2.2790339186609172 0 1.367319104369215 2.3469268258187319 0 1.3682878852476059 2.2035940021081579 0 1.4944588869160489 2.2778135148397252 0 1.367319104369215 2.3469268258187319 0 1.3682878852476059 2.2035940021081579 0 1.49336243329776 2.4259573724460979 0 1.367319104369215 2.3469268258187319 0 1.3698831109599341 2.4977991981870939 0 1.4944588869160489 2.2778135148397252 0 1.49336243329776 2.4259573724460979 0 1.367319104369215 2.3469268258187319 0 1.247435829652694 2.4285714285714248 0 1.367319104369215 2.3469268258187319 0 1.3698831109599341 2.4977991981870939 0 1.49336243329776 2.4259573724460979 0 1.3698831109599341 2.4977991981870939 0 1.4946221303562011 2.5709963746106008 0 1.3698831109599341 2.4977991981870939 0 1.4946221303562011 2.5709963746106008 0 1.370927204302999 2.6424647637622658 0 1.3698831109599341 2.4977991981870939 0 1.2473472221155171 2.5712750986722401 0 1.370927204302999 2.6424647637622658 0 1.247435829652694 2.4285714285714248 0 1.3698831109599341 2.4977991981870939 0 1.2473472221155171 2.5712750986722401 0 1.1237179148263481 2.4999999999999978 0 1.247435829652694 2.4285714285714248 0 1.2473472221155171 2.5712750986722401 0 1.1231862696032711 2.6419363063191699 0 1.1237179148263481 2.4999999999999978 0 1.2473472221155171 2.5712750986722401 0 1.1205280434878859 2.780189266486456 0 1.1231862696032711 2.6419363063191699 0 1.2467630522735731 2.713120429682879 0 1.1231862696032711 2.6419363063191699 0 1.2473472221155171 2.5712750986722401 0 1.2467630522735731 2.713120429682879 0 1.1205280434878859 2.780189266486456 0 1.2467630522735731 2.713120429682879 0 1.2323855807482531 2.8681303673999259 0 1.2467630522735731 2.713120429682879 0 1.3691149969664549 2.7838777025796868 0 1.2323855807482531 2.8681303673999259 0 1.2473472221155171 2.5712750986722401 0 1.2467630522735731 2.713120429682879 0 1.370927204302999 2.6424647637622658 0 1.2467630522735731 2.713120429682879 0 1.370927204302999 2.6424647637622658 0 1.3691149969664549 2.7838777025796868 0 1.370927204302999 2.6424647637622658 0 1.4948716593053959 2.7142857142857029 0 1.3691149969664549 2.7838777025796868 0 1.4946221303562011 2.5709963746106008 0 1.370927204302999 2.6424647637622658 0 1.4948716593053959 2.7142857142857029 0 1.4948716593053959 2.7142857142857029 0 1.3691149969664549 2.7838777025796868 0 1.49754937912118 2.871948590758397 0 1.3691149969664549 2.7838777025796868 0 1.3591560776536049 2.904481510101697 0 1.2323855807482531 2.8681303673999259 0 1.3691149969664549 2.7838777025796868 0 1.3591560776536049 2.904481510101697 0 1.49754937912118 2.871948590758397 0 1.3591560776536049 2.904481510101697 0 1.49754937912118 2.871948590758397 0 1.4285714285714279 3 0 1.49754937912118 2.871948590758397 0 1.4285714285714279 3 0 1.571428571428571 3 0 1.3591560776536049 2.904481510101697 0 1.4285714285714279 3 0 1.2857142857142849 3 0 1.3591560776536049 2.904481510101697 0 1.2857142857142849 3 0 1.2323855807482531 2.8681303673999259 0 1.2857142857142849 3 0 1.2323855807482531 2.8681303673999259 0 1.142857142857143 3 0 1.1045786867955549 2.8954213132044448 0 1.1205280434878859 2.780189266486456 0 1.2323855807482531 2.8681303673999259 0 1.1045786867955549 2.8954213132044448 0 1.2323855807482531 2.8681303673999259 0 1.142857142857143 3 0 1 1.714285714285714 0 1 1.857142857142857 0 0.86801764400775172 1.7626087828642401 0 1 1.857142857142857 0 1.1045786867955549 1.895421313204446 0 1.1286816305548799 1.7669740022979501 0 1 1.714285714285714 0 1.0919758494404179 1.6390607956138989 0 1.1286816305548799 1.7669740022979501 0 1 1.714285714285714 0 1 1.857142857142857 0 1.1286816305548799 1.7669740022979501 0 1.0919758494404179 1.6390607956138989 0 1 1.571428571428571 0 1.1265427876294609 1.501822700692834 0 1 1.4285714285714279 0 1 1.571428571428571 0 1.1265427876294609 1.501822700692834 0 1 1.714285714285714 0 1.0919758494404179 1.6390607956138989 0 1 1.571428571428571 0 1 1.714285714285714 0 1 1.571428571428571 0 0.90513610409542911 1.632892404366491 0 0.90513610409542911 1.632892404366491 0 0.78571428571188839 1.618589574132365 0 0.86801764400775172 1.7626087828642401 0 0.87194859075750586 1.497549379121565 0 1 1.571428571428571 0 0.90513610409542911 1.632892404366491 0 0.87194859075750586 1.497549379121565 0 0.90513610409542911 1.632892404366491 0 0.78571428571188839 1.618589574132365 0 0.87194859075750586 1.497549379121565 0 0.71428571428344279 1.494871659305963 0 0.78571428571188839 1.618589574132365 0 0.71331043726850674 1.744186890149759 0 0.78571428571188839 1.618589574132365 0 0.86801764400775172 1.7626087828642401 0 1 1.714285714285714 0 0.90513610409542911 1.632892404366491 0 0.86801764400775172 1.7626087828642401 0 1 1.857142857142857 0 0.86801764400775172 1.7626087828642401 0 0.89542131320410678 1.895421313204209 0 0.86801764400775172 1.7626087828642401 0 0.78018926648514864 1.8744090508059901 0 0.89542131320410678 1.895421313204209 0 0.71331043726850674 1.744186890149759 0 0.86801764400775172 1.7626087828642401 0 0.78018926648514864 1.8744090508059901 0 0.71428571428496201 2 0 0.78018926648514864 1.8744090508059901 0 0.85714285714248095 2 0 0.71428571428496201 2 0 0.85714285714248095 2 0 0.78018926648515108 2.1255909491940099 0 0.85714285714248095 2 0 0.8954213132041059 2.1045786867957932 0 1 2 0 0.78018926648514864 1.8744090508059901 0 0.85714285714248095 2 0 0.89542131320410678 1.895421313204209 0 0.85714285714248095 2 0 0.89542131320410678 1.895421313204209 0 1 2 0 0.7133104372685124 2.2558131098502412 0 0.78018926648515108 2.1255909491940099 0 0.86801764400775483 2.2373912171357588 0 0.78018926648515108 2.1255909491940099 0 0.8954213132041059 2.1045786867957932 0 0.86801764400775483 2.2373912171357588 0 0.85714285714248095 2 0 0.78018926648515108 2.1255909491940099 0 0.8954213132041059 2.1045786867957932 0 0.8954213132041059 2.1045786867957932 0 0.86801764400775483 2.2373912171357588 0 1 2.1428571428571428 0 1 2.2857142857142851 0 0.86801764400775483 2.2373912171357588 0 1 2.1428571428571428 0 0.8954213132041059 2.1045786867957932 0 1 2.1428571428571428 0 1 2 0 1 2.1428571428571428 0 1.1045786867955549 2.1045786867955538 0 1.1237179148263481 2.2142857142857149 0 1 2.1428571428571428 0 1.1045786867955549 2.1045786867955538 0 1 2 0 1 2.2857142857142851 0 1 2.1428571428571428 0 1.1237179148263481 2.2142857142857149 0 1 1.857142857142857 0 0.89542131320410678 1.895421313204209 0 1 2 0 1.1045786867955549 2.1045786867955538 0 1 2 0 1.142857142857143 2 0 1 2 0 1.1045786867955549 1.895421313204446 0 1.142857142857143 2 0 1 1.857142857142857 0 1 2 0 1.1045786867955549 1.895421313204446 0 1.1045786867955549 1.895421313204446 0 1.142857142857143 2 0 1.2202906086958949 1.8808023822399611 0 1.142857142857143 2 0 1.2857142857142849 2 0 1.2202906086958949 1.8808023822399611 0 1.142857142857143 2 0 1.2857142857142849 2 0 1.23134730558604 2.127275597339279 0 1.2857142857142849 2 0 1.2202906086958949 1.8808023822399611 0 1.3583104310875389 1.876956184304913 0 1.2437589323753271 2.2790339186609172 0 1.1237179148263481 2.2142857142857149 0 1.23134730558604 2.127275597339279 0 1.1045786867955549 2.1045786867955538 0 1.1237179148263481 2.2142857142857149 0 1.23134730558604 2.127275597339279 0 1.1045786867955549 2.1045786867955538 0 1.142857142857143 2 0 1.23134730558604 2.127275597339279 0 1.2857142857142849 2 0 1.23134730558604 2.127275597339279 0 1.357142857142857 2.0883857766009042 0 1.2437589323753271 2.2790339186609172 0 1.23134730558604 2.127275597339279 0 1.3682878852476059 2.2035940021081579 0 1.23134730558604 2.127275597339279 0 1.3682878852476059 2.2035940021081579 0 1.357142857142857 2.0883857766009042 0 1.357142857142857 2.0883857766009042 0 1.4981772993071649 2.1265427876294591 0 1.4285714285714279 2 0 1.3682878852476059 2.2035940021081579 0 1.357142857142857 2.0883857766009042 0 1.4981772993071649 2.1265427876294591 0 1.4944588869160489 2.2778135148397252 0 1.3682878852476059 2.2035940021081579 0 1.4981772993071649 2.1265427876294591 0 1.2857142857142849 2 0 1.3583104310875389 1.876956184304913 0 1.4285714285714279 2 0 1.2857142857142849 2 0 1.357142857142857 2.0883857766009042 0 1.4285714285714279 2 0 1.4981772993071649 2.1265427876294591 0 1.4285714285714279 2 0 1.571428571428571 2 0 1.4285714285714279 2 0 1.4999999999999989 1.876282085173651 0 1.571428571428571 2 0 1.3583104310875389 1.876956184304913 0 1.4285714285714279 2 0 1.4999999999999989 1.876282085173651 0 1.3583104310875389 1.876956184304913 0 1.4999999999999989 1.876282085173651 0 1.4287660242288751 1.752676520202513 0 1.4287660242288751 1.752676520202513 0 1.284542510538256 1.7535733272041241 0 1.35657912408646 1.6297632267705111 0 1.3583104310875389 1.876956184304913 0 1.4287660242288751 1.752676520202513 0 1.284542510538256 1.7535733272041241 0 1.2202906086958949 1.8808023822399611 0 1.3583104310875389 1.876956184304913 0 1.284542510538256 1.7535733272041241 0 1.284542510538256 1.7535733272041241 0 1.1286816305548799 1.7669740022979501 0 1.211834974696774 1.6332002948779361 0 1.2202906086958949 1.8808023822399611 0 1.284542510538256 1.7535733272041241 0 1.1286816305548799 1.7669740022979501 0 1.1045786867955549 1.895421313204446 0 1.2202906086958949 1.8808023822399611 0 1.1286816305548799 1.7669740022979501 0 1.0919758494404179 1.6390607956138989 0 1.1265427876294609 1.501822700692834 0 1.211834974696774 1.6332002948779361 0 1.1265427876294609 1.501822700692834 0 1.211834974696774 1.6332002948779361 0 1.285714285714282 1.505128340694609 0 1.0919758494404179 1.6390607956138989 0 1.1286816305548799 1.7669740022979501 0 1.211834974696774 1.6332002948779361 0 1.284542510538256 1.7535733272041241 0 1.211834974696774 1.6332002948779361 0 1.35657912408646 1.6297632267705111 0 1.211834974696774 1.6332002948779361 0 1.285714285714282 1.505128340694609 0 1.35657912408646 1.6297632267705111 0 1.285714285714282 1.505128340694609 0 1.35657912408646 1.6297632267705111 0 1.42857911129607 1.505132776317748 0 1.4287660242288751 1.752676520202513 0 1.35657912408646 1.6297632267705111 0 1.500037838044501 1.628868101326133 0 1.35657912408646 1.6297632267705111 0 1.42857911129607 1.505132776317748 0 1.500037838044501 1.628868101326133 0 1.42857911129607 1.505132776317748 0 1.5714368297319321 1.505133108628274 0 1.500037838044501 1.628868101326133 0 1.5714368297319321 1.505133108628274 0 1.500037838044501 1.628868101326133 0 1.642868854632821 1.6288530173177931 0 1.500037838044501 1.628868101326133 0 1.642868854632821 1.6288530173177931 0 1.571461004038144 1.7525828953231699 0 1.5714368297319321 1.505133108628274 0 1.642868854632821 1.6288530173177931 0 1.7164690164522749 1.505013992076764 0 1.642868854632821 1.6288530173177931 0 1.7164690164522749 1.505013992076764 0 1.7839870186351829 1.630825559243579 0 1.642868854632821 1.6288530173177931 0 1.7839870186351829 1.630825559243579 0 1.713372235145284 1.7531000633658289 0 1.7839870186351829 1.630825559243579 0 1.868181956188198 1.767586372373096 0 1.904493237859993 1.64083754547551 0 1.7839870186351829 1.630825559243579 0 1.871948590758401 1.50245062087882 0 1.904493237859993 1.64083754547551 0 1.7164690164522749 1.505013992076764 0 1.7839870186351829 1.630825559243579 0 1.871948590758401 1.50245062087882 0 1.868181956188198 1.767586372373096 0 1.713372235145284 1.7531000633658289 0 1.7801892664864549 1.879471956512115 0 1.868181956188198 1.767586372373096 0 1.7801892664864549 1.879471956512115 0 1.8954213132044451 1.8954213132044451 0 1.7839870186351829 1.630825559243579 0 1.868181956188198 1.767586372373096 0 1.713372235145284 1.7531000633658289 0 1.713372235145284 1.7531000633658289 0 1.6417894652306939 1.876906166729128 0 1.7801892664864549 1.879471956512115 0 1.713372235145284 1.7531000633658289 0 1.571461004038144 1.7525828953231699 0 1.6417894652306939 1.876906166729128 0 1.642868854632821 1.6288530173177931 0 1.713372235145284 1.7531000633658289 0 1.571461004038144 1.7525828953231699 0 1.4287660242288751 1.752676520202513 0 1.500037838044501 1.628868101326133 0 1.571461004038144 1.7525828953231699 0 1.4999999999999989 1.876282085173651 0 1.571461004038144 1.7525828953231699 0 1.6417894652306939 1.876906166729128 0 1.4999999999999989 1.876282085173651 0 1.4287660242288751 1.752676520202513 0 1.571461004038144 1.7525828953231699 0 1.4999999999999989 1.876282085173651 0 1.571428571428571 2 0 1.6417894652306939 1.876906166729128 0 1.571428571428571 2 0 1.6428571428571419 2.0966122299857219 0 1.714285714285714 2 0 1.571428571428571 2 0 1.6417894652306939 1.876906166729128 0 1.714285714285714 2 0 1.4944588869160489 2.2778135148397252 0 1.4981772993071649 2.1265427876294591 0 1.618589574131738 2.2142857142857051 0 1.4981772993071649 2.1265427876294591 0 1.571428571428571 2 0 1.6428571428571419 2.0966122299857219 0 1.4981772993071649 2.1265427876294591 0 1.6428571428571419 2.0966122299857219 0 1.618589574131738 2.2142857142857051 0 1.6428571428571419 2.0966122299857219 0 1.618589574131738 2.2142857142857051 0 1.764905672277584 2.1309733946265141 0 1.618589574131738 2.2142857142857051 0 1.764905672277584 2.1309733946265141 0 1.7480830732282899 2.2842008379910128 0 1.6428571428571419 2.0966122299857219 0 1.764905672277584 2.1309733946265141 0 1.714285714285714 2 0 1.764905672277584 2.1309733946265141 0 1.8779600310929021 2.2171362933276071 0 1.895421313204446 2.1045786867955552 0 1.764905672277584 2.1309733946265141 0 1.857142857142857 2 0 1.895421313204446 2.1045786867955552 0 1.764905672277584 2.1309733946265141 0 1.8779600310929021 2.2171362933276071 0 1.7480830732282899 2.2842008379910128 0 1.6417894652306939 1.876906166729128 0 1.7801892664864549 1.879471956512115 0 1.714285714285714 2 0 1.764905672277584 2.1309733946265141 0 1.714285714285714 2 0 1.857142857142857 2 0 1.7801892664864549 1.879471956512115 0 1.714285714285714 2 0 1.857142857142857 2 0 1.7801892664864549 1.879471956512115 0 1.857142857142857 2 0 1.8954213132044451 1.8954213132044451 0 1.8954213132044451 1.8954213132044451 0 2 2 0 2 1.857142857142857 0 1.857142857142857 2 0 1.8954213132044451 1.8954213132044451 0 2 2 0 1.857142857142857 2 0 2 2 0 1.895421313204446 2.1045786867955552 0 2 2 0 2.1045786867955552 1.8954213132044451 0 2 1.857142857142857 0 1.8779600310929021 2.2171362933276071 0 2 2.1428571428571428 0 2 2.2857142857142851 0 2 2 0 1.895421313204446 2.1045786867955552 0 2 2.1428571428571428 0 1.8779600310929021 2.2171362933276071 0 1.895421313204446 2.1045786867955552 0 2 2.1428571428571428 0 2 2 0 2 2.1428571428571428 0 2.1045786867955552 2.1045786867955552 0 2 2.1428571428571428 0 2.1237179148263481 2.2142857142857149 0 2 2.2857142857142851 0 2 2.1428571428571428 0 2.1237179148263481 2.2142857142857149 0 2.1045786867955552 2.1045786867955552 0 2.1237179148263481 2.2142857142857149 0 2.1045786867955552 2.1045786867955552 0 2.2313473055860129 2.1272755973392572 0 2.1045786867955552 2.1045786867955552 0 2.2313473055860129 2.1272755973392572 0 2.1428571428571428 2 0 2.1237179148263481 2.2142857142857149 0 2.2313473055860129 2.1272755973392572 0 2.2437590376264152 2.2790339820013181 0 2 2 0 2.1045786867955552 1.8954213132044451 0 2.1428571428571428 2 0 2.1045786867955552 1.8954213132044451 0 2.1428571428571428 2 0 2.2202906086958931 1.880802382239964 0 2 2 0 2.1045786867955552 2.1045786867955552 0 2.1428571428571428 2 0 2.2313473055860129 2.1272755973392572 0 2.1428571428571428 2 0 2.2857142857142851 2 0 2.1428571428571428 2 0 2.2202906086958931 1.880802382239964 0 2.2857142857142851 2 0 2.2202906086958931 1.880802382239964 0 2.1286816305548801 1.7669740022979501 0 2.2845425105382549 1.7535733272041241 0 2.1045786867955552 1.8954213132044451 0 2.2202906086958931 1.880802382239964 0 2.1286816305548801 1.7669740022979501 0 2.1045786867955552 1.8954213132044451 0 2.1286816305548801 1.7669740022979501 0 2 1.857142857142857 0 2.1286816305548801 1.7669740022979501 0 2.0920210771696688 1.6392662971026759 0 2 1.714285714285714 0 2.1286816305548801 1.7669740022979501 0 2.2118802024260251 1.6334057963667139 0 2.2845425105382549 1.7535733272041241 0 2.2118802024260251 1.6334057963667139 0 2.1268141540049612 1.5030557096254999 0 2.2857142857142878 1.505128340694611 0 2.1268141540049612 1.5030557096254999 0 2.0920210771696688 1.6392662971026759 0 2 1.571428571428571 0 2.2118802024260251 1.6334057963667139 0 2.1268141540049612 1.5030557096254999 0 2.0920210771696688 1.6392662971026759 0 2.1286816305548801 1.7669740022979501 0 2.2118802024260251 1.6334057963667139 0 2.0920210771696688 1.6392662971026759 0 2.0920210771696688 1.6392662971026759 0 2 1.571428571428571 0 2 1.714285714285714 0 2.1268141540049612 1.5030557096254999 0 2 1.571428571428571 0 2 1.4285714285714279 0 1.871948590758401 1.50245062087882 0 2 1.571428571428571 0 1.904493237859993 1.64083754547551 0 1.871948590758401 1.50245062087882 0 2 1.571428571428571 0 2 1.4285714285714279 0 2 1.571428571428571 0 1.904493237859993 1.64083754547551 0 2 1.714285714285714 0 1.868181956188198 1.767586372373096 0 2 1.857142857142857 0 2 1.714285714285714 0 1.868181956188198 1.767586372373096 0 1.904493237859993 1.64083754547551 0 2 1.714285714285714 0 1.868181956188198 1.767586372373096 0 1.8954213132044451 1.8954213132044451 0 2 1.857142857142857 0 2.1286816305548801 1.7669740022979501 0 2 1.857142857142857 0 2 1.714285714285714 0 1.857142857142857 3 0 1.7625829828895341 2.8680117993848531 0 1.895421313204446 2.8954213132044462 0 1.7625829828895341 2.8680117993848531 0 1.8744090508054969 2.7801892664864498 0 1.895421313204446 2.8954213132044462 0 1.857142857142857 3 0 1.7625829828895341 2.8680117993848531 0 1.714285714285714 3 0 1.7625829828895341 2.8680117993848531 0 1.714285714285714 3 0 1.6328872443713489 2.905134935171505 0 1.714285714285714 3 0 1.571428571428571 3 0 1.6328872443713489 2.905134935171505 0 1.49754937912118 2.871948590758397 0 1.571428571428571 3 0 1.6328872443713489 2.905134935171505 0 1.49754937912118 2.871948590758397 0 1.6328872443713489 2.905134935171505 0 1.618589574131748 2.7857142857142771 0 1.7625829828895341 2.8680117993848531 0 1.6328872443713489 2.905134935171505 0 1.618589574131748 2.7857142857142771 0 1.4948716593053959 2.7142857142857029 0 1.49754937912118 2.871948590758397 0 1.618589574131748 2.7857142857142771 0 1.4948716593053959 2.7142857142857029 0 1.618589574131748 2.7857142857142771 0 1.618499131669189 2.6427004919168251 0 1.4946221303562011 2.5709963746106008 0 1.4948716593053959 2.7142857142857029 0 1.618499131669189 2.6427004919168251 0 1.618589574131748 2.7857142857142771 0 1.618499131669189 2.6427004919168251 0 1.744006290327982 2.7132695249030081 0 1.618499131669189 2.6427004919168251 0 1.744006290327982 2.7132695249030081 0 1.7438144826910189 2.571013105300513 0 1.7625829828895341 2.8680117993848531 0 1.618589574131748 2.7857142857142771 0 1.744006290327982 2.7132695249030081 0 1.7625829828895341 2.8680117993848531 0 1.744006290327982 2.7132695249030081 0 1.8744090508054969 2.7801892664864498 0 1.744006290327982 2.7132695249030081 0 1.8744090508054969 2.7801892664864498 0 1.869528722044044 2.6422655888827711 0 1.744006290327982 2.7132695249030081 0 1.869528722044044 2.6422655888827711 0 1.7438144826910189 2.571013105300513 0 1.869528722044044 2.6422655888827711 0 1.8728601884303651 2.4999999999999969 0 1.7438144826910189 2.571013105300513 0 1.8728601884303651 2.4999999999999969 0 1.7438144826910189 2.571013105300513 0 1.7445056250705191 2.4267429915673051 0 1.7438144826910189 2.571013105300513 0 1.6182964483056039 2.499492291176109 0 1.7445056250705191 2.4267429915673051 0 1.618499131669189 2.6427004919168251 0 1.7438144826910189 2.571013105300513 0 1.6182964483056039 2.499492291176109 0 1.4946221303562011 2.5709963746106008 0 1.618499131669189 2.6427004919168251 0 1.6182964483056039 2.499492291176109 0 1.49336243329776 2.4259573724460979 0 1.4946221303562011 2.5709963746106008 0 1.6182964483056039 2.499492291176109 0 1.6182964483056039 2.499492291176109 0 1.619225602145042 2.355202188835702 0 1.7445056250705191 2.4267429915673051 0 1.49336243329776 2.4259573724460979 0 1.6182964483056039 2.499492291176109 0 1.619225602145042 2.355202188835702 0 1.4944588869160489 2.2778135148397252 0 1.49336243329776 2.4259573724460979 0 1.619225602145042 2.355202188835702 0 1.4944588869160489 2.2778135148397252 0 1.618589574131738 2.2142857142857051 0 1.619225602145042 2.355202188835702 0 1.618589574131738 2.2142857142857051 0 1.619225602145042 2.355202188835702 0 1.7480830732282899 2.2842008379910128 0 1.619225602145042 2.355202188835702 0 1.7480830732282899 2.2842008379910128 0 1.7445056250705191 2.4267429915673051 0 1.8728601884303651 2.4999999999999969 0 1.7445056250705191 2.4267429915673051 0 1.8702227561605891 2.3565050932945648 0 1.7480830732282899 2.2842008379910128 0 1.7445056250705191 2.4267429915673051 0 1.8702227561605891 2.3565050932945648 0 1.8779600310929021 2.2171362933276071 0 1.7480830732282899 2.2842008379910128 0 1.8702227561605891 2.3565050932945648 0 1.8779600310929021 2.2171362933276071 0 1.8702227561605891 2.3565050932945648 0 2 2.2857142857142851 0 1.8702227561605891 2.3565050932945648 0 2 2.4285714285714279 0 2 2.2857142857142851 0 1.8728601884303651 2.4999999999999969 0 1.8702227561605891 2.3565050932945648 0 2 2.4285714285714279 0 2 2.4285714285714279 0 2 2.2857142857142851 0 2.1244455545700558 2.3535499438421899 0 2.1237179148263481 2.2142857142857149 0 2 2.2857142857142851 0 2.1244455545700558 2.3535499438421899 0 2.1237179148263481 2.2142857142857149 0 2.2437590376264152 2.2790339820013181 0 2.1244455545700558 2.3535499438421899 0 2.2437590376264152 2.2790339820013181 0 2.2474358296526931 2.4285714285714239 0 2.1244455545700558 2.3535499438421899 0 2.2474358296526931 2.4285714285714239 0 2.1244455545700558 2.3535499438421899 0 2.1237179148263481 2.4999999999999978 0 2 2.4285714285714279 0 2.1244455545700558 2.3535499438421899 0 2.1237179148263481 2.4999999999999978 0 2.2474358296526931 2.4285714285714239 0 2.1237179148263481 2.4999999999999978 0 2.2473472221155188 2.571275098672237 0 2.1237179148263481 2.4999999999999978 0 2.2473472221155188 2.571275098672237 0 2.1231862696032739 2.641936306319169 0 2.1237179148263481 2.4999999999999978 0 2 2.5714285714285712 0 2.1231862696032739 2.641936306319169 0 2 2.4285714285714279 0 2.1237179148263481 2.4999999999999978 0 2 2.5714285714285712 0 1.8728601884303651 2.4999999999999969 0 2 2.4285714285714279 0 2 2.5714285714285712 0 1.869528722044044 2.6422655888827711 0 1.8728601884303651 2.4999999999999969 0 2 2.5714285714285712 0 1.8744090508054969 2.7801892664864498 0 1.869528722044044 2.6422655888827711 0 2 2.714285714285714 0 1.869528722044044 2.6422655888827711 0 2 2.5714285714285712 0 2 2.714285714285714 0 1.8744090508054969 2.7801892664864498 0 2 2.714285714285714 0 2 2.8571428571428572 0 2 2.714285714285714 0 2.1205280434878868 2.7801892664864529 0 2 2.8571428571428572 0 2 2.5714285714285712 0 2 2.714285714285714 0 2.1231862696032739 2.641936306319169 0 2 2.714285714285714 0 2.1231862696032739 2.641936306319169 0 2.1205280434878868 2.7801892664864529 0 2.1231862696032739 2.641936306319169 0 2.2467630522735749 2.713120429682875 0 2.1205280434878868 2.7801892664864529 0 2.2473472221155188 2.571275098672237 0 2.1231862696032739 2.641936306319169 0 2.2467630522735749 2.713120429682875 0 2.2467630522735749 2.713120429682875 0 2.1205280434878868 2.7801892664864529 0 2.232409009442776 2.8681560935612769 0 2.1205280434878868 2.7801892664864529 0 2.1045786867955552 2.8954213132044448 0 2.232409009442776 2.8681560935612769 0 2.1205280434878868 2.7801892664864529 0 2.1045786867955552 2.8954213132044448 0 2 2.8571428571428572 0 2.232409009442776 2.8681560935612769 0 2.1428571428571428 3 0 2.2857142857142851 3 0 2.1045786867955552 2.8954213132044448 0 2.232409009442776 2.8681560935612769 0 2.1428571428571428 3 0 2.1045786867955552 2.8954213132044448 0 2.1428571428571428 3 0 2 3 0 2.1045786867955552 2.8954213132044448 0 2 3 0 2 2.8571428571428572 0 1.8744090508054969 2.7801892664864498 0 2 2.8571428571428572 0 1.895421313204446 2.8954213132044462 0 2 3 0 2 2.8571428571428572 0 1.895421313204446 2.8954213132044462 0 1.857142857142857 3 0 2 3 0 1.895421313204446 2.8954213132044462 0 2.5714285714285712 3 0 2.498533384291155 2.8730290895352302 0 2.6413671075336191 2.906422072834058 0 2.498533384291155 2.8730290895352302 0 2.624345486027623 2.7856888613712472 0 2.6413671075336191 2.906422072834058 0 2.5714285714285712 3 0 2.498533384291155 2.8730290895352302 0 2.4285714285714279 3 0 2.4285714285714279 3 0 2.2857142857142851 3 0 2.3612561171619291 2.9048358126425291 0 2.498533384291155 2.8730290895352302 0 2.4285714285714279 3 0 2.3612561171619291 2.9048358126425291 0 2.232409009442776 2.8681560935612769 0 2.2857142857142851 3 0 2.3612561171619291 2.9048358126425291 0 2.232409009442776 2.8681560935612769 0 2.3612561171619291 2.9048358126425291 0 2.369278997828121 2.784057785709154 0 2.498533384291155 2.8730290895352302 0 2.3612561171619291 2.9048358126425291 0 2.369278997828121 2.784057785709154 0 2.2467630522735749 2.713120429682875 0 2.232409009442776 2.8681560935612769 0 2.369278997828121 2.784057785709154 0 2.2467630522735749 2.713120429682875 0 2.369278997828121 2.784057785709154 0 2.370927204303003 2.64246476376226 0 2.2473472221155188 2.571275098672237 0 2.2467630522735749 2.713120429682875 0 2.370927204303003 2.64246476376226 0 2.369278997828121 2.784057785709154 0 2.370927204303003 2.64246476376226 0 2.495616516317638 2.717626453377767 0 2.370927204303003 2.64246476376226 0 2.495616516317638 2.717626453377767 0 2.4946221303562042 2.5709963746105879 0 2.498533384291155 2.8730290895352302 0 2.369278997828121 2.784057785709154 0 2.495616516317638 2.717626453377767 0 2.498533384291155 2.8730290895352302 0 2.495616516317638 2.717626453377767 0 2.624345486027623 2.7856888613712472 0 2.495616516317638 2.717626453377767 0 2.624345486027623 2.7856888613712472 0 2.6192455835349819 2.6438414003703889 0 2.495616516317638 2.717626453377767 0 2.6192455835349819 2.6438414003703889 0 2.4946221303562042 2.5709963746105879 0 2.6192455835349819 2.6438414003703889 0 2.618402581522377 2.4995561624500251 0 2.4946221303562042 2.5709963746105879 0 2.618402581522377 2.4995561624500251 0 2.4946221303562042 2.5709963746105879 0 2.4933624332977531 2.4259573724460828 0 2.4946221303562042 2.5709963746105879 0 2.3698831109599312 2.497799198187086 0 2.4933624332977531 2.4259573724460828 0 2.370927204303003 2.64246476376226 0 2.4946221303562042 2.5709963746105879 0 2.3698831109599312 2.497799198187086 0 2.2473472221155188 2.571275098672237 0 2.370927204303003 2.64246476376226 0 2.3698831109599312 2.497799198187086 0 2.2474358296526931 2.4285714285714239 0 2.2473472221155188 2.571275098672237 0 2.3698831109599312 2.497799198187086 0 2.3698831109599312 2.497799198187086 0 2.3673193849061538 2.3469269946466551 0 2.4933624332977531 2.4259573724460828 0 2.2474358296526931 2.4285714285714239 0 2.3698831109599312 2.497799198187086 0 2.3673193849061538 2.3469269946466551 0 2.2437590376264152 2.2790339820013181 0 2.2474358296526931 2.4285714285714239 0 2.3673193849061538 2.3469269946466551 0 2.2437590376264152 2.2790339820013181 0 2.3673193849061538 2.3469269946466551 0 2.3682882362172282 2.20359421332267 0 2.3673193849061538 2.3469269946466551 0 2.4944618350609482 2.277815289041762 0 2.3682882362172282 2.20359421332267 0 2.3673193849061538 2.3469269946466551 0 2.4944618350609482 2.277815289041762 0 2.4933624332977531 2.4259573724460828 0 2.618402581522377 2.4995561624500251 0 2.4933624332977531 2.4259573724460828 0 2.619243291014496 2.3552128340480101 0 2.4944618350609482 2.277815289041762 0 2.4933624332977531 2.4259573724460828 0 2.619243291014496 2.3552128340480101 0 2.4944618350609482 2.277815289041762 0 2.619243291014496 2.3552128340480101 0 2.6185895741317191 2.2142857142856851 0 2.619243291014496 2.3552128340480101 0 2.7479931719733139 2.2843081023179281 0 2.6185895741317191 2.2142857142856851 0 2.618402581522377 2.4995561624500251 0 2.619243291014496 2.3552128340480101 0 2.7439826402435501 2.4273237749392429 0 2.619243291014496 2.3552128340480101 0 2.7439826402435501 2.4273237749392429 0 2.7479931719733139 2.2843081023179281 0 2.7439826402435501 2.4273237749392429 0 2.7479931719733139 2.2843081023179281 0 2.8701886445882661 2.3565572506718269 0 2.7479931719733139 2.2843081023179281 0 2.8701886445882661 2.3565572506718269 0 2.8779600310929019 2.217136293327608 0 3 2.2857142857142851 0 2.8701886445882661 2.3565572506718269 0 2.8779600310929019 2.217136293327608 0 3 2.4285714285714279 0 2.8701886445882661 2.3565572506718269 0 2.872982021166786 2.5000325873846538 0 3 2.2857142857142851 0 3 2.4285714285714279 0 2.8701886445882661 2.3565572506718269 0 2.7439826402435501 2.4273237749392429 0 2.8701886445882661 2.3565572506718269 0 2.872982021166786 2.5000325873846538 0 3 2.4285714285714279 0 2.872982021166786 2.5000325873846538 0 3 2.5714285714285712 0 2.872982021166786 2.5000325873846538 0 3 2.5714285714285712 0 2.8702940969356949 2.6423588347380189 0 2.872982021166786 2.5000325873846538 0 2.7446704713759029 2.571237155042541 0 2.8702940969356949 2.6423588347380189 0 2.7439826402435501 2.4273237749392429 0 2.872982021166786 2.5000325873846538 0 2.7446704713759029 2.571237155042541 0 2.618402581522377 2.4995561624500251 0 2.7439826402435501 2.4273237749392429 0 2.7446704713759029 2.571237155042541 0 2.6192455835349819 2.6438414003703889 0 2.618402581522377 2.4995561624500251 0 2.7446704713759029 2.571237155042541 0 2.6192455835349819 2.6438414003703889 0 2.7446704713759029 2.571237155042541 0 2.7461960343957288 2.7138118622537939 0 2.624345486027623 2.7856888613712472 0 2.6192455835349819 2.6438414003703889 0 2.7461960343957288 2.7138118622537939 0 2.624345486027623 2.7856888613712472 0 2.7461960343957288 2.7138118622537939 0 2.764916587633921 2.868832996132892 0 2.7461960343957288 2.7138118622537939 0 2.8756576008474641 2.7804868632666988 0 2.764916587633921 2.868832996132892 0 2.7446704713759029 2.571237155042541 0 2.7461960343957288 2.7138118622537939 0 2.8702940969356949 2.6423588347380189 0 2.7461960343957288 2.7138118622537939 0 2.8702940969356949 2.6423588347380189 0 2.8756576008474641 2.7804868632666988 0 3 2.5714285714285712 0 2.8702940969356949 2.6423588347380189 0 3 2.714285714285714 0 2.8702940969356949 2.6423588347380189 0 3 2.714285714285714 0 2.8756576008474641 2.7804868632666988 0 3 2.714285714285714 0 2.8756576008474641 2.7804868632666988 0 3 2.8571428571428572 0 2.8756576008474641 2.7804868632666988 0 2.895421313204448 2.895421313204448 0 2.764916587633921 2.868832996132892 0 2.8756576008474641 2.7804868632666988 0 2.895421313204448 2.895421313204448 0 3 2.8571428571428572 0 2.895421313204448 2.895421313204448 0 3 3 0 2.8571428571428572 3 0 2.895421313204448 2.895421313204448 0 3 2.8571428571428572 0 3 3 0 2.895421313204448 2.895421313204448 0 2.8571428571428572 3 0 2.764916587633921 2.868832996132892 0 2.8571428571428572 3 0 2.764916587633921 2.868832996132892 0 2.714285714285714 3 0 2.624345486027623 2.7856888613712472 0 2.764916587633921 2.868832996132892 0 2.6413671075336191 2.906422072834058 0 2.5714285714285712 3 0 2.6413671075336191 2.906422072834058 0 2.714285714285714 3 0 2.764916587633921 2.868832996132892 0 2.6413671075336191 2.906422072834058 0 2.714285714285714 3 0 2.5714610040381438 1.7525828953231719 0 2.5000378380445039 1.6288681013261359 0 2.4287660242288749 1.752676520202513 0 2.5714610040381438 1.7525828953231719 0 2.4287660242288749 1.752676520202513 0 2.4999999999999978 1.876282085173651 0 2.5714610040381438 1.7525828953231719 0 2.4999999999999978 1.876282085173651 0 2.6428571428571388 1.876282085173651 0 2.5714610040381438 1.7525828953231719 0 2.5000378380445039 1.6288681013261359 0 2.6427234372420072 1.628936974087531 0 2.5712671761093171 1.5052310581929651 0 2.5000378380445039 1.6288681013261359 0 2.6427234372420072 1.628936974087531 0 2.5712671761093171 1.5052310581929651 0 2.5000378380445039 1.6288681013261359 0 2.4285508356923038 1.5051491012451981 0 2.5000378380445039 1.6288681013261359 0 2.356581949440709 1.6298001978398831 0 2.4287660242288749 1.752676520202513 0 2.5000378380445039 1.6288681013261359 0 2.356581949440709 1.6298001978398831 0 2.4285508356923038 1.5051491012451981 0 2.356581949440709 1.6298001978398831 0 2.4285508356923038 1.5051491012451981 0 2.2857142857142878 1.505128340694611 0 2.2118802024260251 1.6334057963667139 0 2.356581949440709 1.6298001978398831 0 2.2857142857142878 1.505128340694611 0 2.2118802024260251 1.6334057963667139 0 2.356581949440709 1.6298001978398831 0 2.2845425105382549 1.7535733272041241 0 2.356581949440709 1.6298001978398831 0 2.2845425105382549 1.7535733272041241 0 2.4287660242288749 1.752676520202513 0 2.2845425105382549 1.7535733272041241 0 2.4287660242288749 1.752676520202513 0 2.358310431087538 1.876956184304913 0 2.4287660242288749 1.752676520202513 0 2.358310431087538 1.876956184304913 0 2.4999999999999978 1.876282085173651 0 2.2202906086958931 1.880802382239964 0 2.2845425105382549 1.7535733272041241 0 2.358310431087538 1.876956184304913 0 2.2202906086958931 1.880802382239964 0 2.2857142857142851 2 0 2.358310431087538 1.876956184304913 0 2.2857142857142851 2 0 2.4285714285714279 2 0 2.3571428571428541 2.088385776600894 0 2.4285714285714279 2 0 2.358310431087538 1.876956184304913 0 2.4999999999999978 1.876282085173651 0 2.2857142857142851 2 0 2.4285714285714279 2 0 2.358310431087538 1.876956184304913 0 2.2313473055860129 2.1272755973392572 0 2.2437590376264152 2.2790339820013181 0 2.3682882362172282 2.20359421332267 0 2.2313473055860129 2.1272755973392572 0 2.2857142857142851 2 0 2.3571428571428541 2.088385776600894 0 2.2313473055860129 2.1272755973392572 0 2.3571428571428541 2.088385776600894 0 2.3682882362172282 2.20359421332267 0 2.4285714285714279 2 0 2.3571428571428541 2.088385776600894 0 2.4981772993071591 2.1265427876294498 0 2.3571428571428541 2.088385776600894 0 2.3682882362172282 2.20359421332267 0 2.4981772993071591 2.1265427876294498 0 2.4944618350609482 2.277815289041762 0 2.3682882362172282 2.20359421332267 0 2.4981772993071591 2.1265427876294498 0 2.4981772993071591 2.1265427876294498 0 2.5714285714285712 2 0 2.6428571428571428 2.0966122299857148 0 2.4981772993071591 2.1265427876294498 0 2.6185895741317191 2.2142857142856851 0 2.6428571428571428 2.0966122299857148 0 2.4944618350609482 2.277815289041762 0 2.4981772993071591 2.1265427876294498 0 2.6185895741317191 2.2142857142856851 0 2.4285714285714279 2 0 2.4999999999999978 1.876282085173651 0 2.5714285714285712 2 0 2.4285714285714279 2 0 2.4981772993071591 2.1265427876294498 0 2.5714285714285712 2 0 2.4999999999999978 1.876282085173651 0 2.5714285714285712 2 0 2.6428571428571388 1.876282085173651 0 2.5714285714285712 2 0 2.6428571428571388 1.876282085173651 0 2.714285714285714 2 0 2.6428571428571388 1.876282085173651 0 2.714285714285714 2 0 2.7814963681520442 1.882580830411096 0 2.5714285714285712 2 0 2.714285714285714 2 0 2.6428571428571428 2.0966122299857148 0 2.714285714285714 2 0 2.7648928292411559 2.1309887181017841 0 2.8571428571428572 2 0 2.714285714285714 2 0 2.7814963681520442 1.882580830411096 0 2.8571428571428572 2 0 2.7479931719733139 2.2843081023179281 0 2.6185895741317191 2.2142857142856851 0 2.7648928292411559 2.1309887181017841 0 2.714285714285714 2 0 2.6428571428571428 2.0966122299857148 0 2.7648928292411559 2.1309887181017841 0 2.6185895741317191 2.2142857142856851 0 2.6428571428571428 2.0966122299857148 0 2.7648928292411559 2.1309887181017841 0 2.7479931719733139 2.2843081023179281 0 2.7648928292411559 2.1309887181017841 0 2.8779600310929019 2.217136293327608 0 2.7648928292411559 2.1309887181017841 0 2.8954213132044448 2.1045786867955552 0 2.8571428571428572 2 0 2.7648928292411559 2.1309887181017841 0 2.8779600310929019 2.217136293327608 0 2.8954213132044448 2.1045786867955552 0 2.8954213132044448 2.1045786867955552 0 3 2.1428571428571428 0 3 2 0 2.8779600310929019 2.217136293327608 0 2.8954213132044448 2.1045786867955552 0 3 2.1428571428571428 0 3 2.2857142857142851 0 2.8779600310929019 2.217136293327608 0 3 2.1428571428571428 0 2.7814963681520442 1.882580830411096 0 2.895421313204448 1.895421313204448 0 2.8571428571428572 2 0 2.8954213132044448 2.1045786867955552 0 2.8571428571428572 2 0 3 2 0 2.895421313204448 1.895421313204448 0 2.8571428571428572 2 0 3 2 0 2.895421313204448 1.895421313204448 0 3 2 0 3 1.857142857142857 0 2.895421313204448 1.895421313204448 0 3 1.857142857142857 0 2.870614678937029 1.7725963401346581 0 3 1.857142857142857 0 3 1.714285714285714 0 2.870614678937029 1.7725963401346581 0 3 1.714285714285714 0 2.870614678937029 1.7725963401346581 0 2.905423741759479 1.6391988482369699 0 2.7814963681520442 1.882580830411096 0 2.895421313204448 1.895421313204448 0 2.870614678937029 1.7725963401346581 0 2.7814963681520442 1.882580830411096 0 2.870614678937029 1.7725963401346581 0 2.7153465651391322 1.7565952050335309 0 2.870614678937029 1.7725963401346581 0 2.7153465651391322 1.7565952050335309 0 2.786129397280769 1.6349001941088239 0 2.5714610040381438 1.7525828953231719 0 2.7153465651391322 1.7565952050335309 0 2.6427234372420072 1.628936974087531 0 2.5714610040381438 1.7525828953231719 0 2.6428571428571388 1.876282085173651 0 2.7153465651391322 1.7565952050335309 0 2.6428571428571388 1.876282085173651 0 2.7814963681520442 1.882580830411096 0 2.7153465651391322 1.7565952050335309 0 2.5712671761093171 1.5052310581929651 0 2.7167234160060199 1.5059542429009301 0 2.6427234372420072 1.628936974087531 0 2.7167234160060199 1.5059542429009301 0 2.6427234372420072 1.628936974087531 0 2.786129397280769 1.6349001941088239 0 2.7153465651391322 1.7565952050335309 0 2.6427234372420072 1.628936974087531 0 2.786129397280769 1.6349001941088239 0 2.7167234160060199 1.5059542429009301 0 2.786129397280769 1.6349001941088239 0 2.870374632579594 1.502783421227085 0 2.786129397280769 1.6349001941088239 0 2.870374632579594 1.502783421227085 0 2.905423741759479 1.6391988482369699 0 2.870614678937029 1.7725963401346581 0 2.786129397280769 1.6349001941088239 0 2.905423741759479 1.6391988482369699 0 3 1.714285714285714 0 2.905423741759479 1.6391988482369699 0 3 1.571428571428571 0 2.870374632579594 1.502783421227085 0 3 1.571428571428571 0 3 1.4285714285714279 0 2.870374632579594 1.502783421227085 0 2.905423741759479 1.6391988482369699 0 3 1.571428571428571 0 2.870374632579594 1.502783421227085 0 3 1.4285714285714279 0 2.9030656089791811 1.3584705572527791 0 3 1.4285714285714279 0 2.9030656089791811 1.3584705572527791 0 3 1.2857142857142849 0 2.9030656089791811 1.3584705572527791 0 2.868688836155401 1.2355313237831811 0 2.786125463576842 1.383677911645713 0 2.870374632579594 1.502783421227085 0 2.9030656089791811 1.3584705572527791 0 2.786125463576842 1.383677911645713 0 3 1.142857142857143 0 2.868688836155401 1.2355313237831811 0 2.8954213132044462 1.104578686795556 0 3 1.142857142857143 0 3 1.2857142857142849 0 2.868688836155401 1.2355313237831811 0 2.9030656089791811 1.3584705572527791 0 3 1.2857142857142849 0 2.868688836155401 1.2355313237831811 0 2.868688836155401 1.2355313237831811 0 2.7814750862709881 1.1221194143447999 0 2.8954213132044462 1.104578686795556 0 2.868688836155401 1.2355313237831811 0 2.7147343810563518 1.251301267871989 0 2.7814750862709881 1.1221194143447999 0 2.868688836155401 1.2355313237831811 0 2.7147343810563518 1.251301267871989 0 2.786125463576842 1.383677911645713 0 2.7147343810563518 1.251301267871989 0 2.6437203892475911 1.3801958981434661 0 2.5728365947067089 1.2514338603666431 0 2.7147343810563518 1.251301267871989 0 2.642474724251239 1.124923408518995 0 2.7814750862709881 1.1221194143447999 0 2.7147343810563518 1.251301267871989 0 2.5728365947067089 1.2514338603666431 0 2.642474724251239 1.124923408518995 0 2.7167234160060199 1.5059542429009301 0 2.870374632579594 1.502783421227085 0 2.786125463576842 1.383677911645713 0 2.7147343810563518 1.251301267871989 0 2.786125463576842 1.383677911645713 0 2.6437203892475911 1.3801958981434661 0 2.5712671761093171 1.5052310581929651 0 2.7167234160060199 1.5059542429009301 0 2.6437203892475911 1.3801958981434661 0 2.7167234160060199 1.5059542429009301 0 2.786125463576842 1.383677911645713 0 2.6437203892475911 1.3801958981434661 0 2.5712671761093171 1.5052310581929651 0 2.6437203892475911 1.3801958981434661 0 2.5003077208249551 1.3799672261976821 0 2.5712671761093171 1.5052310581929651 0 2.4285508356923038 1.5051491012451981 0 2.5003077208249551 1.3799672261976821 0 2.6437203892475911 1.3801958981434661 0 2.5003077208249551 1.3799672261976821 0 2.5728365947067089 1.2514338603666431 0 2.5728365947067089 1.2514338603666431 0 2.5000879977590982 1.1246859085305361 0 2.642474724251239 1.124923408518995 0 2.5728365947067089 1.2514338603666431 0 2.428721567443501 1.25649282465861 0 2.5000879977590982 1.1246859085305361 0 2.5003077208249551 1.3799672261976821 0 2.5728365947067089 1.2514338603666431 0 2.428721567443501 1.25649282465861 0 2.428721567443501 1.25649282465861 0 2.2866681211738742 1.256066682441406 0 2.3571907118004951 1.3811733526815959 0 2.428721567443501 1.25649282465861 0 2.3577140298740269 1.130492812416215 0 2.2866681211738742 1.256066682441406 0 2.428721567443501 1.25649282465861 0 2.3577140298740269 1.130492812416215 0 2.5000879977590982 1.1246859085305361 0 2.3577140298740269 1.130492812416215 0 2.2866681211738742 1.256066682441406 0 2.2198107335135431 1.1256563841824909 0 2.2866681211738742 1.256066682441406 0 2.3571907118004951 1.3811733526815959 0 2.214285714285714 1.3814104258682629 0 2.2857142857142878 1.505128340694611 0 2.3571907118004951 1.3811733526815959 0 2.214285714285714 1.3814104258682629 0 2.4285508356923038 1.5051491012451981 0 2.2857142857142878 1.505128340694611 0 2.3571907118004951 1.3811733526815959 0 2.4285508356923038 1.5051491012451981 0 2.5003077208249551 1.3799672261976821 0 2.3571907118004951 1.3811733526815959 0 2.5003077208249551 1.3799672261976821 0 2.428721567443501 1.25649282465861 0 2.3571907118004951 1.3811733526815959 0 2.3591525644097571 0.90448333979383388 0 2.3690804396265648 0.78389141510404292 0 2.497549379121645 0.87194859075748421 0 2.3591525644097571 0.90448333979383388 0 2.4285714285714279 1 0 2.497549379121645 0.87194859075748421 0 2.3690804396265648 0.78389141510404292 0 2.2467020989286488 0.71318645322081209 0 2.2323719363650798 0.86814175826561746 0 2.3591525644097571 0.90448333979383388 0 2.3690804396265648 0.78389141510404292 0 2.2323719363650798 0.86814175826561746 0 2.3591525644097571 0.90448333979383388 0 2.2857142857142851 1 0 2.2323719363650798 0.86814175826561746 0 2.3577140298740269 1.130492812416215 0 2.2857142857142851 1 0 2.2198107335135431 1.1256563841824909 0 2.3577140298740269 1.130492812416215 0 2.2857142857142851 1 0 2.4285714285714279 1 0 2.3577140298740269 1.130492812416215 0 2.4285714285714279 1 0 2.5000879977590982 1.1246859085305361 0 2.3591525644097571 0.90448333979383388 0 2.2857142857142851 1 0 2.4285714285714279 1 0 2.4285714285714279 1 0 2.5714285714285712 1 0 2.497549379121645 0.87194859075748421 0 2.4285714285714279 1 0 2.5000879977590982 1.1246859085305361 0 2.5714285714285712 1 0 2.5000879977590982 1.1246859085305361 0 2.5714285714285712 1 0 2.642474724251239 1.124923408518995 0 2.497549379121645 0.87194859075748421 0 2.618589574132375 0.78571428571188628 0 2.6328924043665101 0.90513610409542433 0 2.5714285714285712 1 0 2.497549379121645 0.87194859075748421 0 2.6328924043665101 0.90513610409542433 0 2.3690804396265648 0.78389141510404292 0 2.497549379121645 0.87194859075748421 0 2.4948716593059621 0.71428571428343679 0 2.497549379121645 0.87194859075748421 0 2.618589574132375 0.78571428571188628 0 2.4948716593059621 0.71428571428343679 0 2.618589574132375 0.78571428571188628 0 2.7626087828642452 0.86801764400775083 0 2.744186890149765 0.71331043726850263 0 2.618589574132375 0.78571428571188628 0 2.6328924043665101 0.90513610409542433 0 2.7626087828642452 0.86801764400775083 0 2.6328924043665101 0.90513610409542433 0 2.7626087828642452 0.86801764400775083 0 2.714285714285714 1 0 2.7626087828642452 0.86801764400775083 0 2.874409050805995 0.78018926648514575 0 2.744186890149765 0.71331043726850263 0 2.5714285714285712 1 0 2.642474724251239 1.124923408518995 0 2.714285714285714 1 0 2.642474724251239 1.124923408518995 0 2.714285714285714 1 0 2.7814750862709881 1.1221194143447999 0 2.5714285714285712 1 0 2.6328924043665101 0.90513610409542433 0 2.714285714285714 1 0 2.7626087828642452 0.86801764400775083 0 2.714285714285714 1 0 2.8571428571428572 1 0 2.714285714285714 1 0 2.7814750862709881 1.1221194143447999 0 2.8571428571428572 1 0 2.7814750862709881 1.1221194143447999 0 2.8954213132044462 1.104578686795556 0 2.8571428571428572 1 0 2.8571428571428572 1 0 3 1 0 2.8954213132042099 0.895421313204108 0 2.8954213132044462 1.104578686795556 0 2.8571428571428572 1 0 3 1 0 3 1.142857142857143 0 2.8954213132044462 1.104578686795556 0 3 1 0 2.7626087828642452 0.86801764400775083 0 2.874409050805995 0.78018926648514575 0 2.8954213132042099 0.895421313204108 0 2.7626087828642452 0.86801764400775083 0 2.8571428571428572 1 0 2.8954213132042099 0.895421313204108 0 3 1 0 2.8954213132042099 0.895421313204108 0 3 0.85714285714248095 0 2.874409050805995 0.78018926648514575 0 2.8954213132042099 0.895421313204108 0 3 0.85714285714248095 0 2.874409050805995 0.78018926648514575 0 3 0.85714285714248095 0 3 0.71428571428496201 0 2.874409050805995 0.78018926648514575 0 3 0.71428571428496201 0 2.869717803296802 0.64222861727828529 0 2.874409050805995 0.78018926648514575 0 2.869717803296802 0.64222861727828529 0 2.744186890149765 0.71331043726850263 0 2.869717803296802 0.64222861727828529 0 2.8740599863056251 0.49927531931007729 0 2.7446576805156062 0.57126208756431218 0 2.869717803296802 0.64222861727828529 0 3 0.57142857142744297 0 2.8740599863056251 0.49927531931007729 0 3 0.71428571428496201 0 2.869717803296802 0.64222861727828529 0 3 0.57142857142744297 0 3 0.57142857142744297 0 3 0.42857142857032021 0 2.8740599863056251 0.49927531931007729 0 3 0.42857142857032021 0 2.8740599863056251 0.49927531931007729 0 2.875698076300893 0.35415439180319042 0 2.8740599863056251 0.49927531931007729 0 2.752171560420507 0.42857142856854402 0 2.875698076300893 0.35415439180319042 0 2.8740599863056251 0.49927531931007729 0 2.752171560420507 0.42857142856854402 0 2.7446576805156062 0.57126208756431218 0 2.752171560420507 0.42857142856854402 0 2.6201734641978431 0.35661818314175592 0 2.6198899606611801 0.49948637524748601 0 2.752171560420507 0.42857142856854402 0 2.7446576805156062 0.57126208756431218 0 2.6198899606611801 0.49948637524748601 0 2.7446576805156062 0.57126208756431218 0 2.6187395327714542 0.64269698385323981 0 2.6198899606611801 0.49948637524748601 0 2.744186890149765 0.71331043726850263 0 2.7446576805156062 0.57126208756431218 0 2.6187395327714542 0.64269698385323981 0 2.618589574132375 0.78571428571188628 0 2.744186890149765 0.71331043726850263 0 2.6187395327714542 0.64269698385323981 0 2.869717803296802 0.64222861727828529 0 2.744186890149765 0.71331043726850263 0 2.7446576805156062 0.57126208756431218 0 2.8571428571428572 0 0 2.895979424212793 0.1040205757871324 0 2.7710799917251951 0.12873413335171449 0 2.8571428571428572 0 0 3 0 0 2.895979424212793 0.1040205757871324 0 3 0 0 3 0.14285714285686729 0 2.895979424212793 0.1040205757871324 0 3 0.14285714285686729 0 2.895979424212793 0.1040205757871324 0 2.8828959187492971 0.2161673249238161 0 2.895979424212793 0.1040205757871324 0 2.8828959187492971 0.2161673249238161 0 2.7710799917251951 0.12873413335171449 0 3 0.14285714285686729 0 2.8828959187492971 0.2161673249238161 0 3 0.28571428571359381 0 2.8828959187492971 0.2161673249238161 0 3 0.28571428571359381 0 2.875698076300893 0.35415439180319042 0 3 0.42857142857032021 0 3 0.28571428571359381 0 2.875698076300893 0.35415439180319042 0 2.8828959187492971 0.2161673249238161 0 2.875698076300893 0.35415439180319042 0 2.7546180202569031 0.2815234200303981 0 2.752171560420507 0.42857142856854402 0 2.875698076300893 0.35415439180319042 0 2.7546180202569031 0.2815234200303981 0 2.752171560420507 0.42857142856854402 0 2.7546180202569031 0.2815234200303981 0 2.6201734641978431 0.35661818314175592 0 2.7546180202569031 0.2815234200303981 0 2.6281978226174312 0.2120446233090226 0 2.6201734641978431 0.35661818314175592 0 2.7546180202569031 0.2815234200303981 0 2.6281978226174312 0.2120446233090226 0 2.7710799917251951 0.12873413335171449 0 2.8828959187492971 0.2161673249238161 0 2.7546180202569031 0.2815234200303981 0 2.7710799917251951 0.12873413335171449 0 2.6281978226174312 0.2120446233090226 0 2.7710799917251951 0.12873413335171449 0 2.6366338798727531 0.093464308857798578 0 2.7710799917251951 0.12873413335171449 0 2.714285714285714 0 0 2.6366338798727531 0.093464308857798578 0 2.714285714285714 0 0 2.6366338798727531 0.093464308857798578 0 2.5714285714285712 0 0 2.8571428571428572 0 0 2.7710799917251951 0.12873413335171449 0 2.714285714285714 0 0 2.5714285714285712 0 0 2.4981772993068532 0.12654278762825569 0 2.4285714285714279 0 0 2.6366338798727531 0.093464308857798578 0 2.5714285714285712 0 0 2.4981772993068532 0.12654278762825569 0 2.6281978226174312 0.2120446233090226 0 2.6366338798727531 0.093464308857798578 0 2.4981772993068532 0.12654278762825569 0 2.4981772993068532 0.12654278762825569 0 2.4945915486603032 0.27804612003647211 0 2.3627973047133688 0.2085843731968646 0 2.6281978226174312 0.2120446233090226 0 2.4981772993068532 0.12654278762825569 0 2.4945915486603032 0.27804612003647211 0 2.6281978226174312 0.2120446233090226 0 2.4945915486603032 0.27804612003647211 0 2.6201734641978431 0.35661818314175592 0 2.4945915486603032 0.27804612003647211 0 2.6201734641978431 0.35661818314175592 0 2.4932105417127999 0.42593700932760742 0 2.4945915486603032 0.27804612003647211 0 2.3659139839396568 0.35404229584496971 0 2.4932105417127999 0.42593700932760742 0 2.3659139839396568 0.35404229584496971 0 2.2429924675022042 0.42772459507389499 0 2.239801768054869 0.28318912013054048 0 2.3659139839396568 0.35404229584496971 0 2.3627973047133688 0.2085843731968646 0 2.239801768054869 0.28318912013054048 0 2.3627973047133688 0.2085843731968646 0 2.2304843984160652 0.12817051038898469 0 2.239801768054869 0.28318912013054048 0 2.4945915486603032 0.27804612003647211 0 2.3659139839396568 0.35404229584496971 0 2.3627973047133688 0.2085843731968646 0 2.4981772993068532 0.12654278762825569 0 2.3627973047133688 0.2085843731968646 0 2.3571428571428541 0.088385776599927482 0 2.3627973047133688 0.2085843731968646 0 2.3571428571428541 0.088385776599927482 0 2.2304843984160652 0.12817051038898469 0 2.2857142857142851 0 0 2.3571428571428541 0.088385776599927482 0 2.2304843984160652 0.12817051038898469 0 2.2857142857142851 0 0 2.3571428571428541 0.088385776599927482 0 2.4285714285714279 0 0 2.4981772993068532 0.12654278762825569 0 2.3571428571428541 0.088385776599927482 0 2.4285714285714279 0 0 2.4944710246124502 0.57098124216803003 0 2.4948716593059621 0.71428571428343679 0 2.3707808136040498 0.64248101537579039 0 2.618589574132375 0.78571428571188628 0 2.4948716593059621 0.71428571428343679 0 2.6187395327714542 0.64269698385323981 0 2.4944710246124502 0.57098124216803003 0 2.6187395327714542 0.64269698385323981 0 2.6198899606611801 0.49948637524748601 0 2.4944710246124502 0.57098124216803003 0 2.4948716593059621 0.71428571428343679 0 2.6187395327714542 0.64269698385323981 0 2.4944710246124502 0.57098124216803003 0 2.6198899606611801 0.49948637524748601 0 2.4932105417127999 0.42593700932760742 0 2.6201734641978431 0.35661818314175592 0 2.6198899606611801 0.49948637524748601 0 2.4932105417127999 0.42593700932760742 0 2.4944710246124502 0.57098124216803003 0 2.4932105417127999 0.42593700932760742 0 2.3691228671960749 0.4976921519274754 0 2.3659139839396568 0.35404229584496971 0 2.4932105417127999 0.42593700932760742 0 2.3691228671960749 0.4976921519274754 0 2.3659139839396568 0.35404229584496971 0 2.3691228671960749 0.4976921519274754 0 2.2429924675022042 0.42772459507389499 0 2.3691228671960749 0.4976921519274754 0 2.247229121683481 0.57147965461975947 0 2.2429924675022042 0.42772459507389499 0 2.3707808136040498 0.64248101537579039 0 2.2467020989286488 0.71318645322081209 0 2.247229121683481 0.57147965461975947 0 2.3691228671960749 0.4976921519274754 0 2.3707808136040498 0.64248101537579039 0 2.247229121683481 0.57147965461975947 0 2.4944710246124502 0.57098124216803003 0 2.3691228671960749 0.4976921519274754 0 2.3707808136040498 0.64248101537579039 0 2.3690804396265648 0.78389141510404292 0 2.4948716593059621 0.71428571428343679 0 2.3707808136040498 0.64248101537579039 0 2.3690804396265648 0.78389141510404292 0 2.3707808136040498 0.64248101537579039 0 2.2467020989286488 0.71318645322081209 0 2.2467020989286488 0.71318645322081209 0 2.1230850406616231 0.64211163998861709 0 2.120528043488306 0.78018926648583753 0 2.1230850406616231 0.64211163998861709 0 2 0.71428571428496201 0 2.120528043488306 0.78018926648583753 0 2.1230850406616231 0.64211163998861709 0 2.1231105411754938 0.50105200202130029 0 2 0.57142857142744297 0 2.2467020989286488 0.71318645322081209 0 2.1230850406616231 0.64211163998861709 0 2.247229121683481 0.57147965461975947 0 2.1230850406616231 0.64211163998861709 0 2.247229121683481 0.57147965461975947 0 2.1231105411754938 0.50105200202130029 0 2.247229121683481 0.57147965461975947 0 2.2429924675022042 0.42772459507389499 0 2.1231105411754938 0.50105200202130029 0 2.2429924675022042 0.42772459507389499 0 2.1231105411754938 0.50105200202130029 0 2.1204089262615469 0.35723491808527857 0 2.1231105411754938 0.50105200202130029 0 2 0.42857142857032021 0 2.1204089262615469 0.35723491808527857 0 2.1231105411754938 0.50105200202130029 0 2 0.42857142857032021 0 2 0.57142857142744297 0 2 0.42857142857032021 0 1.8756980763008939 0.35415439180319208 0 1.8740599863056251 0.49927531931007818 0 2 0.42857142857032021 0 2 0.57142857142744297 0 1.8740599863056251 0.49927531931007818 0 2 0.71428571428496201 0 2 0.57142857142744297 0 1.8697178032968009 0.64222861727828584 0 2 0.57142857142744297 0 1.8697178032968009 0.64222861727828584 0 1.8740599863056251 0.49927531931007818 0 2 0.71428571428496201 0 1.8697178032968009 0.64222861727828584 0 1.8744090508059921 0.78018926648514741 0 2.1230850406616231 0.64211163998861709 0 2 0.71428571428496201 0 2 0.57142857142744297 0 2.1428571428571428 0 0 2.1045786867956009 0.1045786867955279 0 2 0 0 2.1428571428571428 0 0 2.2304843984160652 0.12817051038898469 0 2.1045786867956009 0.1045786867955279 0 2.2857142857142851 0 0 2.1428571428571428 0 0 2.2304843984160652 0.12817051038898469 0 2.1045786867956009 0.1045786867955279 0 2.1165487808367178 0.2171580770020218 0 2 0.14285714285686729 0 2.2304843984160652 0.12817051038898469 0 2.1045786867956009 0.1045786867955279 0 2.1165487808367178 0.2171580770020218 0 2.2304843984160652 0.12817051038898469 0 2.1165487808367178 0.2171580770020218 0 2.239801768054869 0.28318912013054048 0 2.2429924675022042 0.42772459507389499 0 2.239801768054869 0.28318912013054048 0 2.1204089262615469 0.35723491808527857 0 2.1165487808367178 0.2171580770020218 0 2.239801768054869 0.28318912013054048 0 2.1204089262615469 0.35723491808527857 0 2.1165487808367178 0.2171580770020218 0 2.1204089262615469 0.35723491808527857 0 2 0.28571428571359381 0 2 0.42857142857032021 0 2.1204089262615469 0.35723491808527857 0 2 0.28571428571359381 0 2 0.28571428571359381 0 1.8756980763008939 0.35415439180319208 0 1.882895918749298 0.21616732492381721 0 2 0.42857142857032021 0 2 0.28571428571359381 0 1.8756980763008939 0.35415439180319208 0 2 0.28571428571359381 0 1.882895918749298 0.21616732492381721 0 2 0.14285714285686729 0 2.1165487808367178 0.2171580770020218 0 2 0.28571428571359381 0 2 0.14285714285686729 0 1.882895918749298 0.21616732492381721 0 2 0.14285714285686729 0 1.8959794242127921 0.10402057578713381 0 2 0.14285714285686729 0 1.8959794242127921 0.10402057578713381 0 2 0 0 1.8959794242127921 0.10402057578713381 0 2 0 0 1.857142857142857 0 0 2.1045786867956009 0.1045786867955279 0 2 0.14285714285686729 0 2 0 0 1.714285714285714 0 0 1.857142857142857 0 0 1.7710799917251949 0.1287341333517158 0 1.714285714285714 0 0 1.7710799917251949 0.1287341333517158 0 1.6366338798727531 0.093464308857799619 0 1.8959794242127921 0.10402057578713381 0 1.857142857142857 0 0 1.7710799917251949 0.1287341333517158 0 1.882895918749298 0.21616732492381721 0 1.8959794242127921 0.10402057578713381 0 1.7710799917251949 0.1287341333517158 0 1.7710799917251949 0.1287341333517158 0 1.7546180202569051 0.28152342003040048 0 1.6281978226174321 0.21204462330902529 0 1.882895918749298 0.21616732492381721 0 1.7710799917251949 0.1287341333517158 0 1.7546180202569051 0.28152342003040048 0 1.8756980763008939 0.35415439180319208 0 1.882895918749298 0.21616732492381721 0 1.7546180202569051 0.28152342003040048 0 1.8756980763008939 0.35415439180319208 0 1.7546180202569051 0.28152342003040048 0 1.752171560420509 0.42857142856854807 0 1.7546180202569051 0.28152342003040048 0 1.620173464197844 0.35661818314175942 0 1.752171560420509 0.42857142856854807 0 1.7546180202569051 0.28152342003040048 0 1.620173464197844 0.35661818314175942 0 1.6281978226174321 0.21204462330902529 0 1.493210541712801 0.42593700932760992 0 1.4945915486603041 0.278046120036475 0 1.620173464197844 0.35661818314175942 0 1.4945915486603041 0.278046120036475 0 1.620173464197844 0.35661818314175942 0 1.6281978226174321 0.21204462330902529 0 1.4945915486603041 0.278046120036475 0 1.4981772993068541 0.1265427876282571 0 1.6281978226174321 0.21204462330902529 0 1.7710799917251949 0.1287341333517158 0 1.6281978226174321 0.21204462330902529 0 1.6366338798727531 0.093464308857799619 0 1.4981772993068541 0.1265427876282571 0 1.6281978226174321 0.21204462330902529 0 1.6366338798727531 0.093464308857799619 0 1.4981772993068541 0.1265427876282571 0 1.571428571428571 0 0 1.6366338798727531 0.093464308857799619 0 1.714285714285714 0 0 1.571428571428571 0 0 1.6366338798727531 0.093464308857799619 0 1.744657680515606 0.57126208756431485 0 1.744186890149763 0.71331043726850496 0 1.618739532771454 0.64269698385324336 0 1.744186890149763 0.71331043726850496 0 1.8697178032968009 0.64222861727828584 0 1.8744090508059921 0.78018926648514741 0 1.744657680515606 0.57126208756431485 0 1.744186890149763 0.71331043726850496 0 1.8697178032968009 0.64222861727828584 0 1.744657680515606 0.57126208756431485 0 1.8697178032968009 0.64222861727828584 0 1.8740599863056251 0.49927531931007818 0 1.744657680515606 0.57126208756431485 0 1.8740599863056251 0.49927531931007818 0 1.752171560420509 0.42857142856854807 0 1.8756980763008939 0.35415439180319208 0 1.8740599863056251 0.49927531931007818 0 1.752171560420509 0.42857142856854807 0 1.744657680515606 0.57126208756431485 0 1.752171560420509 0.42857142856854807 0 1.619889960661181 0.49948637524748901 0 1.620173464197844 0.35661818314175942 0 1.752171560420509 0.42857142856854807 0 1.619889960661181 0.49948637524748901 0 1.493210541712801 0.42593700932760992 0 1.620173464197844 0.35661818314175942 0 1.619889960661181 0.49948637524748901 0 1.49447102461245 0.57098124216803303 0 1.493210541712801 0.42593700932760992 0 1.619889960661181 0.49948637524748901 0 1.49447102461245 0.57098124216803303 0 1.619889960661181 0.49948637524748901 0 1.618739532771454 0.64269698385324336 0 1.49447102461245 0.57098124216803303 0 1.4948716593059641 0.71428571428344279 0 1.618739532771454 0.64269698385324336 0 1.744657680515606 0.57126208756431485 0 1.619889960661181 0.49948637524748901 0 1.618739532771454 0.64269698385324336 0 1.744186890149763 0.71331043726850496 0 1.618739532771454 0.64269698385324336 0 1.618589574132369 0.78571428571188717 0 1.4948716593059641 0.71428571428344279 0 1.618739532771454 0.64269698385324336 0 1.618589574132369 0.78571428571188717 0 1.4948716593059641 0.71428571428344279 0 1.497549379121643 0.87194859075748521 0 1.618589574132369 0.78571428571188717 0 1.497549379121643 0.87194859075748521 0 1.6328924043665081 0.90513610409542489 0 1.618589574132369 0.78571428571188717 0 1.497549379121643 0.87194859075748521 0 1.6328924043665081 0.90513610409542489 0 1.571428571428571 1 0 1.6328924043665081 0.90513610409542489 0 1.618589574132369 0.78571428571188717 0 1.7626087828642421 0.86801764400775128 0 1.744186890149763 0.71331043726850496 0 1.618589574132369 0.78571428571188717 0 1.7626087828642421 0.86801764400775128 0 1.6328924043665081 0.90513610409542489 0 1.7626087828642421 0.86801764400775128 0 1.714285714285714 1 0 1.7626087828642421 0.86801764400775128 0 1.857142857142857 1 0 1.895421313204209 0.89542131320410689 0 1.7626087828642421 0.86801764400775128 0 1.8744090508059921 0.78018926648514741 0 1.895421313204209 0.89542131320410689 0 1.744186890149763 0.71331043726850496 0 1.7626087828642421 0.86801764400775128 0 1.8744090508059921 0.78018926648514741 0 1.857142857142857 1 0 1.780189266486452 1.1255909491945031 0 1.895421313204446 1.104578686795554 0 1.857142857142857 1 0 1.714285714285714 1 0 1.780189266486452 1.1255909491945031 0 1.7626087828642421 0.86801764400775128 0 1.857142857142857 1 0 1.714285714285714 1 0 1.714285714285714 1 0 1.6422816724703979 1.1304620449693199 0 1.780189266486452 1.1255909491945031 0 1.714285714285714 1 0 1.571428571428571 1 0 1.6422816724703979 1.1304620449693199 0 1.6328924043665081 0.90513610409542489 0 1.714285714285714 1 0 1.571428571428571 1 0 1.499999999999998 1.1271398115696349 0 1.571428571428571 1 0 1.6422816724703979 1.1304620449693199 0 1.499999999999998 1.1271398115696349 0 1.571152652531757 1.256105255633247 0 1.6422816724703979 1.1304620449693199 0 1.571152652531757 1.256105255633247 0 1.6428585192410321 1.381411220523866 0 1.713319120662252 1.255965391424904 0 1.571152652531757 1.256105255633247 0 1.6422816724703979 1.1304620449693199 0 1.713319120662252 1.255965391424904 0 1.4999999999999949 1.3814104258682569 0 1.42857911129607 1.505132776317748 0 1.5714368297319321 1.505133108628274 0 1.4999999999999949 1.3814104258682569 0 1.5714368297319321 1.505133108628274 0 1.6428585192410321 1.381411220523866 0 1.4999999999999949 1.3814104258682569 0 1.571152652531757 1.256105255633247 0 1.6428585192410321 1.381411220523866 0 1.5714368297319321 1.505133108628274 0 1.7164690164522749 1.505013992076764 0 1.6428585192410321 1.381411220523866 0 1.7164690164522749 1.505013992076764 0 1.6428585192410321 1.381411220523866 0 1.785714285714282 1.38141042586825 0 1.6428585192410321 1.381411220523866 0 1.785714285714282 1.38141042586825 0 1.713319120662252 1.255965391424904 0 1.785714285714282 1.38141042586825 0 1.8680188844933181 1.2374129716465909 0 1.9051363521932001 1.367111946535875 0 1.871948590758401 1.50245062087882 0 1.785714285714282 1.38141042586825 0 1.9051363521932001 1.367111946535875 0 1.7164690164522749 1.505013992076764 0 1.871948590758401 1.50245062087882 0 1.785714285714282 1.38141042586825 0 1.6422816724703979 1.1304620449693199 0 1.780189266486452 1.1255909491945031 0 1.713319120662252 1.255965391424904 0 1.785714285714282 1.38141042586825 0 1.713319120662252 1.255965391424904 0 1.8680188844933181 1.2374129716465909 0 1.780189266486452 1.1255909491945031 0 1.713319120662252 1.255965391424904 0 1.8680188844933181 1.2374129716465909 0 1.780189266486452 1.1255909491945031 0 1.8680188844933181 1.2374129716465909 0 1.895421313204446 1.104578686795554 0 1.8680188844933181 1.2374129716465909 0 2 1.142857142857143 0 1.895421313204446 1.104578686795554 0 1.8680188844933181 1.2374129716465909 0 2 1.2857142857142849 0 1.9051363521932001 1.367111946535875 0 1.8680188844933181 1.2374129716465909 0 2 1.2857142857142849 0 2 1.142857142857143 0 2 1.2857142857142849 0 2 1.142857142857143 0 2.1319792929118409 1.2374367896472369 0 1.871948590758401 1.50245062087882 0 1.9051363521932001 1.367111946535875 0 2 1.4285714285714279 0 2 1.2857142857142849 0 1.9051363521932001 1.367111946535875 0 2 1.4285714285714279 0 2 1.2857142857142849 0 2 1.4285714285714279 0 2.0946158322405029 1.367237727885342 0 2.1268141540049612 1.5030557096254999 0 2.0946158322405029 1.367237727885342 0 2.214285714285714 1.3814104258682629 0 2.1268141540049612 1.5030557096254999 0 2 1.4285714285714279 0 2.0946158322405029 1.367237727885342 0 2.0946158322405029 1.367237727885342 0 2.214285714285714 1.3814104258682629 0 2.1319792929118409 1.2374367896472369 0 2.1268141540049612 1.5030557096254999 0 2.2857142857142878 1.505128340694611 0 2.214285714285714 1.3814104258682629 0 2 1.142857142857143 0 2.1319792929118409 1.2374367896472369 0 2.1045786867955538 1.1045786867955549 0 2.1319792929118409 1.2374367896472369 0 2.2198107335135431 1.1256563841824909 0 2.1045786867955538 1.1045786867955549 0 2 1.2857142857142849 0 2.0946158322405029 1.367237727885342 0 2.1319792929118409 1.2374367896472369 0 2.2866681211738742 1.256066682441406 0 2.214285714285714 1.3814104258682629 0 2.1319792929118409 1.2374367896472369 0 2.2866681211738742 1.256066682441406 0 2.1319792929118409 1.2374367896472369 0 2.2198107335135431 1.1256563841824909 0 2.2857142857142851 1 0 2.2198107335135431 1.1256563841824909 0 2.1428571428571428 1 0 2.1045786867955538 1.1045786867955549 0 2.1428571428571428 1 0 2 1 0 2.2198107335135431 1.1256563841824909 0 2.1045786867955538 1.1045786867955549 0 2.1428571428571428 1 0 2.1428571428571428 1 0 2.1045786867957932 0.89542131320410567 0 2 1 0 2.2857142857142851 1 0 2.1428571428571428 1 0 2.2323719363650798 0.86814175826561746 0 2.1428571428571428 1 0 2.2323719363650798 0.86814175826561746 0 2.1045786867957932 0.89542131320410567 0 2.2467020989286488 0.71318645322081209 0 2.2323719363650798 0.86814175826561746 0 2.120528043488306 0.78018926648583753 0 2.2323719363650798 0.86814175826561746 0 2.120528043488306 0.78018926648583753 0 2.1045786867957932 0.89542131320410567 0 2.120528043488306 0.78018926648583753 0 2.1045786867957932 0.89542131320410567 0 2 0.85714285714248095 0 2.1045786867957932 0.89542131320410567 0 2 0.85714285714248095 0 2 1 0 2 0.71428571428496201 0 2.120528043488306 0.78018926648583753 0 2 0.85714285714248095 0 2 0.71428571428496201 0 1.8744090508059921 0.78018926648514741 0 2 0.85714285714248095 0 1.8744090508059921 0.78018926648514741 0 2 0.85714285714248095 0 1.895421313204209 0.89542131320410689 0 2 0.85714285714248095 0 1.895421313204209 0.89542131320410689 0 2 1 0 1.857142857142857 1 0 1.895421313204209 0.89542131320410689 0 2 1 0 2 1.142857142857143 0 1.895421313204446 1.104578686795554 0 2 1 0 1.857142857142857 1 0 1.895421313204446 1.104578686795554 0 2 1 0 2 1.142857142857143 0 2.1045786867955538 1.1045786867955549 0 2 1 0 
</DataArray>
</Points>
<Cells>
<DataArray type="UInt32" Name="connectivity" format="ascii">
0 1 2 3 4 5 6 7 8 9 10 11 12 13 14 15 16 17 18 19 20 21 22 23 24 25 26 27 28 29 30 31 32 33 34 35 36 37 38 39 40 41 42 43 44 45 46 47 48 49 50 51 52 53 54 55 56 57 58 59 60 61 62 63 64 65 66 67 68 69 70 71 72 73 74 75 76 77 78 79 80 81 82 83 84 85 86 87 88 89 90 91 92 93 94 95 96 97 98 99 100 101 102 103 104 105 106 107 108 109 110 111 112 113 114 115 116 117 118 119 120 121 122 123 124 125 126 127 128 129 130 131 132 133 134 135 136 137 138 139 140 141 142 143 144 145 146 147 148 149 150 151 152 153 154 155 156 157 158 159 160 161 162 163 164 165 166 167 168 169 170 171 172 173 174 175 176 177 178 179 180 181 182 183 184 185 186 187 188 189 190 191 192 193 194 195 196 197 198 199 200 201 202 203 204 205 206 207 208 209 210 211 212 213 214 215 216 217 218 219 220 221 222 223 224 225 226 227 228 229 230 231 232 233 234 235 236 237 238 239 240 241 242 243 244 245 246 247 248 249 250 251 252 253 254 255 256 257 258 259 260 261 262 263 264 265 266 267 268 269 270 271 272 273 274 275 276 277 278 279 280 281 282 283 284 285 286 287 288 289 290 291 292 293 294 295 296 297 298 299 300 301 302 303 304 305 306 307 308 309 310 311 312 313 314 315 316 317 318 319 320 321 322 323 324 325 326 327 328 329 330 331 332 333 334 335 336 337 338 339 340 341 342 343 344 345 346 347 348 349 350 351 352 353 354 355 356 357 358 359 360 361 362 363 364 365 366 367 368 369 370 371 372 373 374 375 376 377 378 379 380 381 382 383 384 385 386 387 388 389 390 391 392 393 394 395 396 397 398 399 400 401 402 403 404 405 406 407 408 409 410 411 412 413 414 415 416 417 418 419 420 421 422 423 424 425 426 427 428 429 430 431 432 433 434 435 436 437 438 439 440 441 442 443 444 445 446 447 448 449 450 451 452 453 454 455 456 457 458 459 460 461 462 463 464 465 466 467 468 469 470 471 472 473 474 475 476 477 478 479 480 481 482 483 484 485 486 487 488 489 490 491 492 493 494 495 496 497 498 499 500 501 502 503 504 505 506 507 508 509 510 511 512 513 514 515 516 517 518 519 520 521 522 523 524 525 526 527 528 529 530 531 532 533 534 535 536 537 538 539 540 541 542 543 544 545 546 547 548 549 550 551 552 553 554 555 556 557 558 559 560 561 562 563 564 565 566 567 568 569 570 571 572 573 574 575 576 577 578 579 580 581 582 583 584 585 586 587 588 589 590 591 592 593 594 595 596 597 598 599 600 601 602 603 604 605 606 607 608 609 610 611 612 613 614 615 616 617 618 619 620 621 622 623 624 625 626 627 628 629 630 631 632 633 634 635 636 637 638 639 640 641 642 643 644 645 646 647 648 649 650 651 652 653 654 655 656 657 658 659 660 661 662 663 664 665 666 667 668 669 670 671 672 673 674 675 676 677 678 679 680 681 682 683 684 685 686 687 688 689 690 691 692 693 694 695 696 697 698 699 700 701 702 703 704 705 706 707 708 709 710 711 712 713 714 715 716 717 718 719 720 721 722 723 724 725 726 727 728 729 730 731 732 733 734 735 736 737 738 739 740 741 742 743 744 745 746 747 748 749 750 751 752 753 754 755 756 757 758 759 760 761 762 763 764 765 766 767 768 769 770 771 772 773 774 775 776 777 778 779 780 781 782 783 784 785 786 787 788 789 790 791 792 793 794 795 796 797 798 799 800 801 802 803 804 805 806 807 808 809 810 811 812 813 814 815 816 817 818 819 820 821 822 823 824 825 826 827 828 829 830 831 832 833 834 835 836 837 838 839 840 841 842 843 844 845 846 847 848 849 850 851 852 853 854 855 856 857 858 859 860 861 862 863 864 865 866 867 868 869 870 871 872 873 874 875 876 877 878 879 880 881 882 883 884 885 886 887 888 889 890 891 892 893 894 895 896 897 898 899 900 901 902 903 904 905 906 907 908 909 910 911 912 913 914 915 916 917 918 919 920 921 922 923 924 925 926 927 928 929 930 931 932 933 934 935 936 937 938 939 940 941 942 943 944 945 946 947 948 949 950 951 952 953 954 955 956 957 958 959 960 961 962 963 964 965 966 967 968 969 970 971 972 973 974 975 976 977 978 979 980 981 982 983 984 985 986 987 988 989 990 991 992 993 994 995 996 997 998 999 1000 1001 1002 1003 1004 1005 1006 1007 1008 1009 1010 1011 1012 1013 1014 1015 1016 1017 1018 1019 1020 1021 1022 1023 1024 1025 1026 1027 1028 1029 1030 1031 1032 1033 1034 1035 1036 1037 1038 1039 1040 1041 1042 1043 1044 1045 1046 1047 1048 1049 1050 1051 1052 1053 1054 1055 1056 1057 1058 1059 1060 1061 1062 1063 1064 1065 1066 1067 1068 1069 1070 1071 1072 1073 1074 1075 1076 1077 1078 1079 1080 1081 1082 1083 1084 1085 1086 1087 1088 1089 1090 1091 1092 1093 1094 1095 1096 1097 1098 1099 1100 1101 1102 1103 1104 1105 1106 1107 1108 1109 1110 1111 1112 1113 1114 1115 1116 1117 1118 1119 1120 1121 1122 1123 1124 1125 1126 1127 1128 1129 1130 1131 1132 1133 1134 1135 1136 1137 1138 1139 1140 1141 1142 1143 1144 1145 1146 1147 1148 1149 1150 1151 1152 1153 1154 1155 1156 1157 1158 1159 1160 1161 1162 1163 1164 1165 1166 1167 1168 1169 1170 1171 1172 1173 1174 1175 1176 1177 1178 1179 1180 1181 1182 1183 1184 1185 1186 1187 1188 1189 1190 1191 1192 1193 1194 1195 1196 1197 1198 1199 1200 1201 1202 1203 1204 1205 1206 1207 1208 1209 1210 1211 1212 1213 1214 1215 1216 1217 1218 1219 1220 1221 1222 1223 1224 1225 1226 1227 1228 1229 1230 1231 1232 1233 1234 1235 1236 1237 1238 1239 1240 1241 1242 1243 1244 1245 1246 1247 1248 1249 1250 1251 1252 1253 1254 1255 1256 1257 1258 1259 1260 1261 1262 1263 1264 1265 1266 1267 1268 1269 1270 1271 1272 1273 1274 1275 1276 1277 1278 1279 1280 1281 1282 1283 1284 1285 1286 1287 1288 1289 1290 1291 1292 1293 1294 1295 1296 1297 1298 1299 1300 1301 1302 1303 1304 1305 1306 1307 1308 1309 1310 1311 1312 1313 1314 1315 1316 1317 1318 1319 1320 1321 1322 1323 1324 1325 1326 1327 1328 1329 1330 1331 1332 1333 1334 1335 1336 1337 1338 1339 1340 1341 1342 1343 1344 1345 1346 1347 1348 1349 1350 1351 1352 1353 1354 1355 1356 1357 1358 1359 1360 1361 1362 1363 1364 1365 1366 1367 1368 1369 1370 1371 1372 1373 1374 1375 1376 1377 1378 1379 1380 1381 1382 1383 1384 1385 1386 1387 1388 1389 1390 1391 1392 1393 1394 1395 1396 1397 1398 1399 1400 1401 1402 1403 1404 1405 1406 1407 1408 1409 1410 1411 1412 1413 1414 1415 1416 1417 1418 1419 1420 1421 1422 1423 1424 1425 1426 1427 1428 1429 1430 1431 1432 1433 1434 1435 1436 1437 1438 1439 1440 1441 1442 1443 1444 1445 1446 1447 1448 1449 1450 1451 1452 1453 1454 1455 1456 1457 1458 1459 1460 1461 1462 1463 1464 1465 1466 1467 1468 1469 1470 1471 1472 1473 1474 1475 1476 1477 1478 1479 1480 1481 1482 1483 1484 1485 1486 1487 1488 1489 1490 1491 1492 1493 1494 1495 1496 1497 1498 1499 1500 1501 1502 1503 1504 1505 1506 1507 1508 1509 1510 1511 1512 1513 1514 1515 1516 1517 1518 1519 1520 1521 1522 1523 1524 1525 1526 1527 1528 1529 1530 1531 1532 1533 1534 1535 1536 1537 1538 1539 1540 1541 1542 1543 1544 1545 1546 1547 1548 1549 1550 1551 1552 1553 1554 1555 1556 1557 1558 1559 1560 1561 1562 1563 1564 1565 1566 1567 1568 1569 1570 1571 1572 1573 1574 1575 1576 1577 1578 1579 1580 1581 1582 1583 1584 1585 1586 1587 1588 1589 1590 1591 1592 1593 1594 1595 1596 1597 1598 1599 1600 1601 1602 1603 1604 1605 1606 1607 1608 1609 1610 1611 1612 1613 1614 1615 1616 1617 1618 1619 1620 1621 1622 1623 1624 1625 1626 1627 1628 1629 1630 1631 1632 1633 1634 1635 1636 1637 1638 1639 1640 1641 1642 1643 1644 1645 1646 1647 1648 1649 1650 1651 1652 1653 1654 1655 1656 1657 1658 1659 1660 1661 1662 1663 1664 1665 1666 1667 1668 1669 1670 1671 1672 1673 1674 1675 1676 1677 1678 1679 1680 1681 1682 1683 1684 1685 1686 1687 1688 1689 1690 1691 1692 1693 1694 1695 1696 1697 1698 1699 1700 1701 1702 1703 1704 1705 1706 1707 1708 1709 1710 1711 1712 1713 1714 1715 1716 1717 1718 1719 1720 1721 1722 1723 1724 1725 1726 1727 1728 1729 1730 1731 1732 1733 1734 1735 1736 1737 1738 1739 1740 1741 1742 1743 1744 1745 1746 1747 1748 1749 1750 1751 1752 1753 1754 1755 1756 1757 1758 1759 1760 1761 1762 1763 1764 1765 1766 1767 1768 1769 1770 1771 1772 1773 1774 1775 1776 1777 1778 1779 1780 1781 1782 1783 1784 1785 1786 1787 1788 1789 1790 1791 1792 1793 1794 1795 1796 1797 1798 1799 1800 1801 1802 1803 1804 1805 1806 1807 1808 1809 1810 1811 1812 1813 1814 1815 1816 1817 1818 1819 1820 1821 1822 1823 1824 1825 1826 1827 1828 1829 1830 1831 1832 1833 1834 1835 1836 1837 1838 1839 1840 1841 1842 1843 1844 1845 1846 1847 1848 1849 1850 1851 1852 1853 1854 1855 1856 1857 1858 1859 1860 1861 1862 1863 1864 1865 1866 1867 1868 1869 1870 1871 1872 1873 1874 1875 1876 1877 1878 1879 1880 1881 1882 1883 1884 1885 1886 1887 1888 1889 1890 1891 1892 1893 1894 1895 1896 1897 1898 1899 1900 1901 1902 1903 1904 1905 1906 1907 1908 1909 1910 1911 1912 1913 1914 1915 1916 1917 1918 1919 1920 1921 1922 1923 1924 1925 1926 1927 1928 1929 1930 1931 1932 1933 1934 1935 1936 1937 1938 1939 1940 1941 1942 1943 1944 1945 1946 1947 1948 1949 1950 1951 1952 1953 1954 1955 1956 1957 1958 1959 1960 1961 1962 1963 1964 1965 1966 1967 1968 1969 1970 1971 1972 1973 1974 1975 1976 1977 1978 1979 1980 1981 1982 1983 1984 1985 1986 1987 1988 1989 1990 1991 1992 1993 1994 1995 1996 1997 1998 1999 2000 2001 2002 2003 2004 2005 2006 2007 2008 2009 2010 2011 2012 2013 2014 2015 2016 2017 2018 2019 2020 2021 2022 2023 2024 2025 2026 2027 2028 2029 2030 2031 2032 2033 2034 2035 2036 2037 2038 2039 2040 2041 2042 2043 2044 2045 2046 2047 2048 2049 2050 2051 2052 2053 2054 2055 2056 2057 2058 2059 2060 2061 2062 2063 2064 2065 2066 2067 2068 2069 2070 2071 2072 2073 2074 2075 2076 2077 2078 2079 2080 2081 2082 2083 2084 2085 2086 2087 2088 2089 2090 2091 2092 2093 2094 2095 2096 2097 2098 2099 2100 2101 2102 2103 2104 2105 2106 2107 2108 2109 2110 2111 2112 2113 2114 2115 2116 2117 2118 2119 2120 2121 2122 2123 2124 2125 2126 2127 2128 2129 2130 2131 2132 2133 2134 2135 2136 2137 2138 2139 2140 2141 2142 2143 2144 2145 2146 2147 2148 2149 2150 2151 2152 2153 2154 2155 2156 2157 2158 2159 2160 2161 2162 2163 2164 2165 2166 2167 2168 2169 2170 2171 2172 2173 2174 2175 2176 2177 2178 2179 2180 2181 2182 2183 2184 2185 2186 2187 2188 2189 2190 2191 2192 2193 2194 2195 2196 2197 2198 2199 2200 2201 2202 2203 2204 2205 2206 2207 2208 2209 2210 2211 2212 2213 2214 2215 2216 2217 2218 2219 2220 2221 2222 2223 2224 2225 2226 2227 2228 2229 2230 2231 2232 2233 2234 2235 2236 2237 2238 2239 2240 2241 2242 2243 2244 2245 2246 2247 2248 2249 2250 2251 2252 2253 2254 2255 2256 2257 2258 2259 2260 2261 2262 2263 2264 2265 2266 2267 2268 2269 2270 2271 2272 2273 2274 2275 2276 2277 2278 2279 2280 2281 2282 2283 2284 2285 2286 2287 2288 2289 2290 2291 2292 2293 2294 2295 2296 2297 2298 2299 2300 2301 2302 2303 2304 2305 2306 2307 2308 2309 2310 2311 2312 2313 2314 2315 2316 2317 2318 2319 2320 2321 2322 2323 2324 2325 2326 2327 2328 2329 2330 2331 2332 2333 2334 2335 2336 2337 2338 2339 2340 2341 2342 2343 2344 2345 2346 2347 2348 2349 2350 2351 2352 2353 2354 2355 2356 2357 2358 2359 2360 2361 2362 2363 2364 2365 2366 2367 2368 2369 2370 2371 2372 2373 2374 2375 2376 2377 2378 2379 2380 2381 2382 2383 2384 2385 2386 2387 2388 2389 2390 2391 2392 2393 2394 2395 2396 2397 2398 2399 2400 2401 2402 2403 2404 2405 2406 2407 2408 2409 2410 2411 2412 2413 2414 2415 2416 2417 2418 2419 2420 2421 2422 2423 2424 2425 2426 2427 2428 2429 2430 2431 2432 2433 2434 2435 2436 2437 2438 2439 2440 2441 2442 2443 2444 2445 2446 2447 2448 2449 2450 2451 2452 2453 2454 2455 2456 2457 2458 2459 2460 2461 2462 2463 2464 2465 2466 2467 2468 2469 2470 2471 2472 2473 2474 2475 2476 2477 2478 2479 2480 2481 2482 2483 2484 2485 2486 2487 2488 2489 2490 2491 2492 2493 2494 2495 2496 2497 2498 2499 2500 2501 2502 2503 2504 2505 2506 2507 2508 2509 2510 2511 2512 2513 2514 2515 2516 2517 2518 2519 2520 2521 2522 2523 2524 2525 2526 2527 2528 2529 2530 2531 2532 2533 2534 2535 2536 2537 2538 2539 2540 2541 2542 2543 2544 2545 2546 2547 2548 2549 2550 2551 2552 2553 2554 2555 2556 2557 2558 2559 2560 2561 2562 2563 2564 2565 2566 2567 2568 2569 2570 2571 2572 2573 2574 2575 2576 2577 2578 2579 2580 2581 2582 2583 2584 2585 2586 2587 2588 2589 2590 2591 2592 2593 2594 2595 2596 2597 2598 2599 2600 2601 2602 2603 2604 2605 2606 2607 2608 2609 2610 2611 2612 2613 2614 2615 2616 2617 2618 2619 2620 2621 2622 2623 2624 2625 2626 2627 2628 2629 2630 2631 2632 2633 2634 2635 2636 2637 2638 2639 2640 2641 2642 2643 2644 2645 2646 2647 2648 2649 2650 2651 2652 2653 2654 2655 2656 2657 2658 2659 2660 2661 2662 2663 2664 2665 2666 2667 2668 2669 2670 2671 2672 2673 2674 2675 2676 2677 2678 2679 2680 2681 2682 2683 2684 2685 2686 2687 2688 2689 2690 2691 2692 2693 2694 2695 2696 2697 2698 2699 2700 2701 2702 2703 2704 2705 2706 2707 2708 2709 2710 2711 2712 2713 2714 2715 2716 2717 2718 2719 2720 2721 2722 2723 2724 2725 2726 2727 2728 2729 2730 2731 2732 2733 2734 2735 2736 2737 2738 2739 2740 2741 2742 2743 2744 2745 2746 2747 2748 2749 2750 2751 2752 2753 2754 2755 2756 2757 2758 2759 2760 2761 2762 2763 2764 2765 2766 2767 2768 2769 2770 2771 2772 2773 2774 2775 2776 2777 2778 2779 2780 2781 2782 2783 2784 2785 2786 2787 2788 2789 2790 2791 2792 2793 2794 2795 2796 2797 2798 2799 2800 2801 2802 2803 2804 2805 2806 2807 2808 2809 2810 2811 2812 2813 2814 2815 2816 2817 2818 2819 2820 2821 2822 2823 2824 2825 2826 2827 2828 2829 2830 2831 2832 2833 2834 2835 2836 2837 2838 2839 2840 2841 2842 2843 2844 2845 2846 2847 2848 2849 2850 2851 2852 2853 2854 2855 2856 2857 2858 2859 2860 2861 2862 2863 2864 2865 2866 2867 2868 2869 2870 2871 2872 2873 2874 2875 2876 2877 2878 2879 2880 2881 2882 2883 2884 2885 2886 2887 2888 2889 2890 2891 2892 2893 2894 2895 2896 2897 2898 2899 2900 2901 2902 2903 2904 2905 2906 2907 2908 2909 2910 2911 2912 2913 2914 2915 2916 2917 2918 2919 2920 2921 2922 2923 2924 2925 2926 2927 2928 2929 2930 2931 2932 2933 2934 2935 2936 2937 2938 2939 2940 2941 2942 2943 2944 2945 2946 2947 2948 2949 2950 2951 2952 2953 2954 2955 2956 2957 2958 2959 2960 2961 2962 2963 2964 2965 2966 2967 2968 2969 2970 2971 2972 2973 2974 2975 2976 2977 2978 2979 2980 2981 2982 2983 2984 2985 2986 2987 2988 2989 2990 2991 2992 2993 2994 2995 2996 2997 2998 2999 3000 3001 3002 3003 3004 3005 3006 3007 3008 3009 3010 3011 3012 3013 3014 3015 3016 3017 3018 3019 3020 3021 3022 3023 3024 3025 3026 3027 3028 3029 3030 3031 3032 3033 3034 3035 3036 3037 3038 3039 3040 3041 3042 3043 3044 3045 3046 3047 3048 3049 3050 3051 3052 3053 3054 3055 3056 3057 3058 3059 3060 3061 3062 3063 3064 3065 3066 3067 3068 3069 3070 3071 3072 3073 3074 3075 3076 3077 3078 3079 3080 3081 3082 3083 3084 3085 3086 3087 3088 3089 3090 3091 3092 3093 3094 3095 3096 3097 3098 3099 3100 3101 3102 3103 3104 3105 3106 3107 3108 3109 3110 3111 3112 3113 3114 3115 3116 3117 3118 3119 3120 3121 3122 3123 3124 3125 3126 3127 3128 3129 3130 3131 3132 3133 3134 3135 3136 3137 3138 3139 3140 3141 3142 3143 3144 3145 3146 3147 3148 3149 3150 3151 3152 3153 3154 3155 3156 3157 3158 3159 3160 3161 3162 3163 3164 3165 3166 3167 3168 3169 3170 3171 3172 3173 3174 3175 3176 3177 3178 3179 3180 3181 3182 3183 3184 3185 
</DataArray>
<DataArray type="UInt32" Name="offsets" format="ascii">
3 6 9 12 15 18 21 24 27 30 33 36 39 42 45 48 51 54 57 60 63 66 69 72 75 78 81 84 87 90 93 96 99 102 105 108 111 114 117 120 123 126 129 132 135 138 141 144 147 150 153 156 159 162 165 168 171 174 177 180 183 186 189 192 195 198 201 204 207 210 213 216 219 222 225 228 231 234 237 240 243 246 249 252 255 258 261 264 267 270 273 276 279 282 285 288 291 294 297 300 303 306 309 312 315 318 321 324 327 330 333 336 339 342 345 348 351 354 357 360 363 366 369 372 375 378 381 384 387 390 393 396 399 402 405 408 411 414 417 420 423 426 429 432 435 438 441 444 447 450 453 456 459 462 465 468 471 474 477 480 483 486 489 492 495 498 501 504 507 510 513 516 519 522 525 528 531 534 537 540 543 546 549 552 555 558 561 564 567 570 573 576 579 582 585 588 591 594 597 600 603 606 609 612 615 618 621 624 627 630 633 636 639 642 645 648 651 654 657 660 663 666 669 672 675 678 681 684 687 690 693 696 699 702 705 708 711 714 717 720 723 726 729 732 735 738 741 744 747 750 753 756 759 762 765 768 771 774 777 780 783 786 789 792 795 798 801 804 807 810 813 816 819 822 825 828 831 834 837 840 843 846 849 852 855 858 861 864 867 870 873 876 879 882 885 888 891 894 897 900 903 906 909 912 915 918 921 924 927 930 933 936 939 942 945 948 951 954 957 960 963 966 969 972 975 978 981 984 987 990 993 996 999 1002 1005 1008 1011 1014 1017 1020 1023 1026 1029 1032 1035 1038 1041 1044 1047 1050 1053 1056 1059 1062 1065 1068 1071 1074 1077 1080 1083 1086 1089 1092 1095 1098 1101 1104 1107 1110 1113 1116 1119 1122 1125 1128 1131 1134 1137 1140 1143 1146 1149 1152 1155 1158 1161 1164 1167 1170 1173 1176 1179 1182 1185 1188 1191 1194 1197 1200 1203 1206 1209 1212 1215 1218 1221 1224 1227 1230 1233 1236 1239 1242 1245 1248 1251 1254 1257 1260 1263 1266 1269 1272 1275 1278 1281 1284 1287 1290 1293 1296 1299 1302 1305 1308 1311 1314 1317 1320 1323 1326 1329 1332 1335 1338 1341 1344 1347 1350 1353 1356 1359 1362 1365 1368 1371 1374 1377 1380 1383 1386 1389 1392 1395 1398 1401 1404 1407 1410 1413 1416 1419 1422 1425 1428 1431 1434 1437 1440 1443 1446 1449 1452 1455 1458 1461 1464 1467 1470 1473 1476 1479 1482 1485 1488 1491 1494 1497 1500 1503 1506 1509 1512 1515 1518 1521 1524 1527 1530 1533 1536 1539 1542 1545 1548 1551 1554 1557 1560 1563 1566 1569 1572 1575 1578 1581 1584 1587 1590 1593 1596 1599 1602 1605 1608 1611 1614 1617 1620 1623 1626 1629 1632 1635 1638 1641 1644 1647 1650 1653 1656 1659 1662 1665 1668 1671 1674 1677 1680 1683 1686 1689 1692 1695 1698 1701 1704 1707 1710 1713 1716 1719 1722 1725 1728 1731 1734 1737 1740 1743 1746 1749 1752 1755 1758 1761 1764 1767 1770 1773 1776 1779 1782 1785 1788 1791 1794 1797 1800 1803 1806 1809 1812 1815 1818 1821 1824 1827 1830 1833 1836 1839 1842 1845 1848 1851 1854 1857 1860 1863 1866 1869 1872 1875 1878 1881 1884 1887 1890 1893 1896 1899 1902 1905 1908 1911 1914 1917 1920 1923 1926 1929 1932 1935 1938 1941 1944 1947 1950 1953 1956 1959 1962 1965 1968 1971 1974 1977 1980 1983 1986 1989 1992 1995 1998 2001 2004 2007 2010 2013 2016 2019 2022 2025 2028 2031 2034 2037 2040 2043 2046 2049 2052 2055 2058 2061 2064 2067 2070 2073 2076 2079 2082 2085 2088 2091 2094 2097 2100 2103 2106 2109 2112 2115 2118 2121 2124 2127 2130 2133 2136 2139 2142 2145 2148 2151 2154 2157 2160 2163 2166 2169 2172 2175 2178 2181 2184 2187 2190 2193 2196 2199 2202 2205 2208 2211 2214 2217 2220 2223 2226 2229 2232 2235 2238 2241 2244 2247 2250 2253 2256 2259 2262 2265 2268 2271 2274 2277 2280 2283 2286 2289 2292 2295 2298 2301 2304 2307 2310 2313 2316 2319 2322 2325 2328 2331 2334 2337 2340 2343 2346 2349 2352 2355 2358 2361 2364 2367 2370 2373 2376 2379 2382 2385 2388 2391 2394 2397 2400 2403 2406 2409 2412 2415 2418 2421 2424 2427 2430 2433 2436 2439 2442 2445 2448 2451 2454 2457 2460 2463 2466 2469 2472 2475 2478 2481 2484 2487 2490 2493 2496 2499 2502 2505 2508 2511 2514 2517 2520 2523 2526 2529 2532 2535 2538 2541 2544 2547 2550 2553 2556 2559 2562 2565 2568 2571 2574 2577 2580 2583 2586 2589 2592 2595 2598 2601 2604 2607 2610 2613 2616 2619 2622 2625 2628 2631 2634 2637 2640 2643 2646 2649 2652 2655 2658 2661 2664 2667 2670 2673 2676 2679 2682 2685 2688 2691 2694 2697 2700 2703 2706 2709 2712 2715 2718 2721 2724 2727 2730 2733 2736 2739 2742 2745 2748 2751 2754 2757 2760 2763 2766 2769 2772 2775 2778 2781 2784 2787 2790 2793 2796 2799 2802 2805 2808 2811 2814 2817 2820 2823 2826 2829 2832 2835 2838 2841 2844 2847 2850 2853 2856 2859 2862 2865 2868 2871 2874 2877 2880 2883 2886 2889 2892 2895 2898 2901 2904 2907 2910 2913 2916 2919 2922 2925 2928 2931 2934 2937 2940 2943 2946 2949 2952 2955 2958 2961 2964 2967 2970 2973 2976 2979 2982 2985 2988 2991 2994 2997 3000 3003 3006 3009 3012 3015 3018 3021 3024 3027 3030 3033 3036 3039 3042 3045 3048 3051 3054 3057 3060 3063 3066 3069 3072 3075 3078 3081 3084 3087 3090 3093 3096 3099 3102 3105 3108 3111 3114 3117 3120 3123 3126 3129 3132 3135 3138 3141 3144 3147 3150 3153 3156 3159 3162 3165 3168 3171 3174 3177 3180 3183 3186 
</DataArray>
<DataArray type="UInt32" Name="types" format="ascii">
5 5 5 5 5 5 5 5 5 5 5 5 5 5 5 5 5 5 5 5 5 5 5 5 5 5 5 5 5 5 5 5 5 5 5 5 5 5 5 5 5 5 5 5 5 5 5 5 5 5 5 5 5 5 5 5 5 5 5 5 5 5 5 5 5 5 5 5 5 5 5 5 5 5 5 5 5 5 5 5 5 5 5 5 5 5 5 5 5 5 5 5 5 5 5 5 5 5 5 5 5 5 5 5 5 5 5 5 5 5 5 5 5 5 5 5 5 5 5 5 5 5 5 5 5 5 5 5 5 5 5 5 5 5 5 5 5 5 5 5 5 5 5 5 5 5 5 5 5 5 5 5 5 5 5 5 5 5 5 5 5 5 5 5 5 5 5 5 5 5 5 5 5 5 5 5 5 5 5 5 5 5 5 5 5 5 5 5 5 5 5 5 5 5 5 5 5 5 5 5 5 5 5 5 5 5 5 5 5 5 5 5 5 5 5 5 5 5 5 5 5 5 5 5 5 5 5 5 5 5 5 5 5 5 5 5 5 5 5 5 5 5 5 5 5 5 5 5 5 5 5 5 5 5 5 5 5 5 5 5 5 5 5 5 5 5 5 5 5 5 5 5 5 5 5 5 5 5 5 5 5 5 5 5 5 5 5 5 5 5 5 5 5 5 5 5 5 5 5 5 5 5 5 5 5 5 5 5 5 5 5 5 5 5 5 5 5 5 5 5 5 5 5 5 5 5 5 5 5 5 5 5 5 5 5 5 5 5 5 5 5 5 5 5 5 5 5 5 5 5 5 5 5 5 5 5 5 5 5 5 5 5 5 5 5 5 5 5 5 5 5 5 5 5 5 5 5 5 5 5 5 5 5 5 5 5 5 5 5 5 5 5 5 5 5 5 5 5 5 5 5 5 5 5 5 5 5 5 5 5 5 5 5 5 5 5 5 5 5 5 5 5 5 5 5 5 5 5 5 5 5 5 5 5 5 5 5 5 5 5 5 5 5 5 5 5 5 5 5 5 5 5 5 5 5 5 5 5 5 5 5 5 5 5 5 5 5 5 5 5 5 5 5 5 5 5 5 5 5 5 5 5 5 5 5 5 5 5 5 5 5 5 5 5 5 5 5 5 5 5 5 5 5 5 5 5 5 5 5 5 5 5 5 5 5 5 5 5 5 5 5 5 5 5 5 5 5 5 5 5 5 5 5 5 5 5 5 5 5 5 5 5 5 5 5 5 5 5 5 5 5 5 5 5 5 5 5 5 5 5 5 5 5 5 5 5 5 5 5 5 5 5 5 5 5 5 5 5 5 5 5 5 5 5 5 5 5 5 5 5 5 5 5 5 5 5 5 5 5 5 5 5 5 5 5 5 5 5 5 5 5 5 5 5 5 5 5 5 5 5 5 5 5 5 5 5 5 5 5 5 5 5 5 5 5 5 5 5 5 5 5 5 5 5 5 5 5 5 5 5 5 5 5 5 5 5 5 5 5 5 5 5 5 5 5 5 5 5 5 5 5 5 5 5 5 5 5 5 5 5 5 5 5 5 5 5 5 5 5 5 5 5 5 5 5 5 5 5 5 5 5 5 5 5 5 5 5 5 5 5 5 5 5 5 5 5 5 5 5 5 5 5 5 5 5 5 5 5 5 5 5 5 5 5 5 5 5 5 5 5 5 5 5 5 5 5 5 5 5 5 5 5 5 5 5 5 5 5 5 5 5 5 5 5 5 5 5 5 5 5 5 5 5 5 5 5 5 5 5 5 5 5 5 5 5 5 5 5 5 5 5 5 5 5 5 5 5 5 5 5 5 5 5 5 5 5 5 5 5 5 5 5 5 5 5 5 5 5 5 5 5 5 5 5 5 5 5 5 5 5 5 5 5 5 5 5 5 5 5 5 5 5 5 5 5 5 5 5 5 5 5 5 5 5 5 5 5 5 5 5 5 5 5 5 5 5 5 5 5 5 5 5 5 5 5 5 5 5 5 5 5 5 5 5 5 5 5 5 5 5 5 5 5 5 5 5 5 5 5 5 5 5 5 5 5 5 5 5 5 5 5 5 5 5 5 5 5 5 5 5 5 5 5 5 5 5 5 5 5 5 5 5 5 5 5 5 5 5 5 5 5 5 5 5 5 5 5 5 5 5 5 5 5 5 5 5 5 5 5 5 5 5 5 5 5 5 5 5 5 5 5 5 5 5 5 5 5 5 5 5 5 5 5 5 5 5 5 5 5 5 5 5 5 5 5 5 5 5 5 5 5 5 5 5 5 5 5 5 5 5 5 5 5 5 5 5 5 5 5 5 5 5 5 5 5 5 5 5 5 5 5 5 5 5 5 5 5 5 5 5 5 5 5 5 5 5 5 5 5 5 5 5 5 5 5 5 5 5 5 5 5 5 
</DataArray>
</Cells>
<PointData Scalars="" Vectors="displacement," Tensors="">
<DataArray type="Float64" Name="displacement" NumberOfComponents="3" format="ascii">
7.198678932578545e-05 -3.1263822583042453e-07 0 0.14283483928500937 -3.3082298618239781e-06 0 0.10085682305357981 -0.0012359743618489648 0 7.198678932578545e-05 -3.1263822583042453e-07 0 0.10085682305357981 -0.0012359743618489648 0 0.00015549446043321179 -2.2380678241197785e-06 0 0.14283483928500937 -3.3082298618239781e-06 0 0.10085682305357981 -0.0012359743618489648 0 0.20867996341936768 -0.0020556942676858156 0 0.10085682305357981 -0.0012359743618489648 0 0.12108862784433319 -0.0017155993712258573 0 0.20867996341936768 -0.0020556942676858156 0 0.10085682305357981 -0.0012359743618489648 0 0.00015549446043321179 -2.2380678241197785e-06 0 0.12108862784433319 -0.0017155993712258573 0 0.00015549446043321179 -2.2380678241197785e-06 0 0.00012780865528288097 -1.0134549139592578e-06 0 0.12108862784433319 -0.0017155993712258573 0 0.08611094803595469 -0.00030967054106450929 0 0.00012780865528288097 -1.0134549139592578e-06 0 0.00013183643047997854 -4.7658667955223576e-07 0 0.08611094803595469 -0.00030967054106450929 0 0.00012780865528288097 -1.0134549139592578e-06 0 0.12108862784433319 -0.0017155993712258573 0 0.08611094803595469 -0.00030967054106450929 0 0.12108862784433319 -0.0017155993712258573 0 0.19494776749434845 -5.3509477681110181e-05 0 0.12108862784433319 -0.0017155993712258573 0 0.26265286083002254 -0.0018950573623849 0 0.20867996341936768 -0.0020556942676858156 0 0.12108862784433319 -0.0017155993712258573 0 0.19494776749434845 -5.3509477681110181e-05 0 0.26265286083002254 -0.0018950573623849 0 0.19494776749434845 -5.3509477681110181e-05 0 0.26265286083002254 -0.0018950573623849 0 0.32318358145489506 0.00088695138854981306 0 0.26265286083002254 -0.0018950573623849 0 0.32318358145489506 0.00088695138854981306 0 0.39623788752542927 -0.0020333724347600707 0 0.26265286083002254 -0.0018950573623849 0 0.34020684370940885 -0.0023934543635454569 0 0.39623788752542927 -0.0020333724347600707 0 0.26265286083002254 -0.0018950573623849 0 0.34020684370940885 -0.0023934543635454569 0 0.20867996341936768 -0.0020556942676858156 0 0.34020684370940885 -0.0023934543635454569 0 0.28571346666684255 -4.1075262153568414e-06 0 0.20867996341936768 -0.0020556942676858156 0 0.34020684370940885 -0.0023934543635454569 0 0.28571346666684255 -4.1075262153568414e-06 0 0.42855940040890705 -4.7095023167295163e-06 0 0.14283483928500937 -3.3082298618239781e-06 0 0.28571346666684255 -4.1075262153568414e-06 0 0.20867996341936768 -0.0020556942676858156 0 0.083764864906363617 0.0028008916714642573 0 0.19184277164203509 0.0060651603779313876 0 0.1185010886544912 0.0057414489265992848 0 0.00013082123078055009 2.7051669709673089e-06 0 0.083764864906363617 0.0028008916714642573 0 0.1185010886544912 0.0057414489265992848 0 0.083764864906363617 0.0028008916714642573 0 0.0001296745781906147 2.1386936271272661e-06 0 0.11492822416407107 0.0016206715395944747 0 0.00013082123078055009 2.7051669709673089e-06 0 0.083764864906363617 0.0028008916714642573 0 0.0001296745781906147 2.1386936271272661e-06 0 0.083764864906363617 0.0028008916714642573 0 0.11492822416407107 0.0016206715395944747 0 0.19184277164203509 0.0060651603779313876 0 0.0001296745781906147 2.1386936271272661e-06 0 0.11492822416407107 0.0016206715395944747 0 0.00013183643047997854 -4.7658667955223576e-07 0 0.08611094803595469 -0.00030967054106450929 0 0.11492822416407107 0.0016206715395944747 0 0.00013183643047997854 -4.7658667955223576e-07 0 0.08611094803595469 -0.00030967054106450929 0 0.19494776749434845 -5.3509477681110181e-05 0 0.11492822416407107 0.0016206715395944747 0 0.19494776749434845 -5.3509477681110181e-05 0 0.11492822416407107 0.0016206715395944747 0 0.25704358929168841 0.0040154715096498376 0 0.32318358145489506 0.00088695138854981306 0 0.25704358929168841 0.0040154715096498376 0 0.38153883873191918 0.0058274465263717396 0 0.19494776749434845 -5.3509477681110181e-05 0 0.32318358145489506 0.00088695138854981306 0 0.25704358929168841 0.0040154715096498376 0 0.25704358929168841 0.0040154715096498376 0 0.32011512734831249 0.0094531545937327124 0 0.38153883873191918 0.0058274465263717396 0 0.11492822416407107 0.0016206715395944747 0 0.25704358929168841 0.0040154715096498376 0 0.19184277164203509 0.0060651603779313876 0 0.25704358929168841 0.0040154715096498376 0 0.19184277164203509 0.0060651603779313876 0 0.32011512734831249 0.0094531545937327124 0 0.32011512734831249 0.0094531545937327124 0 0.38899857522294162 0.015436108904758094 0 0.25989870433410117 0.011160673980023317 0 0.19184277164203509 0.0060651603779313876 0 0.32011512734831249 0.0094531545937327124 0 0.25989870433410117 0.011160673980023317 0 0.19184277164203509 0.0060651603779313876 0 0.25989870433410117 0.011160673980023317 0 0.1185010886544912 0.0057414489265992848 0 0.44400209444794803 0.012018110013701259 0 0.51394001449125359 0.018256363678328204 0 0.38899857522294162 0.015436108904758094 0 0.32011512734831249 0.0094531545937327124 0 0.44400209444794803 0.012018110013701259 0 0.38899857522294162 0.015436108904758094 0 0.32011512734831249 0.0094531545937327124 0 0.44400209444794803 0.012018110013701259 0 0.38153883873191918 0.0058274465263717396 0 0.44400209444794803 0.012018110013701259 0 0.38153883873191918 0.0058274465263717396 0 0.50178024517740816 0.0068804236723698136 0 0.32318358145489506 0.00088695138854981306 0 0.38153883873191918 0.0058274465263717396 0 0.44743664306564707 0.0014259303723190976 0 0.38153883873191918 0.0058274465263717396 0 0.44743664306564707 0.0014259303723190976 0 0.50178024517740816 0.0068804236723698136 0 0.56659094607558502 0.001638035042748199 0 0.61839361549193195 0.0067365178337371609 0 0.50178024517740816 0.0068804236723698136 0 0.44743664306564707 0.0014259303723190976 0 0.56659094607558502 0.001638035042748199 0 0.50178024517740816 0.0068804236723698136 0 0.56659094607558502 0.001638035042748199 0 0.61839361549193195 0.0067365178337371609 0 0.67929501115890134 0.0023269539568165297 0 0.61839361549193195 0.0067365178337371609 0 0.50178024517740816 0.0068804236723698136 0 0.56268428651677371 0.012882572983097638 0 0.44400209444794803 0.012018110013701259 0 0.50178024517740816 0.0068804236723698136 0 0.56268428651677371 0.012882572983097638 0 0.61839361549193195 0.0067365178337371609 0 0.56268428651677371 0.012882572983097638 0 0.67628740282648581 0.010438919244944828 0 0.56268428651677371 0.012882572983097638 0 0.67628740282648581 0.010438919244944828 0 0.63605550679091727 0.018146498832484859 0 0.44400209444794803 0.012018110013701259 0 0.56268428651677371 0.012882572983097638 0 0.51394001449125359 0.018256363678328204 0 0.56268428651677371 0.012882572983097638 0 0.51394001449125359 0.018256363678328204 0 0.63605550679091727 0.018146498832484859 0 0.47720409808532266 -0.0028367342709235831 0 0.42855940040890705 -4.7095023167295163e-06 0 0.57141516216550803 -6.7245530024876042e-06 0 0.34020684370940885 -0.0023934543635454569 0 0.47720409808532266 -0.0028367342709235831 0 0.42855940040890705 -4.7095023167295163e-06 0 0.34020684370940885 -0.0023934543635454569 0 0.47720409808532266 -0.0028367342709235831 0 0.39623788752542927 -0.0020333724347600707 0 0.32318358145489506 0.00088695138854981306 0 0.44743664306564707 0.0014259303723190976 0 0.39623788752542927 -0.0020333724347600707 0 0.44743664306564707 0.0014259303723190976 0 0.39623788752542927 -0.0020333724347600707 0 0.52197979397474026 -0.0022252297523205912 0 0.47720409808532266 -0.0028367342709235831 0 0.39623788752542927 -0.0020333724347600707 0 0.52197979397474026 -0.0022252297523205912 0 0.52197979397474026 -0.0022252297523205912 0 0.64264627149093689 -0.0020724419370029413 0 0.60883339227429989 -0.0034846049570617546 0 0.56659094607558502 0.001638035042748199 0 0.52197979397474026 -0.0022252297523205912 0 0.64264627149093689 -0.0020724419370029413 0 0.44743664306564707 0.0014259303723190976 0 0.56659094607558502 0.001638035042748199 0 0.52197979397474026 -0.0022252297523205912 0 0.56659094607558502 0.001638035042748199 0 0.64264627149093689 -0.0020724419370029413 0 0.67929501115890134 0.0023269539568165297 0 0.64264627149093689 -0.0020724419370029413 0 0.60883339227429989 -0.0034846049570617546 0 0.73398052843988559 -0.0036326848829333395 0 0.47720409808532266 -0.0028367342709235831 0 0.52197979397474026 -0.0022252297523205912 0 0.60883339227429989 -0.0034846049570617546 0 0.60883339227429989 -0.0034846049570617546 0 0.57141516216550803 -6.7245530024876042e-06 0 0.71425871701950083 -5.0505577742857837e-06 0 0.47720409808532266 -0.0028367342709235831 0 0.60883339227429989 -0.0034846049570617546 0 0.57141516216550803 -6.7245530024876042e-06 0 0.60883339227429989 -0.0034846049570617546 0 0.71425871701950083 -5.0505577742857837e-06 0 0.73398052843988559 -0.0036326848829333395 0 0.71425871701950083 -5.0505577742857837e-06 0 0.73398052843988559 -0.0036326848829333395 0 0.85712791675935607 -1.8357390942629791e-05 0 0.73398052843988559 -0.0036326848829333395 0 0.84118801228191253 -0.00078131686336542017 0 0.7698586528425394 0.0011233734639622117 0 0.84118801228191253 -0.00078131686336542017 0 0.89861303490267264 0.01424410429156979 0 0.7698586528425394 0.0011233734639622117 0 0.84118801228191253 -0.00078131686336542017 0 0.85712791675935607 -1.8357390942629791e-05 0 0.99988313268131324 3.9346415967409388e-05 0 0.73398052843988559 -0.0036326848829333395 0 0.84118801228191253 -0.00078131686336542017 0 0.85712791675935607 -1.8357390942629791e-05 0 0.84118801228191253 -0.00078131686336542017 0 0.99988313268131324 3.9346415967409388e-05 0 0.89861303490267264 0.01424410429156979 0 0.89861303490267264 0.01424410429156979 0 1.0516275621089881 0.01029743363682822 0 1.0278226392295566 0.010839965781567594 0 0.99988313268131324 3.9346415967409388e-05 0 0.89861303490267264 0.01424410429156979 0 1.0516275621089881 0.01029743363682822 0 0.99988313268131324 3.9346415967409388e-05 0 1.0516275621089881 0.01029743363682822 0 1.1428389970347625 1.5163973997372949e-05 0 1.0053983403321365 0.0053016258435064287 0 0.85285770391322691 0.012331318696260992 0 0.83138206811015003 0.0062106427526138512 0 1.0053983403321365 0.0053016258435064287 0 1.0278226392295566 0.010839965781567594 0 0.85285770391322691 0.012331318696260992 0 0.89861303490267264 0.01424410429156979 0 1.0278226392295566 0.010839965781567594 0 0.85285770391322691 0.012331318696260992 0 0.89861303490267264 0.01424410429156979 0 0.85285770391322691 0.012331318696260992 0 0.7698586528425394 0.0011233734639622117 0 0.85285770391322691 0.012331318696260992 0 0.77068971417974841 0.0051149465979367465 0 0.83138206811015003 0.0062106427526138512 0 0.85285770391322691 0.012331318696260992 0 0.77068971417974841 0.0051149465979367465 0 0.7698586528425394 0.0011233734639622117 0 0.77068971417974841 0.0051149465979367465 0 0.7698586528425394 0.0011233734639622117 0 0.67929501115890134 0.0023269539568165297 0 0.64264627149093689 -0.0020724419370029413 0 0.73398052843988559 -0.0036326848829333395 0 0.7698586528425394 0.0011233734639622117 0 0.64264627149093689 -0.0020724419370029413 0 0.7698586528425394 0.0011233734639622117 0 0.67929501115890134 0.0023269539568165297 0 0.61839361549193195 0.0067365178337371609 0 0.67929501115890134 0.0023269539568165297 0 0.73546383443383456 0.0048099911497961247 0 0.61839361549193195 0.0067365178337371609 0 0.73546383443383456 0.0048099911497961247 0 0.67628740282648581 0.010438919244944828 0 0.77068971417974841 0.0051149465979367465 0 0.73546383443383456 0.0048099911497961247 0 0.83138206811015003 0.0062106427526138512 0 0.77068971417974841 0.0051149465979367465 0 0.67929501115890134 0.0023269539568165297 0 0.73546383443383456 0.0048099911497961247 0 0.67628740282648581 0.010438919244944828 0 0.76277195096683614 0.01044666376868263 0 0.63605550679091727 0.018146498832484859 0 0.73546383443383456 0.0048099911497961247 0 0.76604117434968266 0.0037960862657067931 0 0.82841871798458511 -0.00067426314013268533 0 0.73546383443383456 0.0048099911497961247 0 0.67628740282648581 0.010438919244944828 0 0.76604117434968266 0.0037960862657067931 0 0.76604117434968266 0.0037960862657067931 0 0.84437460365387973 -0.0078160320234946026 0 0.76277195096683614 0.01044666376868263 0 0.67628740282648581 0.010438919244944828 0 0.76604117434968266 0.0037960862657067931 0 0.76277195096683614 0.01044666376868263 0 0.76604117434968266 0.0037960862657067931 0 0.84437460365387973 -0.0078160320234946026 0 0.82841871798458511 -0.00067426314013268533 0 0.82841871798458511 -0.00067426314013268533 0 1.0048520484904178 -0.01346435334460783 0 0.99897629941926469 -0.0035784050506297948 0 0.84437460365387973 -0.0078160320234946026 0 0.82841871798458511 -0.00067426314013268533 0 1.0048520484904178 -0.01346435334460783 0 0.84437460365387973 -0.0078160320234946026 0 1.0048520484904178 -0.01346435334460783 0 1.0255408541956046 -0.022726519447639433 0 0.73546383443383456 0.0048099911497961247 0 0.82841871798458511 -0.00067426314013268533 0 0.83138206811015003 0.0062106427526138512 0 0.82841871798458511 -0.00067426314013268533 0 0.83138206811015003 0.0062106427526138512 0 0.99897629941926469 -0.0035784050506297948 0 1.0053983403321365 0.0053016258435064287 0 0.83138206811015003 0.0062106427526138512 0 0.99897629941926469 -0.0035784050506297948 0 1.0053983403321365 0.0053016258435064287 0 0.99897629941926469 -0.0035784050506297948 0 1.1635392313409116 -0.0029279866454356108 0 0.99897629941926469 -0.0035784050506297948 0 1.1635392313409116 -0.0029279866454356108 0 1.1678238844623512 -0.014824638563730933 0 1.1635392313409116 -0.0029279866454356108 0 1.1678238844623512 -0.014824638563730933 0 1.3286241634237053 -0.011901852562443799 0 1.0048520484904178 -0.01346435334460783 0 1.1781612246355033 -0.02703477825600404 0 1.0255408541956046 -0.022726519447639433 0 1.0048520484904178 -0.01346435334460783 0 0.99897629941926469 -0.0035784050506297948 0 1.1678238844623512 -0.014824638563730933 0 1.0048520484904178 -0.01346435334460783 0 1.1678238844623512 -0.014824638563730933 0 1.1781612246355033 -0.02703477825600404 0 1.1678238844623512 -0.014824638563730933 0 1.1781612246355033 -0.02703477825600404 0 1.3334257457732903 -0.025596334696266061 0 1.1781612246355033 -0.02703477825600404 0 1.3334257457732903 -0.025596334696266061 0 1.3415602419740369 -0.037796059126179782 0 1.1678238844623512 -0.014824638563730933 0 1.3334257457732903 -0.025596334696266061 0 1.3286241634237053 -0.011901852562443799 0 1.3334257457732903 -0.025596334696266061 0 1.4928317265079358 -0.020179643592887868 0 1.4935816683310237 -0.033694856002430329 0 1.3334257457732903 -0.025596334696266061 0 1.4928317265079358 -0.020179643592887868 0 1.3286241634237053 -0.011901852562443799 0 1.3334257457732903 -0.025596334696266061 0 1.4935816683310237 -0.033694856002430329 0 1.3415602419740369 -0.037796059126179782 0 1.1635392313409116 -0.0029279866454356108 0 1.3286241634237053 -0.011901852562443799 0 1.328412423962779 -0.0001864831028588429 0 1.4928317265079358 -0.020179643592887868 0 1.3286241634237053 -0.011901852562443799 0 1.4912169727452098 -0.006723029143228536 0 1.3286241634237053 -0.011901852562443799 0 1.4912169727452098 -0.006723029143228536 0 1.328412423962779 -0.0001864831028588429 0 1.4912169727452098 -0.006723029143228536 0 1.328412423962779 -0.0001864831028588429 0 1.4933396322241472 0.0034111946522727707 0 1.328412423962779 -0.0001864831028588429 0 1.3355742347140569 0.0067660703311586412 0 1.172942337540299 0.00602971049240525 0 1.3355742347140569 0.0067660703311586412 0 1.4933396322241472 0.0034111946522727707 0 1.498022965570138 0.006580650191543253 0 1.328412423962779 -0.0001864831028588429 0 1.3355742347140569 0.0067660703311586412 0 1.4933396322241472 0.0034111946522727707 0 1.498022965570138 0.006580650191543253 0 1.4285619589823533 1.1983237079894909e-05 0 1.3433470863411023 0.0054722813740536308 0 1.498022965570138 0.006580650191543253 0 1.4285619589823533 1.1983237079894909e-05 0 1.5714376837923245 1.1532767010325268e-05 0 1.4285619589823533 1.1983237079894909e-05 0 1.3433470863411023 0.0054722813740536308 0 1.2856981511441676 1.3346833786173539e-05 0 1.3355742347140569 0.0067660703311586412 0 1.3433470863411023 0.0054722813740536308 0 1.1913081912858088 0.0092199616603383348 0 1.3355742347140569 0.0067660703311586412 0 1.498022965570138 0.006580650191543253 0 1.3433470863411023 0.0054722813740536308 0 1.1913081912858088 0.0092199616603383348 0 1.2856981511441676 1.3346833786173539e-05 0 1.1428389970347625 1.5163973997372949e-05 0 1.3433470863411023 0.0054722813740536308 0 1.1913081912858088 0.0092199616603383348 0 1.2856981511441676 1.3346833786173539e-05 0 1.0516275621089881 0.01029743363682822 0 1.1913081912858088 0.0092199616603383348 0 1.1428389970347625 1.5163973997372949e-05 0 1.0516275621089881 0.01029743363682822 0 1.0278226392295566 0.010839965781567594 0 1.1913081912858088 0.0092199616603383348 0 1.0278226392295566 0.010839965781567594 0 1.1913081912858088 0.0092199616603383348 0 1.172942337540299 0.00602971049240525 0 1.0053983403321365 0.0053016258435064287 0 1.1635392313409116 -0.0029279866454356108 0 1.172942337540299 0.00602971049240525 0 1.0053983403321365 0.0053016258435064287 0 1.0278226392295566 0.010839965781567594 0 1.172942337540299 0.00602971049240525 0 1.1635392313409116 -0.0029279866454356108 0 1.328412423962779 -0.0001864831028588429 0 1.172942337540299 0.00602971049240525 0 1.3355742347140569 0.0067660703311586412 0 1.1913081912858088 0.0092199616603383348 0 1.172942337540299 0.00602971049240525 0 1.33232989747967 -0.026080237028710939 0 1.375640917555347 -0.037486545881559835 0 1.2546362595651683 -0.033837156962247733 0 1.33232989747967 -0.026080237028710939 0 1.2161529851281681 -0.018587817991557655 0 1.2546362595651683 -0.033837156962247733 0 1.2161529851281681 -0.018587817991557655 0 1.2546362595651683 -0.033837156962247733 0 1.1542370877284951 -0.024499633861591315 0 1.33232989747967 -0.026080237028710939 0 1.2161529851281681 -0.018587817991557655 0 1.2953861848352604 -0.011143325262911048 0 1.2161529851281681 -0.018587817991557655 0 1.2953861848352604 -0.011143325262911048 0 1.2120766930627684 -0.0068660958436734549 0 1.2953861848352604 -0.011143325262911048 0 1.2402716503390574 1.4981200928796511e-05 0 1.3486205983019106 0.00057991348024671169 0 1.2953861848352604 -0.011143325262911048 0 1.2120766930627684 -0.0068660958436734549 0 1.2402716503390574 1.4981200928796511e-05 0 1.2953861848352604 -0.011143325262911048 0 1.3952783999206748 -0.014112000622051578 0 1.3486205983019106 0.00057991348024671169 0 1.33232989747967 -0.026080237028710939 0 1.2953861848352604 -0.011143325262911048 0 1.3952783999206748 -0.014112000622051578 0 1.3952783999206748 -0.014112000622051578 0 1.3486205983019106 0.00057991348024671169 0 1.4491553352389948 0.00063371674889317858 0 1.3952783999206748 -0.014112000622051578 0 1.5000200041034211 -0.014707277005580372 0 1.4491553352389948 0.00063371674889317858 0 1.3952783999206748 -0.014112000622051578 0 1.5000200041034211 -0.014707277005580372 0 1.4427823028365816 -0.02828519882249627 0 1.5000200041034211 -0.014707277005580372 0 1.4427823028365816 -0.02828519882249627 0 1.5556586400395218 -0.028225470298951026 0 1.33232989747967 -0.026080237028710939 0 1.3952783999206748 -0.014112000622051578 0 1.4427823028365816 -0.02828519882249627 0 1.33232989747967 -0.026080237028710939 0 1.4427823028365816 -0.02828519882249627 0 1.375640917555347 -0.037486545881559835 0 1.4427823028365816 -0.02828519882249627 0 1.5000102543527569 -0.038882380433964706 0 1.5556586400395218 -0.028225470298951026 0 1.4427823028365816 -0.02828519882249627 0 1.375640917555347 -0.037486545881559835 0 1.5000102543527569 -0.038882380433964706 0 1.5000102543527569 -0.038882380433964706 0 1.4302988114047601 -0.043572947348666256 0 1.5698036159838495 -0.043540703085849043 0 1.375640917555347 -0.037486545881559835 0 1.5000102543527569 -0.038882380433964706 0 1.4302988114047601 -0.043572947348666256 0 1.4302988114047601 -0.043572947348666256 0 1.4973195668883383 -0.044219771916795679 0 1.5698036159838495 -0.043540703085849043 0 1.4302988114047601 -0.043572947348666256 0 1.3455089051594717 -0.042967953876289045 0 1.2913478287790141 -0.040806930553967717 0 1.375640917555347 -0.037486545881559835 0 1.4302988114047601 -0.043572947348666256 0 1.2913478287790141 -0.040806930553967717 0 1.4935816683310237 -0.033694856002430329 0 1.4973195668883383 -0.044219771916795679 0 1.3415602419740369 -0.037796059126179782 0 1.4973195668883383 -0.044219771916795679 0 1.3455089051594717 -0.042967953876289045 0 1.3415602419740369 -0.037796059126179782 0 1.4302988114047601 -0.043572947348666256 0 1.4973195668883383 -0.044219771916795679 0 1.3455089051594717 -0.042967953876289045 0 1.3455089051594717 -0.042967953876289045 0 1.3415602419740369 -0.037796059126179782 0 1.190670018122052 -0.037471241911602088 0 1.1781612246355033 -0.02703477825600404 0 1.3415602419740369 -0.037796059126179782 0 1.190670018122052 -0.037471241911602088 0 1.3455089051594717 -0.042967953876289045 0 1.190670018122052 -0.037471241911602088 0 1.2913478287790141 -0.040806930553967717 0 1.190670018122052 -0.037471241911602088 0 1.1461831991424392 -0.032480107350704349 0 1.0454655512666597 -0.027018553587041607 0 1.190670018122052 -0.037471241911602088 0 1.0255408541956046 -0.022726519447639433 0 1.0454655512666597 -0.027018553587041607 0 1.1781612246355033 -0.02703477825600404 0 1.190670018122052 -0.037471241911602088 0 1.0255408541956046 -0.022726519447639433 0 1.375640917555347 -0.037486545881559835 0 1.2913478287790141 -0.040806930553967717 0 1.2546362595651683 -0.033837156962247733 0 1.190670018122052 -0.037471241911602088 0 1.2913478287790141 -0.040806930553967717 0 1.1461831991424392 -0.032480107350704349 0 1.1461831991424392 -0.032480107350704349 0 1.2546362595651683 -0.033837156962247733 0 1.1542370877284951 -0.024499633861591315 0 1.2913478287790141 -0.040806930553967717 0 1.1461831991424392 -0.032480107350704349 0 1.2546362595651683 -0.033837156962247733 0 1.1542370877284951 -0.024499633861591315 0 0.99021587161303082 -0.0065909758437313051 0 1.0952676510883261 0.0010668371536977639 0 1.1461831991424392 -0.032480107350704349 0 1.1542370877284951 -0.024499633861591315 0 0.99021587161303082 -0.0065909758437313051 0 1.1461831991424392 -0.032480107350704349 0 0.99021587161303082 -0.0065909758437313051 0 1.0454655512666597 -0.027018553587041607 0 0.99021587161303082 -0.0065909758437313051 0 0.93944418356305104 0.013255768291301925 0 1.0952676510883261 0.0010668371536977639 0 0.84437460365387973 -0.0078160320234946026 0 1.0255408541956046 -0.022726519447639433 0 0.88533583267411919 -0.012461656410845783 0 0.99021587161303082 -0.0065909758437313051 0 1.0454655512666597 -0.027018553587041607 0 0.88533583267411919 -0.012461656410845783 0 1.0255408541956046 -0.022726519447639433 0 1.0454655512666597 -0.027018553587041607 0 0.88533583267411919 -0.012461656410845783 0 0.99021587161303082 -0.0065909758437313051 0 0.88533583267411919 -0.012461656410845783 0 0.82412874492360177 0.012576354857516249 0 0.84437460365387973 -0.0078160320234946026 0 0.88533583267411919 -0.012461656410845783 0 0.76277195096683614 0.01044666376868263 0 0.88533583267411919 -0.012461656410845783 0 0.76277195096683614 0.01044666376868263 0 0.82412874492360177 0.012576354857516249 0 0.82412874492360177 0.012576354857516249 0 0.72037580123001865 0.021415672444659559 0 0.83366662629252664 0.018615550058595907 0 0.76277195096683614 0.01044666376868263 0 0.82412874492360177 0.012576354857516249 0 0.72037580123001865 0.021415672444659559 0 0.76277195096683614 0.01044666376868263 0 0.72037580123001865 0.021415672444659559 0 0.63605550679091727 0.018146498832484859 0 0.93944418356305104 0.013255768291301925 0 0.83366662629252664 0.018615550058595907 0 0.80964176991492032 0.020245243743923398 0 0.99021587161303082 -0.0065909758437313051 0 0.93944418356305104 0.013255768291301925 0 0.83366662629252664 0.018615550058595907 0 0.99021587161303082 -0.0065909758437313051 0 0.82412874492360177 0.012576354857516249 0 0.83366662629252664 0.018615550058595907 0 0.72037580123001865 0.021415672444659559 0 0.83366662629252664 0.018615550058595907 0 0.68795667753420175 0.024743852595567949 0 0.83366662629252664 0.018615550058595907 0 0.80964176991492032 0.020245243743923398 0 0.68795667753420175 0.024743852595567949 0 0.80964176991492032 0.020245243743923398 0 0.95343008128815321 0.010180306948262972 0 0.76808929303992035 0.015369060984377876 0 0.95343008128815321 0.010180306948262972 0 0.8742245753637975 0.0067930302454647755 0 0.76808929303992035 0.015369060984377876 0 0.95343008128815321 0.010180306948262972 0 1.1371443648147896 0.00097198545691482919 0 1.0241975522380466 0.0036038488265150775 0 0.93944418356305104 0.013255768291301925 0 0.80964176991492032 0.020245243743923398 0 0.95343008128815321 0.010180306948262972 0 0.93944418356305104 0.013255768291301925 0 0.95343008128815321 0.010180306948262972 0 1.0952676510883261 0.0010668371536977639 0 0.95343008128815321 0.010180306948262972 0 1.0952676510883261 0.0010668371536977639 0 1.1371443648147896 0.00097198545691482919 0 1.2161529851281681 -0.018587817991557655 0 1.1371443648147896 0.00097198545691482919 0 1.2120766930627684 -0.0068660958436734549 0 1.2161529851281681 -0.018587817991557655 0 1.0952676510883261 0.0010668371536977639 0 1.1371443648147896 0.00097198545691482919 0 1.2161529851281681 -0.018587817991557655 0 1.1542370877284951 -0.024499633861591315 0 1.0952676510883261 0.0010668371536977639 0 1.2120766930627684 -0.0068660958436734549 0 1.1543257109017864 3.7258410853427175e-05 0 1.2402716503390574 1.4981200928796511e-05 0 1.1371443648147896 0.00097198545691482919 0 1.2120766930627684 -0.0068660958436734549 0 1.1543257109017864 3.7258410853427175e-05 0 1.1371443648147896 0.00097198545691482919 0 1.1543257109017864 3.7258410853427175e-05 0 1.0241975522380466 0.0036038488265150775 0 1.1543257109017864 3.7258410853427175e-05 0 0.99175334755828382 6.4823820995005255e-05 0 1.1544933056125328 4.5943558387998082e-05 0 0.99175334755828382 6.4823820995005255e-05 0 1.0241975522380466 0.0036038488265150775 0 0.8742245753637975 0.0067930302454647755 0 1.1543257109017864 3.7258410853427175e-05 0 0.99175334755828382 6.4823820995005255e-05 0 1.0241975522380466 0.0036038488265150775 0 0.95343008128815321 0.010180306948262972 0 1.0241975522380466 0.0036038488265150775 0 0.8742245753637975 0.0067930302454647755 0 0.99175334755828382 6.4823820995005255e-05 0 0.8742245753637975 0.0067930302454647755 0 0.79588141865084128 0.00032493395518568767 0 0.8742245753637975 0.0067930302454647755 0 0.79588141865084128 0.00032493395518568767 0 0.7035108773872305 0.0085272716698289053 0 0.79588141865084128 0.00032493395518568767 0 0.62533551395916043 0.00036837352676743199 0 0.7035108773872305 0.0085272716698289053 0 0.62533551395916043 0.00036837352676743199 0 0.7035108773872305 0.0085272716698289053 0 0.53603003885319522 0.0084368979448305875 0 0.7035108773872305 0.0085272716698289053 0 0.60518193303507228 0.016131240759140547 0 0.53603003885319522 0.0084368979448305875 0 0.8742245753637975 0.0067930302454647755 0 0.7035108773872305 0.0085272716698289053 0 0.76808929303992035 0.015369060984377876 0 0.80964176991492032 0.020245243743923398 0 0.76808929303992035 0.015369060984377876 0 0.6559943803083893 0.022305883344094116 0 0.76808929303992035 0.015369060984377876 0 0.60518193303507228 0.016131240759140547 0 0.6559943803083893 0.022305883344094116 0 0.60518193303507228 0.016131240759140547 0 0.6559943803083893 0.022305883344094116 0 0.50568280093890006 0.020469686498200156 0 0.7035108773872305 0.0085272716698289053 0 0.76808929303992035 0.015369060984377876 0 0.60518193303507228 0.016131240759140547 0 0.60518193303507228 0.016131240759140547 0 0.44632859527257746 0.014432874328385515 0 0.53603003885319522 0.0084368979448305875 0 0.60518193303507228 0.016131240759140547 0 0.44632859527257746 0.014432874328385515 0 0.50568280093890006 0.020469686498200156 0 0.44632859527257746 0.014432874328385515 0 0.50568280093890006 0.020469686498200156 0 0.35694193101652011 0.016623036055358031 0 0.44632859527257746 0.014432874328385515 0 0.53603003885319522 0.0084368979448305875 0 0.37615898759725891 0.0072472416457975992 0 0.45950142766106256 0.00039768536251787802 0 0.53603003885319522 0.0084368979448305875 0 0.37615898759725891 0.0072472416457975992 0 0.62533551395916043 0.00036837352676743199 0 0.45950142766106256 0.00039768536251787802 0 0.53603003885319522 0.0084368979448305875 0 0.51394001449125359 0.018256363678328204 0 0.63605550679091727 0.018146498832484859 0 0.59454250631575434 0.023126774740504251 0 0.51394001449125359 0.018256363678328204 0 0.59454250631575434 0.023126774740504251 0 0.46397832840547959 0.0206966859907892 0 0.72037580123001865 0.021415672444659559 0 0.63605550679091727 0.018146498832484859 0 0.59454250631575434 0.023126774740504251 0 0.72037580123001865 0.021415672444659559 0 0.59454250631575434 0.023126774740504251 0 0.68795667753420175 0.024743852595567949 0 0.59454250631575434 0.023126774740504251 0 0.54708572451201254 0.02377130379901914 0 0.46397832840547959 0.0206966859907892 0 0.59454250631575434 0.023126774740504251 0 0.54708572451201254 0.02377130379901914 0 0.68795667753420175 0.024743852595567949 0 0.80964176991492032 0.020245243743923398 0 0.68795667753420175 0.024743852595567949 0 0.6559943803083893 0.022305883344094116 0 0.54708572451201254 0.02377130379901914 0 0.68795667753420175 0.024743852595567949 0 0.6559943803083893 0.022305883344094116 0 0.54708572451201254 0.02377130379901914 0 0.6559943803083893 0.022305883344094116 0 0.50568280093890006 0.020469686498200156 0 0.54708572451201254 0.02377130379901914 0 0.50568280093890006 0.020469686498200156 0 0.4084707938962836 0.019961181391288978 0 0.50568280093890006 0.020469686498200156 0 0.4084707938962836 0.019961181391288978 0 0.35694193101652011 0.016623036055358031 0 0.54708572451201254 0.02377130379901914 0 0.4084707938962836 0.019961181391288978 0 0.46397832840547959 0.0206966859907892 0 0.4084707938962836 0.019961181391288978 0 0.46397832840547959 0.0206966859907892 0 0.3332590866004842 0.016328457849902056 0 0.46397832840547959 0.0206966859907892 0 0.38899857522294162 0.015436108904758094 0 0.3332590866004842 0.016328457849902056 0 0.51394001449125359 0.018256363678328204 0 0.46397832840547959 0.0206966859907892 0 0.38899857522294162 0.015436108904758094 0 0.25989870433410117 0.011160673980023317 0 0.20537295086669022 0.010979096619825391 0 0.1185010886544912 0.0057414489265992848 0 0.25989870433410117 0.011160673980023317 0 0.3332590866004842 0.016328457849902056 0 0.20537295086669022 0.010979096619825391 0 0.38899857522294162 0.015436108904758094 0 0.25989870433410117 0.011160673980023317 0 0.3332590866004842 0.016328457849902056 0 0.3332590866004842 0.016328457849902056 0 0.20537295086669022 0.010979096619825391 0 0.27118522320673344 0.014720678566724743 0 0.20537295086669022 0.010979096619825391 0 0.27118522320673344 0.014720678566724743 0 0.13488899850541089 0.0081320803344725502 0 0.4084707938962836 0.019961181391288978 0 0.3332590866004842 0.016328457849902056 0 0.27118522320673344 0.014720678566724743 0 0.4084707938962836 0.019961181391288978 0 0.27118522320673344 0.014720678566724743 0 0.35694193101652011 0.016623036055358031 0 0.27118522320673344 0.014720678566724743 0 0.35694193101652011 0.016623036055358031 0 0.21528373131249551 0.011671804878768453 0 0.27118522320673344 0.014720678566724743 0 0.21528373131249551 0.011671804878768453 0 0.13488899850541089 0.0081320803344725502 0 0.21528373131249551 0.011671804878768453 0 0.10293440024425025 0.0063420818421273751 0 0.13488899850541089 0.0081320803344725502 0 0.10293440024425025 0.0063420818421273751 0 0.00013265846905765376 5.106938333856381e-06 0 0.00014266602483404327 5.9332905830852122e-06 0 0.10293440024425025 0.0063420818421273751 0 0.00013265846905765376 5.106938333856381e-06 0 0.13488899850541089 0.0081320803344725502 0 0.00013265846905765376 5.106938333856381e-06 0 0.13488899850541089 0.0081320803344725502 0 0.0978144024168041 0.0055363608309459663 0 0.20537295086669022 0.010979096619825391 0 0.0978144024168041 0.0055363608309459663 0 0.1185010886544912 0.0057414489265992848 0 0.20537295086669022 0.010979096619825391 0 0.13488899850541089 0.0081320803344725502 0 0.0978144024168041 0.0055363608309459663 0 0.00013265846905765376 5.106938333856381e-06 0 0.0978144024168041 0.0055363608309459663 0 0.00013374619066395044 4.1945249340724843e-06 0 0.0978144024168041 0.0055363608309459663 0 0.00013374619066395044 4.1945249340724843e-06 0 0.1185010886544912 0.0057414489265992848 0 0.00013082123078055009 2.7051669709673089e-06 0 0.00013374619066395044 4.1945249340724843e-06 0 0.1185010886544912 0.0057414489265992848 0 0.21920693829633442 0.0052076342119937013 0 0.29621955179798259 0.00025364717877815891 0 0.13343579991219467 3.6329748609859138e-05 0 0.21920693829633442 0.0052076342119937013 0 0.29621955179798259 0.00025364717877815891 0 0.37615898759725891 0.0072472416457975992 0 0.45950142766106256 0.00039768536251787802 0 0.29621955179798259 0.00025364717877815891 0 0.37615898759725891 0.0072472416457975992 0 0.21920693829633442 0.0052076342119937013 0 0.37615898759725891 0.0072472416457975992 0 0.2921998910077514 0.011185929810025554 0 0.44632859527257746 0.014432874328385515 0 0.37615898759725891 0.0072472416457975992 0 0.2921998910077514 0.011185929810025554 0 0.44632859527257746 0.014432874328385515 0 0.35694193101652011 0.016623036055358031 0 0.2921998910077514 0.011185929810025554 0 0.35694193101652011 0.016623036055358031 0 0.21528373131249551 0.011671804878768453 0 0.2921998910077514 0.011185929810025554 0 0.21528373131249551 0.011671804878768453 0 0.2921998910077514 0.011185929810025554 0 0.13078970901398188 0.0064740655194723013 0 0.21920693829633442 0.0052076342119937013 0 0.2921998910077514 0.011185929810025554 0 0.13078970901398188 0.0064740655194723013 0 0.21528373131249551 0.011671804878768453 0 0.10293440024425025 0.0063420818421273751 0 0.13078970901398188 0.0064740655194723013 0 0.10293440024425025 0.0063420818421273751 0 0.13078970901398188 0.0064740655194723013 0 0.00014266602483404327 5.9332905830852122e-06 0 0.13078970901398188 0.0064740655194723013 0 0.0001469555134290783 2.8588010837401e-06 0 0.092331157219000301 0.0026243793521903086 0 0.13078970901398188 0.0064740655194723013 0 0.00014266602483404327 5.9332905830852122e-06 0 0.0001469555134290783 2.8588010837401e-06 0 0.0001469555134290783 2.8588010837401e-06 0 0.092331157219000301 0.0026243793521903086 0 0.00014934001120108623 2.2994131341055614e-06 0 0.21920693829633442 0.0052076342119937013 0 0.092331157219000301 0.0026243793521903086 0 0.13343579991219467 3.6329748609859138e-05 0 0.21920693829633442 0.0052076342119937013 0 0.13078970901398188 0.0064740655194723013 0 0.092331157219000301 0.0026243793521903086 0 0.13343579991219467 3.6329748609859138e-05 0 0.00014934001120108623 2.2994131341055614e-06 0 0.00014950685993145465 -2.1915723379130556e-06 0 0.092331157219000301 0.0026243793521903086 0 0.13343579991219467 3.6329748609859138e-05 0 0.00014934001120108623 2.2994131341055614e-06 0 0.13343579991219467 3.6329748609859138e-05 0 0.00014950685993145465 -2.1915723379130556e-06 0 0.097781308282274548 -0.0026264928562536143 0 0.00014950685993145465 -2.1915723379130556e-06 0 0.097781308282274548 -0.0026264928562536143 0 0.00014683527015260601 -2.9968859603437954e-06 0 0.097781308282274548 -0.0026264928562536143 0 0.22314316924689959 -0.0049441920069638592 0 0.13134148874967455 -0.0065145640658257299 0 0.13343579991219467 3.6329748609859138e-05 0 0.097781308282274548 -0.0026264928562536143 0 0.22314316924689959 -0.0049441920069638592 0 0.29621955179798259 0.00025364717877815891 0 0.13343579991219467 3.6329748609859138e-05 0 0.22314316924689959 -0.0049441920069638592 0 0.22314316924689959 -0.0049441920069638592 0 0.37965195224983372 -0.0065756726432212925 0 0.29087744143293665 -0.010941428493573196 0 0.29621955179798259 0.00025364717877815891 0 0.22314316924689959 -0.0049441920069638592 0 0.37965195224983372 -0.0065756726432212925 0 0.45950142766106256 0.00039768536251787802 0 0.29621955179798259 0.00025364717877815891 0 0.37965195224983372 -0.0065756726432212925 0 0.29087744143293665 -0.010941428493573196 0 0.35438504463908266 -0.016474384820300149 0 0.44789133222813682 -0.014247843917030467 0 0.29087744143293665 -0.010941428493573196 0 0.21435650143322119 -0.011621068832685086 0 0.35438504463908266 -0.016474384820300149 0 0.37965195224983372 -0.0065756726432212925 0 0.29087744143293665 -0.010941428493573196 0 0.44789133222813682 -0.014247843917030467 0 0.22314316924689959 -0.0049441920069638592 0 0.29087744143293665 -0.010941428493573196 0 0.13134148874967455 -0.0065145640658257299 0 0.29087744143293665 -0.010941428493573196 0 0.13134148874967455 -0.0065145640658257299 0 0.21435650143322119 -0.011621068832685086 0 0.13134148874967455 -0.0065145640658257299 0 0.10238063991430074 -0.0063218616260845347 0 0.21435650143322119 -0.011621068832685086 0 0.097781308282274548 -0.0026264928562536143 0 0.13134148874967455 -0.0065145640658257299 0 0.00014683527015260601 -2.9968859603437954e-06 0 0.13134148874967455 -0.0065145640658257299 0 0.00014683527015260601 -2.9968859603437954e-06 0 0.00014272593855988114 -5.9043017739312203e-06 0 0.13134148874967455 -0.0065145640658257299 0 0.00014272593855988114 -5.9043017739312203e-06 0 0.10238063991430074 -0.0063218616260845347 0 0.00013265216095377947 -5.1130475113976965e-06 0 0.13487230376179435 -0.0081337674300913775 0 0.10238063991430074 -0.0063218616260845347 0 0.00014272593855988114 -5.9043017739312203e-06 0 0.00013265216095377947 -5.1130475113976965e-06 0 0.10238063991430074 -0.0063218616260845347 0 0.00013265216095377947 -5.1130475113976965e-06 0 0.13487230376179435 -0.0081337674300913775 0 0.097299520506073559 -0.0055191179956955352 0 0.13487230376179435 -0.0081337674300913775 0 0.10238063991430074 -0.0063218616260845347 0 0.21435650143322119 -0.011621068832685086 0 0.00013371026854456592 -4.1710465692903885e-06 0 0.1185977542362124 -0.0057894313796902162 0 0.00013087999559241486 -2.7637213820809033e-06 0 0.00013371026854456592 -4.1710465692903885e-06 0 0.097299520506073559 -0.0055191179956955352 0 0.1185977542362124 -0.0057894313796902162 0 0.00013265216095377947 -5.1130475113976965e-06 0 0.00013371026854456592 -4.1710465692903885e-06 0 0.097299520506073559 -0.0055191179956955352 0 0.097299520506073559 -0.0055191179956955352 0 0.1185977542362124 -0.0057894313796902162 0 0.20158208658408328 -0.010836944160454342 0 0.13487230376179435 -0.0081337674300913775 0 0.097299520506073559 -0.0055191179956955352 0 0.20158208658408328 -0.010836944160454342 0 0.1185977542362124 -0.0057894313796902162 0 0.20158208658408328 -0.010836944160454342 0 0.25719256300527171 -0.01108354393573798 0 0.20158208658408328 -0.010836944160454342 0 0.32929598198857318 -0.016181968554369573 0 0.27119303347798862 -0.014725340570450088 0 0.20158208658408328 -0.010836944160454342 0 0.32929598198857318 -0.016181968554369573 0 0.25719256300527171 -0.01108354393573798 0 0.32929598198857318 -0.016181968554369573 0 0.25719256300527171 -0.01108354393573798 0 0.38871350436945273 -0.015433499971795963 0 0.13487230376179435 -0.0081337674300913775 0 0.21435650143322119 -0.011621068832685086 0 0.27119303347798862 -0.014725340570450088 0 0.13487230376179435 -0.0081337674300913775 0 0.20158208658408328 -0.010836944160454342 0 0.27119303347798862 -0.014725340570450088 0 0.32929598198857318 -0.016181968554369573 0 0.27119303347798862 -0.014725340570450088 0 0.40851902478704194 -0.019977326172930569 0 0.27119303347798862 -0.014725340570450088 0 0.35438504463908266 -0.016474384820300149 0 0.40851902478704194 -0.019977326172930569 0 0.21435650143322119 -0.011621068832685086 0 0.27119303347798862 -0.014725340570450088 0 0.35438504463908266 -0.016474384820300149 0 0.35438504463908266 -0.016474384820300149 0 0.40851902478704194 -0.019977326172930569 0 0.50447749242579276 -0.020331269837819674 0 0.40851902478704194 -0.019977326172930569 0 0.46304120432434837 -0.020621877903435733 0 0.54717120339102554 -0.02373785375032433 0 0.40851902478704194 -0.019977326172930569 0 0.54717120339102554 -0.02373785375032433 0 0.50447749242579276 -0.020331269837819674 0 0.32929598198857318 -0.016181968554369573 0 0.38871350436945273 -0.015433499971795963 0 0.46304120432434837 -0.020621877903435733 0 0.32929598198857318 -0.016181968554369573 0 0.40851902478704194 -0.019977326172930569 0 0.46304120432434837 -0.020621877903435733 0 0.38871350436945273 -0.015433499971795963 0 0.46304120432434837 -0.020621877903435733 0 0.51287208471773393 -0.017963215779438494 0 0.46304120432434837 -0.020621877903435733 0 0.59279069795473283 -0.022926102025873401 0 0.51287208471773393 -0.017963215779438494 0 0.59279069795473283 -0.022926102025873401 0 0.51287208471773393 -0.017963215779438494 0 0.63238793840211316 -0.017632257299238965 0 0.46304120432434837 -0.020621877903435733 0 0.59279069795473283 -0.022926102025873401 0 0.54717120339102554 -0.02373785375032433 0 0.59279069795473283 -0.022926102025873401 0 0.68806301594318897 -0.02468443068155398 0 0.71697649996328994 -0.021213354121555533 0 0.59279069795473283 -0.022926102025873401 0 0.63238793840211316 -0.017632257299238965 0 0.71697649996328994 -0.021213354121555533 0 0.54717120339102554 -0.02373785375032433 0 0.68806301594318897 -0.02468443068155398 0 0.65820359873726719 -0.022024293479354352 0 0.54717120339102554 -0.02373785375032433 0 0.65820359873726719 -0.022024293479354352 0 0.50447749242579276 -0.020331269837819674 0 0.59279069795473283 -0.022926102025873401 0 0.54717120339102554 -0.02373785375032433 0 0.68806301594318897 -0.02468443068155398 0 0.68806301594318897 -0.02468443068155398 0 0.65820359873726719 -0.022024293479354352 0 0.81150011163311475 -0.020078356581189904 0 0.65820359873726719 -0.022024293479354352 0 0.77017405088476698 -0.014868121503753082 0 0.81150011163311475 -0.020078356581189904 0 0.65820359873726719 -0.022024293479354352 0 0.60628472847924697 -0.015703167381905317 0 0.77017405088476698 -0.014868121503753082 0 0.65820359873726719 -0.022024293479354352 0 0.60628472847924697 -0.015703167381905317 0 0.50447749242579276 -0.020331269837819674 0 0.60628472847924697 -0.015703167381905317 0 0.77017405088476698 -0.014868121503753082 0 0.7047244589244408 -0.0078751616418642183 0 0.77017405088476698 -0.014868121503753082 0 0.7047244589244408 -0.0078751616418642183 0 0.87784189241849186 -0.0061934000230528851 0 0.79588141865084128 0.00032493395518568767 0 0.7047244589244408 -0.0078751616418642183 0 0.87784189241849186 -0.0061934000230528851 0 0.79588141865084128 0.00032493395518568767 0 0.62533551395916043 0.00036837352676743199 0 0.7047244589244408 -0.0078751616418642183 0 0.62533551395916043 0.00036837352676743199 0 0.7047244589244408 -0.0078751616418642183 0 0.53882020712601286 -0.0077809802214496397 0 0.60628472847924697 -0.015703167381905317 0 0.7047244589244408 -0.0078751616418642183 0 0.53882020712601286 -0.0077809802214496397 0 0.62533551395916043 0.00036837352676743199 0 0.45950142766106256 0.00039768536251787802 0 0.53882020712601286 -0.0077809802214496397 0 0.45950142766106256 0.00039768536251787802 0 0.37965195224983372 -0.0065756726432212925 0 0.53882020712601286 -0.0077809802214496397 0 0.37965195224983372 -0.0065756726432212925 0 0.53882020712601286 -0.0077809802214496397 0 0.44789133222813682 -0.014247843917030467 0 0.35438504463908266 -0.016474384820300149 0 0.44789133222813682 -0.014247843917030467 0 0.50447749242579276 -0.020331269837819674 0 0.60628472847924697 -0.015703167381905317 0 0.44789133222813682 -0.014247843917030467 0 0.50447749242579276 -0.020331269837819674 0 0.60628472847924697 -0.015703167381905317 0 0.53882020712601286 -0.0077809802214496397 0 0.44789133222813682 -0.014247843917030467 0 0.28571333709312202 4.1450800092288905e-06 0 0.34356273071393734 0.0023477387834850536 0 0.42855954246862604 4.6735297019053692e-06 0 0.28571333709312202 4.1450800092288905e-06 0 0.34356273071393734 0.0023477387834850536 0 0.20961906123131255 0.0020552085964895077 0 0.34356273071393734 0.0023477387834850536 0 0.20961906123131255 0.0020552085964895077 0 0.26424637667303685 0.0019672540171417393 0 0.28571333709312202 4.1450800092288905e-06 0 0.20961906123131255 0.0020552085964895077 0 0.14283484847552533 3.3020814567119708e-06 0 0.20961906123131255 0.0020552085964895077 0 0.14283484847552533 3.3020814567119708e-06 0 0.1013966470462872 0.0012353017103435416 0 7.1994892759037366e-05 3.0219330348443244e-07 0 0.00015553033148540431 2.2716873651202922e-06 0 0.1013966470462872 0.0012353017103435416 0 0.14283484847552533 3.3020814567119708e-06 0 7.1994892759037366e-05 3.0219330348443244e-07 0 0.1013966470462872 0.0012353017103435416 0 0.00015553033148540431 2.2716873651202922e-06 0 0.1013966470462872 0.0012353017103435416 0 0.12052957300291191 0.0017064170571091902 0 0.20961906123131255 0.0020552085964895077 0 0.1013966470462872 0.0012353017103435416 0 0.12052957300291191 0.0017064170571091902 0 0.00015553033148540431 2.2716873651202922e-06 0 0.12052957300291191 0.0017064170571091902 0 0.00012773582450857369 9.0636442161323599e-07 0 0.12052957300291191 0.0017064170571091902 0 0.00012773582450857369 9.0636442161323599e-07 0 0.081322025366894785 0.00037478046292622265 0 0.00012773582450857369 9.0636442161323599e-07 0 0.081322025366894785 0.00037478046292622265 0 0.00013193201979051967 5.6636878345977249e-07 0 0.12052957300291191 0.0017064170571091902 0 0.081322025366894785 0.00037478046292622265 0 0.19081378057690052 0.00023900208620203616 0 0.20961906123131255 0.0020552085964895077 0 0.12052957300291191 0.0017064170571091902 0 0.26424637667303685 0.0019672540171417393 0 0.12052957300291191 0.0017064170571091902 0 0.19081378057690052 0.00023900208620203616 0 0.26424637667303685 0.0019672540171417393 0 0.34356273071393734 0.0023477387834850536 0 0.26424637667303685 0.0019672540171417393 0 0.39602648572125837 0.0020905055769601614 0 0.26424637667303685 0.0019672540171417393 0 0.3210838274075804 -0.00051024501393168685 0 0.39602648572125837 0.0020905055769601614 0 0.19081378057690052 0.00023900208620203616 0 0.26424637667303685 0.0019672540171417393 0 0.3210838274075804 -0.00051024501393168685 0 0.3210838274075804 -0.00051024501393168685 0 0.25034772306382608 -0.0036020733913703904 0 0.37943515149927226 -0.0053592370612812112 0 0.25034772306382608 -0.0036020733913703904 0 0.31991614004032154 -0.0091284803346963692 0 0.37943515149927226 -0.0053592370612812112 0 0.25034772306382608 -0.0036020733913703904 0 0.11493237843204786 -0.0015718871547879933 0 0.19195127356783082 -0.0059537889163569667 0 0.19081378057690052 0.00023900208620203616 0 0.25034772306382608 -0.0036020733913703904 0 0.11493237843204786 -0.0015718871547879933 0 0.19081378057690052 0.00023900208620203616 0 0.3210838274075804 -0.00051024501393168685 0 0.25034772306382608 -0.0036020733913703904 0 0.081322025366894785 0.00037478046292622265 0 0.19081378057690052 0.00023900208620203616 0 0.11493237843204786 -0.0015718871547879933 0 0.081322025366894785 0.00037478046292622265 0 0.00013193201979051967 5.6636878345977249e-07 0 0.11493237843204786 -0.0015718871547879933 0 0.00013193201979051967 5.6636878345977249e-07 0 0.11493237843204786 -0.0015718871547879933 0 0.00012960316546961148 -2.1150547981576777e-06 0 0.11493237843204786 -0.0015718871547879933 0 0.085072054999558736 -0.0028101450082793624 0 0.19195127356783082 -0.0059537889163569667 0 0.11493237843204786 -0.0015718871547879933 0 0.085072054999558736 -0.0028101450082793624 0 0.00012960316546961148 -2.1150547981576777e-06 0 0.085072054999558736 -0.0028101450082793624 0 0.00012960316546961148 -2.1150547981576777e-06 0 0.00013087999559241486 -2.7637213820809033e-06 0 0.1185977542362124 -0.0057894313796902162 0 0.085072054999558736 -0.0028101450082793624 0 0.00013087999559241486 -2.7637213820809033e-06 0 0.1185977542362124 -0.0057894313796902162 0 0.085072054999558736 -0.0028101450082793624 0 0.19195127356783082 -0.0059537889163569667 0 0.1185977542362124 -0.0057894313796902162 0 0.25719256300527171 -0.01108354393573798 0 0.19195127356783082 -0.0059537889163569667 0 0.25034772306382608 -0.0036020733913703904 0 0.19195127356783082 -0.0059537889163569667 0 0.31991614004032154 -0.0091284803346963692 0 0.25719256300527171 -0.01108354393573798 0 0.19195127356783082 -0.0059537889163569667 0 0.31991614004032154 -0.0091284803346963692 0 0.25719256300527171 -0.01108354393573798 0 0.38871350436945273 -0.015433499971795963 0 0.31991614004032154 -0.0091284803346963692 0 0.38871350436945273 -0.015433499971795963 0 0.31991614004032154 -0.0091284803346963692 0 0.44319468262141354 -0.011627902966518026 0 0.31991614004032154 -0.0091284803346963692 0 0.44319468262141354 -0.011627902966518026 0 0.37943515149927226 -0.0053592370612812112 0 0.38871350436945273 -0.015433499971795963 0 0.44319468262141354 -0.011627902966518026 0 0.51287208471773393 -0.017963215779438494 0 0.44319468262141354 -0.011627902966518026 0 0.51287208471773393 -0.017963215779438494 0 0.56195184294124945 -0.012421920079804088 0 0.51287208471773393 -0.017963215779438494 0 0.63238793840211316 -0.017632257299238965 0 0.56195184294124945 -0.012421920079804088 0 0.63238793840211316 -0.017632257299238965 0 0.56195184294124945 -0.012421920079804088 0 0.67427265668864222 -0.0099346452189770611 0 0.56195184294124945 -0.012421920079804088 0 0.61656474698612651 -0.0062597452758065362 0 0.67427265668864222 -0.0099346452189770611 0 0.44319468262141354 -0.011627902966518026 0 0.56195184294124945 -0.012421920079804088 0 0.50157988988322788 -0.0063943636591286702 0 0.56195184294124945 -0.012421920079804088 0 0.50157988988322788 -0.0063943636591286702 0 0.61656474698612651 -0.0062597452758065362 0 0.61656474698612651 -0.0062597452758065362 0 0.56729217841672841 -0.0012649618101115102 0 0.67943255060719232 -0.0020281858118869015 0 0.50157988988322788 -0.0063943636591286702 0 0.44619419138404387 -0.0010610834247286787 0 0.56729217841672841 -0.0012649618101115102 0 0.50157988988322788 -0.0063943636591286702 0 0.61656474698612651 -0.0062597452758065362 0 0.56729217841672841 -0.0012649618101115102 0 0.50157988988322788 -0.0063943636591286702 0 0.37943515149927226 -0.0053592370612812112 0 0.44619419138404387 -0.0010610834247286787 0 0.44319468262141354 -0.011627902966518026 0 0.50157988988322788 -0.0063943636591286702 0 0.37943515149927226 -0.0053592370612812112 0 0.3210838274075804 -0.00051024501393168685 0 0.37943515149927226 -0.0053592370612812112 0 0.44619419138404387 -0.0010610834247286787 0 0.3210838274075804 -0.00051024501393168685 0 0.39602648572125837 0.0020905055769601614 0 0.44619419138404387 -0.0010610834247286787 0 0.39602648572125837 0.0020905055769601614 0 0.52329434026754407 0.0023663586433626104 0 0.47937558664358043 0.0028380031902810626 0 0.39602648572125837 0.0020905055769601614 0 0.44619419138404387 -0.0010610834247286787 0 0.52329434026754407 0.0023663586433626104 0 0.44619419138404387 -0.0010610834247286787 0 0.56729217841672841 -0.0012649618101115102 0 0.52329434026754407 0.0023663586433626104 0 0.56729217841672841 -0.0012649618101115102 0 0.6443523061317965 0.0022774588163586322 0 0.52329434026754407 0.0023663586433626104 0 0.56729217841672841 -0.0012649618101115102 0 0.6443523061317965 0.0022774588163586322 0 0.67943255060719232 -0.0020281858118869015 0 0.6443523061317965 0.0022774588163586322 0 0.52329434026754407 0.0023663586433626104 0 0.61042979080622617 0.0034327511298470749 0 0.52329434026754407 0.0023663586433626104 0 0.61042979080622617 0.0034327511298470749 0 0.47937558664358043 0.0028380031902810626 0 0.6443523061317965 0.0022774588163586322 0 0.61042979080622617 0.0034327511298470749 0 0.73561471851633242 0.0036166737017542176 0 0.61042979080622617 0.0034327511298470749 0 0.71425866635897861 5.0765289922696594e-06 0 0.73561471851633242 0.0036166737017542176 0 0.61042979080622617 0.0034327511298470749 0 0.71425866635897861 5.0765289922696594e-06 0 0.57141487386558287 6.7585649189392875e-06 0 0.61042979080622617 0.0034327511298470749 0 0.57141487386558287 6.7585649189392875e-06 0 0.47937558664358043 0.0028380031902810626 0 0.57141487386558287 6.7585649189392875e-06 0 0.47937558664358043 0.0028380031902810626 0 0.42855954246862604 4.6735297019053692e-06 0 0.34356273071393734 0.0023477387834850536 0 0.39602648572125837 0.0020905055769601614 0 0.47937558664358043 0.0028380031902810626 0 0.34356273071393734 0.0023477387834850536 0 0.47937558664358043 0.0028380031902810626 0 0.42855954246862604 4.6735297019053692e-06 0 1.051728083292949 -0.010272373426459612 0 0.99988305691727253 -3.9281967883006346e-05 0 1.1428384180522664 -1.5440773566698129e-05 0 1.051728083292949 -0.010272373426459612 0 0.8985236060757763 -0.014207534803524513 0 0.99988305691727253 -3.9281967883006346e-05 0 1.051728083292949 -0.010272373426459612 0 0.8985236060757763 -0.014207534803524513 0 1.0322113710174201 -0.01066988025700443 0 0.8985236060757763 -0.014207534803524513 0 0.99988305691727253 -3.9281967883006346e-05 0 0.84110687305237031 0.00084346785893773591 0 0.99988305691727253 -3.9281967883006346e-05 0 0.85712839834548471 1.8307571543940447e-05 0 0.84110687305237031 0.00084346785893773591 0 0.85712839834548471 1.8307571543940447e-05 0 0.73561471851633242 0.0036166737017542176 0 0.84110687305237031 0.00084346785893773591 0 0.71425866635897861 5.0765289922696594e-06 0 0.85712839834548471 1.8307571543940447e-05 0 0.73561471851633242 0.0036166737017542176 0 0.8985236060757763 -0.014207534803524513 0 0.84110687305237031 0.00084346785893773591 0 0.7714236028015321 -0.00099623486781636882 0 0.73561471851633242 0.0036166737017542176 0 0.84110687305237031 0.00084346785893773591 0 0.7714236028015321 -0.00099623486781636882 0 0.6443523061317965 0.0022774588163586322 0 0.73561471851633242 0.0036166737017542176 0 0.7714236028015321 -0.00099623486781636882 0 0.6443523061317965 0.0022774588163586322 0 0.7714236028015321 -0.00099623486781636882 0 0.67943255060719232 -0.0020281858118869015 0 0.7714236028015321 -0.00099623486781636882 0 0.67943255060719232 -0.0020281858118869015 0 0.77129094912518315 -0.0050705855500599827 0 0.7714236028015321 -0.00099623486781636882 0 0.77129094912518315 -0.0050705855500599827 0 0.85276970150072884 -0.012298290364611502 0 0.77129094912518315 -0.0050705855500599827 0 0.85276970150072884 -0.012298290364611502 0 0.83137414680437449 -0.0061678028600229895 0 0.8985236060757763 -0.014207534803524513 0 0.7714236028015321 -0.00099623486781636882 0 0.85276970150072884 -0.012298290364611502 0 0.8985236060757763 -0.014207534803524513 0 0.85276970150072884 -0.012298290364611502 0 1.0322113710174201 -0.01066988025700443 0 0.85276970150072884 -0.012298290364611502 0 1.0090334544570163 -0.0051458433494562649 0 0.83137414680437449 -0.0061678028600229895 0 0.85276970150072884 -0.012298290364611502 0 1.0322113710174201 -0.01066988025700443 0 1.0090334544570163 -0.0051458433494562649 0 1.0090334544570163 -0.0051458433494562649 0 0.99978280214423787 0.0035554810471902874 0 0.83137414680437449 -0.0061678028600229895 0 0.99978280214423787 0.0035554810471902874 0 0.83137414680437449 -0.0061678028600229895 0 0.82846138139102166 0.00072809537545034085 0 0.83137414680437449 -0.0061678028600229895 0 0.73556719025194273 -0.0048836774580493869 0 0.82846138139102166 0.00072809537545034085 0 0.67943255060719232 -0.0020281858118869015 0 0.77129094912518315 -0.0050705855500599827 0 0.73556719025194273 -0.0048836774580493869 0 0.77129094912518315 -0.0050705855500599827 0 0.83137414680437449 -0.0061678028600229895 0 0.73556719025194273 -0.0048836774580493869 0 0.61656474698612651 -0.0062597452758065362 0 0.67943255060719232 -0.0020281858118869015 0 0.73556719025194273 -0.0048836774580493869 0 0.61656474698612651 -0.0062597452758065362 0 0.73556719025194273 -0.0048836774580493869 0 0.67427265668864222 -0.0099346452189770611 0 0.73556719025194273 -0.0048836774580493869 0 0.76496320200371792 -0.0038042954924750712 0 0.67427265668864222 -0.0099346452189770611 0 0.73556719025194273 -0.0048836774580493869 0 0.76496320200371792 -0.0038042954924750712 0 0.82846138139102166 0.00072809537545034085 0 0.63238793840211316 -0.017632257299238965 0 0.67427265668864222 -0.0099346452189770611 0 0.75828584426743717 -0.010399362704490512 0 0.76496320200371792 -0.0038042954924750712 0 0.67427265668864222 -0.0099346452189770611 0 0.75828584426743717 -0.010399362704490512 0 0.76496320200371792 -0.0038042954924750712 0 0.84438077624461128 0.0078979359658944079 0 0.75828584426743717 -0.010399362704490512 0 0.76496320200371792 -0.0038042954924750712 0 0.84438077624461128 0.0078979359658944079 0 0.82846138139102166 0.00072809537545034085 0 0.99978280214423787 0.0035554810471902874 0 0.82846138139102166 0.00072809537545034085 0 1.0071475370380598 0.013884079011986513 0 0.84438077624461128 0.0078979359658944079 0 0.82846138139102166 0.00072809537545034085 0 1.0071475370380598 0.013884079011986513 0 0.84438077624461128 0.0078979359658944079 0 1.0071475370380598 0.013884079011986513 0 1.0311953141245478 0.023367474681381603 0 1.0071475370380598 0.013884079011986513 0 1.1753694318597385 0.027509482009750185 0 1.0311953141245478 0.023367474681381603 0 0.99978280214423787 0.0035554810471902874 0 1.0071475370380598 0.013884079011986513 0 1.1681256960597033 0.01482368395556073 0 1.0071475370380598 0.013884079011986513 0 1.1681256960597033 0.01482368395556073 0 1.1753694318597385 0.027509482009750185 0 1.1681256960597033 0.01482368395556073 0 1.1753694318597385 0.027509482009750185 0 1.3294769999592853 0.026382145999022142 0 1.1753694318597385 0.027509482009750185 0 1.3294769999592853 0.026382145999022142 0 1.3418384010153204 0.03851616742691634 0 1.4931463133064835 0.034327978077068437 0 1.3294769999592853 0.026382145999022142 0 1.3418384010153204 0.03851616742691634 0 1.4914227832263443 0.020432920587398921 0 1.3294769999592853 0.026382145999022142 0 1.3295675607338555 0.012231695253779831 0 1.4931463133064835 0.034327978077068437 0 1.4914227832263443 0.020432920587398921 0 1.3294769999592853 0.026382145999022142 0 1.1681256960597033 0.01482368395556073 0 1.3294769999592853 0.026382145999022142 0 1.3295675607338555 0.012231695253779831 0 1.4914227832263443 0.020432920587398921 0 1.3295675607338555 0.012231695253779831 0 1.4930325057569238 0.0069127170258559065 0 1.3295675607338555 0.012231695253779831 0 1.4930325057569238 0.0069127170258559065 0 1.3346372851445167 0.00042209725335321018 0 1.3295675607338555 0.012231695253779831 0 1.1692551843847554 0.003109260593520275 0 1.3346372851445167 0.00042209725335321018 0 1.1681256960597033 0.01482368395556073 0 1.3295675607338555 0.012231695253779831 0 1.1692551843847554 0.003109260593520275 0 0.99978280214423787 0.0035554810471902874 0 1.1681256960597033 0.01482368395556073 0 1.1692551843847554 0.003109260593520275 0 1.0090334544570163 -0.0051458433494562649 0 0.99978280214423787 0.0035554810471902874 0 1.1692551843847554 0.003109260593520275 0 1.0322113710174201 -0.01066988025700443 0 1.0090334544570163 -0.0051458433494562649 0 1.1813108880530265 -0.0057443299615193393 0 1.0090334544570163 -0.0051458433494562649 0 1.1692551843847554 0.003109260593520275 0 1.1813108880530265 -0.0057443299615193393 0 1.0322113710174201 -0.01066988025700443 0 1.1813108880530265 -0.0057443299615193393 0 1.1925968462659615 -0.0092711870058929703 0 1.1813108880530265 -0.0057443299615193393 0 1.3424638676689409 -0.0066151970857359918 0 1.1925968462659615 -0.0092711870058929703 0 1.1692551843847554 0.003109260593520275 0 1.1813108880530265 -0.0057443299615193393 0 1.3346372851445167 0.00042209725335321018 0 1.1813108880530265 -0.0057443299615193393 0 1.3346372851445167 0.00042209725335321018 0 1.3424638676689409 -0.0066151970857359918 0 1.3346372851445167 0.00042209725335321018 0 1.4936062728727251 -0.0030994623014705129 0 1.3424638676689409 -0.0066151970857359918 0 1.4930325057569238 0.0069127170258559065 0 1.3346372851445167 0.00042209725335321018 0 1.4936062728727251 -0.0030994623014705129 0 1.4936062728727251 -0.0030994623014705129 0 1.3424638676689409 -0.0066151970857359918 0 1.4972586597216722 -0.0066427718640689765 0 1.3424638676689409 -0.0066151970857359918 0 1.3445453130106912 -0.0057114540886380391 0 1.1925968462659615 -0.0092711870058929703 0 1.3424638676689409 -0.0066151970857359918 0 1.3445453130106912 -0.0057114540886380391 0 1.4972586597216722 -0.0066427718640689765 0 1.3445453130106912 -0.0057114540886380391 0 1.4972586597216722 -0.0066427718640689765 0 1.4285621594578688 -1.1879877151835558e-05 0 1.4972586597216722 -0.0066427718640689765 0 1.4285621594578688 -1.1879877151835558e-05 0 1.571437884112723 -1.177582036178354e-05 0 1.3445453130106912 -0.0057114540886380391 0 1.4285621594578688 -1.1879877151835558e-05 0 1.2856983117046326 -1.3224567159110968e-05 0 1.3445453130106912 -0.0057114540886380391 0 1.2856983117046326 -1.3224567159110968e-05 0 1.1925968462659615 -0.0092711870058929703 0 1.2856983117046326 -1.3224567159110968e-05 0 1.1925968462659615 -0.0092711870058929703 0 1.1428384180522664 -1.5440773566698129e-05 0 1.051728083292949 -0.010272373426459612 0 1.0322113710174201 -0.01066988025700443 0 1.1925968462659615 -0.0092711870058929703 0 1.051728083292949 -0.010272373426459612 0 1.1925968462659615 -0.0092711870058929703 0 1.1428384180522664 -1.5440773566698129e-05 0 1.1370811709646294 -0.00096512120650133935 0 1.0951556436490557 -0.0011424066434352128 0 0.95468778183355307 -0.010016312694257559 0 1.0951556436490557 -0.0011424066434352128 0 1.1542319054972614 0.024434132439135715 0 1.2138803504986526 0.018414317484958444 0 1.1370811709646294 -0.00096512120650133935 0 1.209512397584201 0.0064325171005218829 0 1.2138803504986526 0.018414317484958444 0 1.1370811709646294 -0.00096512120650133935 0 1.0951556436490557 -0.0011424066434352128 0 1.2138803504986526 0.018414317484958444 0 1.209512397584201 0.0064325171005218829 0 1.1544933056125328 4.5943558387998082e-05 0 1.2402716503390574 1.4981200928796511e-05 0 1.1543257109017864 3.7258410853427175e-05 0 1.1544933056125328 4.5943558387998082e-05 0 1.2402716503390574 1.4981200928796511e-05 0 1.1370811709646294 -0.00096512120650133935 0 1.209512397584201 0.0064325171005218829 0 1.1544933056125328 4.5943558387998082e-05 0 1.1370811709646294 -0.00096512120650133935 0 1.1544933056125328 4.5943558387998082e-05 0 1.0260026525770418 -0.0033349826311281552 0 1.0260026525770418 -0.0033349826311281552 0 0.87784189241849186 -0.0061934000230528851 0 0.95468778183355307 -0.010016312694257559 0 0.99175334755828382 6.4823820995005255e-05 0 1.1544933056125328 4.5943558387998082e-05 0 1.0260026525770418 -0.0033349826311281552 0 0.99175334755828382 6.4823820995005255e-05 0 1.0260026525770418 -0.0033349826311281552 0 0.87784189241849186 -0.0061934000230528851 0 0.99175334755828382 6.4823820995005255e-05 0 0.79588141865084128 0.00032493395518568767 0 0.87784189241849186 -0.0061934000230528851 0 0.77017405088476698 -0.014868121503753082 0 0.87784189241849186 -0.0061934000230528851 0 0.95468778183355307 -0.010016312694257559 0 1.1370811709646294 -0.00096512120650133935 0 1.0260026525770418 -0.0033349826311281552 0 0.95468778183355307 -0.010016312694257559 0 1.0951556436490557 -0.0011424066434352128 0 0.95468778183355307 -0.010016312694257559 0 0.93929277854308846 -0.013234688055794159 0 0.95468778183355307 -0.010016312694257559 0 0.81150011163311475 -0.020078356581189904 0 0.93929277854308846 -0.013234688055794159 0 0.77017405088476698 -0.014868121503753082 0 0.95468778183355307 -0.010016312694257559 0 0.81150011163311475 -0.020078356581189904 0 0.68806301594318897 -0.02468443068155398 0 0.81150011163311475 -0.020078356581189904 0 0.83345941977758198 -0.018672066819427621 0 0.68806301594318897 -0.02468443068155398 0 0.83345941977758198 -0.018672066819427621 0 0.71697649996328994 -0.021213354121555533 0 0.83345941977758198 -0.018672066819427621 0 0.8241518777846204 -0.012520931875539078 0 0.99011816874087433 0.0065037138778737029 0 0.81150011163311475 -0.020078356581189904 0 0.83345941977758198 -0.018672066819427621 0 0.93929277854308846 -0.013234688055794159 0 0.83345941977758198 -0.018672066819427621 0 0.93929277854308846 -0.013234688055794159 0 0.99011816874087433 0.0065037138778737029 0 0.63238793840211316 -0.017632257299238965 0 0.71697649996328994 -0.021213354121555533 0 0.75828584426743717 -0.010399362704490512 0 0.71697649996328994 -0.021213354121555533 0 0.8241518777846204 -0.012520931875539078 0 0.75828584426743717 -0.010399362704490512 0 0.83345941977758198 -0.018672066819427621 0 0.71697649996328994 -0.021213354121555533 0 0.8241518777846204 -0.012520931875539078 0 0.8241518777846204 -0.012520931875539078 0 0.75828584426743717 -0.010399362704490512 0 0.88537945463598999 0.012355394661649456 0 0.84438077624461128 0.0078979359658944079 0 0.75828584426743717 -0.010399362704490512 0 0.88537945463598999 0.012355394661649456 0 0.8241518777846204 -0.012520931875539078 0 0.88537945463598999 0.012355394661649456 0 0.99011816874087433 0.0065037138778737029 0 0.88537945463598999 0.012355394661649456 0 1.0453420380750389 0.027043256863584861 0 1.0311953141245478 0.023367474681381603 0 0.88537945463598999 0.012355394661649456 0 1.0453420380750389 0.027043256863584861 0 0.99011816874087433 0.0065037138778737029 0 0.84438077624461128 0.0078979359658944079 0 0.88537945463598999 0.012355394661649456 0 1.0311953141245478 0.023367474681381603 0 1.0951556436490557 -0.0011424066434352128 0 0.93929277854308846 -0.013234688055794159 0 0.99011816874087433 0.0065037138778737029 0 1.0453420380750389 0.027043256863584861 0 0.99011816874087433 0.0065037138778737029 0 1.146103531052145 0.03241372717320759 0 0.99011816874087433 0.0065037138778737029 0 1.1542319054972614 0.024434132439135715 0 1.146103531052145 0.03241372717320759 0 1.0951556436490557 -0.0011424066434352128 0 0.99011816874087433 0.0065037138778737029 0 1.1542319054972614 0.024434132439135715 0 1.1542319054972614 0.024434132439135715 0 1.146103531052145 0.03241372717320759 0 1.256622967744768 0.034116036006715533 0 1.146103531052145 0.03241372717320759 0 1.2911881905471472 0.040796242112843252 0 1.256622967744768 0.034116036006715533 0 1.146103531052145 0.03241372717320759 0 1.2911881905471472 0.040796242112843252 0 1.1906314174358805 0.037539623219840383 0 1.2911881905471472 0.040796242112843252 0 1.256622967744768 0.034116036006715533 0 1.3763909314012563 0.037974346166822721 0 1.1753694318597385 0.027509482009750185 0 1.0311953141245478 0.023367474681381603 0 1.1906314174358805 0.037539623219840383 0 1.0453420380750389 0.027043256863584861 0 1.0311953141245478 0.023367474681381603 0 1.1906314174358805 0.037539623219840383 0 1.0453420380750389 0.027043256863584861 0 1.146103531052145 0.03241372717320759 0 1.1906314174358805 0.037539623219840383 0 1.2911881905471472 0.040796242112843252 0 1.1906314174358805 0.037539623219840383 0 1.3444894238823739 0.043126628375001592 0 1.1753694318597385 0.027509482009750185 0 1.1906314174358805 0.037539623219840383 0 1.3418384010153204 0.03851616742691634 0 1.1906314174358805 0.037539623219840383 0 1.3418384010153204 0.03851616742691634 0 1.3444894238823739 0.043126628375001592 0 1.3444894238823739 0.043126628375001592 0 1.4980923119935345 0.044173112706093934 0 1.4302153694830071 0.04360575313250787 0 1.3418384010153204 0.03851616742691634 0 1.3444894238823739 0.043126628375001592 0 1.4980923119935345 0.044173112706093934 0 1.4931463133064835 0.034327978077068437 0 1.3418384010153204 0.03851616742691634 0 1.4980923119935345 0.044173112706093934 0 1.2911881905471472 0.040796242112843252 0 1.3763909314012563 0.037974346166822721 0 1.4302153694830071 0.04360575313250787 0 1.2911881905471472 0.040796242112843252 0 1.3444894238823739 0.043126628375001592 0 1.4302153694830071 0.04360575313250787 0 1.4980923119935345 0.044173112706093934 0 1.4302153694830071 0.04360575313250787 0 1.5696462354087009 0.043635910073944607 0 1.4302153694830071 0.04360575313250787 0 1.4999702082566724 0.039148515751966706 0 1.5696462354087009 0.043635910073944607 0 1.3763909314012563 0.037974346166822721 0 1.4302153694830071 0.04360575313250787 0 1.4999702082566724 0.039148515751966706 0 1.3763909314012563 0.037974346166822721 0 1.4999702082566724 0.039148515751966706 0 1.443977638703545 0.029088101188228646 0 1.443977638703545 0.029088101188228646 0 1.331877401451188 0.026613866143648985 0 1.395432521281563 0.015269567043970152 0 1.3763909314012563 0.037974346166822721 0 1.443977638703545 0.029088101188228646 0 1.331877401451188 0.026613866143648985 0 1.256622967744768 0.034116036006715533 0 1.3763909314012563 0.037974346166822721 0 1.331877401451188 0.026613866143648985 0 1.331877401451188 0.026613866143648985 0 1.2138803504986526 0.018414317484958444 0 1.2925230889534702 0.012374543937863495 0 1.256622967744768 0.034116036006715533 0 1.331877401451188 0.026613866143648985 0 1.2138803504986526 0.018414317484958444 0 1.1542319054972614 0.024434132439135715 0 1.256622967744768 0.034116036006715533 0 1.2138803504986526 0.018414317484958444 0 1.209512397584201 0.0064325171005218829 0 1.2402716503390574 1.4981200928796511e-05 0 1.2925230889534702 0.012374543937863495 0 1.2402716503390574 1.4981200928796511e-05 0 1.2925230889534702 0.012374543937863495 0 1.3486205983019106 0.00057991348024671169 0 1.209512397584201 0.0064325171005218829 0 1.2138803504986526 0.018414317484958444 0 1.2925230889534702 0.012374543937863495 0 1.331877401451188 0.026613866143648985 0 1.2925230889534702 0.012374543937863495 0 1.395432521281563 0.015269567043970152 0 1.2925230889534702 0.012374543937863495 0 1.3486205983019106 0.00057991348024671169 0 1.395432521281563 0.015269567043970152 0 1.3486205983019106 0.00057991348024671169 0 1.395432521281563 0.015269567043970152 0 1.4491553352389948 0.00063371674889317858 0 1.443977638703545 0.029088101188228646 0 1.395432521281563 0.015269567043970152 0 1.5000276153665697 0.01591447437832778 0 1.395432521281563 0.015269567043970152 0 1.4491553352389948 0.00063371674889317858 0 1.5000276153665697 0.01591447437832778 0 1.4491553352389948 0.00063371674889317858 0 1.5509075408897104 0.00063675314746194217 0 1.5000276153665697 0.01591447437832778 0 1.5509075408897104 0.00063675314746194217 0 1.5000276153665697 0.01591447437832778 0 1.6041227044256876 0.015199695585771365 0 1.5000276153665697 0.01591447437832778 0 1.6041227044256876 0.015199695585771365 0 1.5561963561903269 0.029095782757979718 0 1.5509075408897104 0.00063675314746194217 0 1.6041227044256876 0.015199695585771365 0 1.6529401748638488 0.0005663125105039692 0 1.6041227044256876 0.015199695585771365 0 1.6529401748638488 0.0005663125105039692 0 1.7043798746809635 0.01232761190649464 0 1.6041227044256876 0.015199695585771365 0 1.7043798746809635 0.01232761190649464 0 1.6665146766122512 0.026657911749348825 0 1.7043798746809635 0.01232761190649464 0 1.783960950146402 0.018849721984733663 0 1.7883353665810875 0.0067611878926768683 0 1.7043798746809635 0.01232761190649464 0 1.7587598229680363 0.00012090393356738811 0 1.7883353665810875 0.0067611878926768683 0 1.6529401748638488 0.0005663125105039692 0 1.7043798746809635 0.01232761190649464 0 1.7587598229680363 0.00012090393356738811 0 1.783960950146402 0.018849721984733663 0 1.6665146766122512 0.026657911749348825 0 1.7434310021675057 0.034070276742714865 0 1.783960950146402 0.018849721984733663 0 1.7434310021675057 0.034070276742714865 0 1.8458106637348717 0.02450896610719977 0 1.7043798746809635 0.01232761190649464 0 1.783960950146402 0.018849721984733663 0 1.6665146766122512 0.026657911749348825 0 1.6665146766122512 0.026657911749348825 0 1.6236319608215171 0.037982257518279904 0 1.7434310021675057 0.034070276742714865 0 1.6665146766122512 0.026657911749348825 0 1.5561963561903269 0.029095782757979718 0 1.6236319608215171 0.037982257518279904 0 1.6041227044256876 0.015199695585771365 0 1.6665146766122512 0.026657911749348825 0 1.5561963561903269 0.029095782757979718 0 1.443977638703545 0.029088101188228646 0 1.5000276153665697 0.01591447437832778 0 1.5561963561903269 0.029095782757979718 0 1.4999702082566724 0.039148515751966706 0 1.5561963561903269 0.029095782757979718 0 1.6236319608215171 0.037982257518279904 0 1.4999702082566724 0.039148515751966706 0 1.443977638703545 0.029088101188228646 0 1.5561963561903269 0.029095782757979718 0 1.4999702082566724 0.039148515751966706 0 1.5696462354087009 0.043635910073944607 0 1.6236319608215171 0.037982257518279904 0 1.5696462354087009 0.043635910073944607 0 1.6569965473615313 0.042903641437075424 0 1.7088347243833111 0.040798662454622783 0 1.5696462354087009 0.043635910073944607 0 1.6236319608215171 0.037982257518279904 0 1.7088347243833111 0.040798662454622783 0 1.4931463133064835 0.034327978077068437 0 1.4980923119935345 0.044173112706093934 0 1.6433497141222848 0.038217046584829321 0 1.4980923119935345 0.044173112706093934 0 1.5696462354087009 0.043635910073944607 0 1.6569965473615313 0.042903641437075424 0 1.4980923119935345 0.044173112706093934 0 1.6569965473615313 0.042903641437075424 0 1.6433497141222848 0.038217046584829321 0 1.6569965473615313 0.042903641437075424 0 1.6433497141222848 0.038217046584829321 0 1.8059898297209491 0.037656224163622048 0 1.6433497141222848 0.038217046584829321 0 1.8059898297209491 0.037656224163622048 0 1.8147501135054458 0.027567997746091154 0 1.6569965473615313 0.042903641437075424 0 1.8059898297209491 0.037656224163622048 0 1.7088347243833111 0.040798662454622783 0 1.8059898297209491 0.037656224163622048 0 1.971812195976959 0.023099491269126454 0 1.9546117908994527 0.027106869777991423 0 1.8059898297209491 0.037656224163622048 0 1.8539583801835735 0.032525988889119568 0 1.9546117908994527 0.027106869777991423 0 1.8059898297209491 0.037656224163622048 0 1.971812195976959 0.023099491269126454 0 1.8147501135054458 0.027567997746091154 0 1.6236319608215171 0.037982257518279904 0 1.7434310021675057 0.034070276742714865 0 1.7088347243833111 0.040798662454622783 0 1.8059898297209491 0.037656224163622048 0 1.7088347243833111 0.040798662454622783 0 1.8539583801835735 0.032525988889119568 0 1.7434310021675057 0.034070276742714865 0 1.7088347243833111 0.040798662454622783 0 1.8539583801835735 0.032525988889119568 0 1.7434310021675057 0.034070276742714865 0 1.8539583801835735 0.032525988889119568 0 1.8458106637348717 0.02450896610719977 0 1.8458106637348717 0.02450896610719977 0 2.0098479473035216 0.0066290266570111179 0 1.9047468632120037 -0.0010497647787726396 0 1.8539583801835735 0.032525988889119568 0 1.8458106637348717 0.02450896610719977 0 2.0098479473035216 0.0066290266570111179 0 1.8539583801835735 0.032525988889119568 0 2.0098479473035216 0.0066290266570111179 0 1.9546117908994527 0.027106869777991423 0 2.0098479473035216 0.0066290266570111179 0 2.0605614604358187 -0.013182144741998518 0 1.9047468632120037 -0.0010497647787726396 0 1.971812195976959 0.023099491269126454 0 2.1147194505247788 0.012688884396531225 0 2.1556890153565003 0.0076934342684402222 0 2.0098479473035216 0.0066290266570111179 0 1.9546117908994527 0.027106869777991423 0 2.1147194505247788 0.012688884396531225 0 1.971812195976959 0.023099491269126454 0 1.9546117908994527 0.027106869777991423 0 2.1147194505247788 0.012688884396531225 0 2.0098479473035216 0.0066290266570111179 0 2.1147194505247788 0.012688884396531225 0 2.1755861616954846 -0.012434541029865832 0 2.1147194505247788 0.012688884396531225 0 2.2293335606840659 -0.0098968550490891437 0 2.1556890153565003 0.0076934342684402222 0 2.1147194505247788 0.012688884396531225 0 2.2293335606840659 -0.0098968550490891437 0 2.1755861616954846 -0.012434541029865832 0 2.2293335606840659 -0.0098968550490891437 0 2.1755861616954846 -0.012434541029865832 0 2.2943239770538155 -0.021659453128203939 0 2.1755861616954846 -0.012434541029865832 0 2.2943239770538155 -0.021659453128203939 0 2.1665788003584798 -0.018537685119108686 0 2.2293335606840659 -0.0098968550490891437 0 2.2943239770538155 -0.021659453128203939 0 2.3368981623767908 -0.01519169343732818 0 2.0098479473035216 0.0066290266570111179 0 2.0605614604358187 -0.013182144741998518 0 2.1665788003584798 -0.018537685119108686 0 2.0605614604358187 -0.013182144741998518 0 2.1665788003584798 -0.018537685119108686 0 2.1914150263114012 -0.02026491767080069 0 2.0098479473035216 0.0066290266570111179 0 2.1755861616954846 -0.012434541029865832 0 2.1665788003584798 -0.018537685119108686 0 2.2943239770538155 -0.021659453128203939 0 2.1665788003584798 -0.018537685119108686 0 2.3114194218815389 -0.024461559995750344 0 2.1665788003584798 -0.018537685119108686 0 2.1914150263114012 -0.02026491767080069 0 2.3114194218815389 -0.024461559995750344 0 2.1914150263114012 -0.02026491767080069 0 2.0424295859527546 -0.0098904636261034646 0 2.2292940100177723 -0.015294218255468868 0 2.0605614604358187 -0.013182144741998518 0 2.1914150263114012 -0.02026491767080069 0 2.0424295859527546 -0.0098904636261034646 0 2.0605614604358187 -0.013182144741998518 0 2.0424295859527546 -0.0098904636261034646 0 1.9047468632120037 -0.0010497647787726396 0 2.0424295859527546 -0.0098904636261034646 0 1.9711293523363991 -0.0034324075470860299 0 1.8629122264050417 -0.000942235367044463 0 2.0424295859527546 -0.0098904636261034646 0 2.1208697014107258 -0.0067911821964987398 0 2.2292940100177723 -0.015294218255468868 0 2.1208697014107258 -0.0067911821964987398 0 2.0067043030481728 -2.3211797633820926e-05 0 2.204134432218591 -0.00031372519656636382 0 2.0067043030481728 -2.3211797633820926e-05 0 1.9711293523363991 -0.0034324075470860299 0 1.845553726558349 4.3588672886857131e-05 0 2.1208697014107258 -0.0067911821964987398 0 2.0067043030481728 -2.3211797633820926e-05 0 1.9711293523363991 -0.0034324075470860299 0 2.0424295859527546 -0.0098904636261034646 0 2.1208697014107258 -0.0067911821964987398 0 1.9711293523363991 -0.0034324075470860299 0 1.9711293523363991 -0.0034324075470860299 0 1.845553726558349 4.3588672886857131e-05 0 1.8629122264050417 -0.000942235367044463 0 2.0067043030481728 -2.3211797633820926e-05 0 1.845553726558349 4.3588672886857131e-05 0 1.8455681700726629 1.0478200646930818e-05 0 1.7587598229680363 0.00012090393356738811 0 1.845553726558349 4.3588672886857131e-05 0 1.7883353665810875 0.0067611878926768683 0 1.7587598229680363 0.00012090393356738811 0 1.845553726558349 4.3588672886857131e-05 0 1.8455681700726629 1.0478200646930818e-05 0 1.845553726558349 4.3588672886857131e-05 0 1.7883353665810875 0.0067611878926768683 0 1.8629122264050417 -0.000942235367044463 0 1.783960950146402 0.018849721984733663 0 1.9047468632120037 -0.0010497647787726396 0 1.8629122264050417 -0.000942235367044463 0 1.783960950146402 0.018849721984733663 0 1.7883353665810875 0.0067611878926768683 0 1.8629122264050417 -0.000942235367044463 0 1.783960950146402 0.018849721984733663 0 1.8458106637348717 0.02450896610719977 0 1.9047468632120037 -0.0010497647787726396 0 2.0424295859527546 -0.0098904636261034646 0 1.9047468632120037 -0.0010497647787726396 0 1.8629122264050417 -0.000942235367044463 0 1.8571620413316021 -1.5727851528765445e-05 0 1.8015529050781744 -0.0090954777622056764 0 1.948197091739885 -0.010252429188070483 0 1.8015529050781744 -0.0090954777622056764 0 1.9611309639155929 -0.010532453950277682 0 1.948197091739885 -0.010252429188070483 0 1.8571620413316021 -1.5727851528765445e-05 0 1.8015529050781744 -0.0090954777622056764 0 1.7143013949586887 -1.3109508341154523e-05 0 1.8015529050781744 -0.0090954777622056764 0 1.7143013949586887 -1.3109508341154523e-05 0 1.6464519639570647 -0.0056521448226080082 0 1.7143013949586887 -1.3109508341154523e-05 0 1.571437884112723 -1.177582036178354e-05 0 1.6464519639570647 -0.0056521448226080082 0 1.4972586597216722 -0.0066427718640689765 0 1.571437884112723 -1.177582036178354e-05 0 1.6464519639570647 -0.0056521448226080082 0 1.4972586597216722 -0.0066427718640689765 0 1.6464519639570647 -0.0056521448226080082 0 1.6425419706109357 -0.0065060913687487662 0 1.8015529050781744 -0.0090954777622056764 0 1.6464519639570647 -0.0056521448226080082 0 1.6425419706109357 -0.0065060913687487662 0 1.4936062728727251 -0.0030994623014705129 0 1.4972586597216722 -0.0066427718640689765 0 1.6425419706109357 -0.0065060913687487662 0 1.4936062728727251 -0.0030994623014705129 0 1.6425419706109357 -0.0065060913687487662 0 1.651769575410146 0.00058847727530506066 0 1.4930325057569238 0.0069127170258559065 0 1.4936062728727251 -0.0030994623014705129 0 1.651769575410146 0.00058847727530506066 0 1.6425419706109357 -0.0065060913687487662 0 1.651769575410146 0.00058847727530506066 0 1.8068320017590063 -0.0055537054258802971 0 1.651769575410146 0.00058847727530506066 0 1.8068320017590063 -0.0055537054258802971 0 1.81904614449625 0.0034168282485067696 0 1.8015529050781744 -0.0090954777622056764 0 1.6425419706109357 -0.0065060913687487662 0 1.8068320017590063 -0.0055537054258802971 0 1.8015529050781744 -0.0090954777622056764 0 1.8068320017590063 -0.0055537054258802971 0 1.9611309639155929 -0.010532453950277682 0 1.8068320017590063 -0.0055537054258802971 0 1.9611309639155929 -0.010532453950277682 0 1.9810956200358611 -0.0049056643801154761 0 1.8068320017590063 -0.0055537054258802971 0 1.9810956200358611 -0.0049056643801154761 0 1.81904614449625 0.0034168282485067696 0 1.9810956200358611 -0.0049056643801154761 0 1.9955290301311706 0.00378877196046444 0 1.81904614449625 0.0034168282485067696 0 1.9955290301311706 0.00378877196046444 0 1.81904614449625 0.0034168282485067696 0 1.8211359682449619 0.015358439006758685 0 1.81904614449625 0.0034168282485067696 0 1.6549132065976007 0.01237911481499224 0 1.8211359682449619 0.015358439006758685 0 1.651769575410146 0.00058847727530506066 0 1.81904614449625 0.0034168282485067696 0 1.6549132065976007 0.01237911481499224 0 1.4930325057569238 0.0069127170258559065 0 1.651769575410146 0.00058847727530506066 0 1.6549132065976007 0.01237911481499224 0 1.4914227832263443 0.020432920587398921 0 1.4930325057569238 0.0069127170258559065 0 1.6549132065976007 0.01237911481499224 0 1.6549132065976007 0.01237911481499224 0 1.6536097632821878 0.026068120619491181 0 1.8211359682449619 0.015358439006758685 0 1.4914227832263443 0.020432920587398921 0 1.6549132065976007 0.01237911481499224 0 1.6536097632821878 0.026068120619491181 0 1.4931463133064835 0.034327978077068437 0 1.4914227832263443 0.020432920587398921 0 1.6536097632821878 0.026068120619491181 0 1.4931463133064835 0.034327978077068437 0 1.6433497141222848 0.038217046584829321 0 1.6536097632821878 0.026068120619491181 0 1.6433497141222848 0.038217046584829321 0 1.6536097632821878 0.026068120619491181 0 1.8147501135054458 0.027567997746091154 0 1.6536097632821878 0.026068120619491181 0 1.8147501135054458 0.027567997746091154 0 1.8211359682449619 0.015358439006758685 0 1.9955290301311706 0.00378877196046444 0 1.8211359682449619 0.015358439006758685 0 1.9859878536352178 0.014080192591736594 0 1.8147501135054458 0.027567997746091154 0 1.8211359682449619 0.015358439006758685 0 1.9859878536352178 0.014080192591736594 0 1.971812195976959 0.023099491269126454 0 1.8147501135054458 0.027567997746091154 0 1.9859878536352178 0.014080192591736594 0 1.971812195976959 0.023099491269126454 0 1.9859878536352178 0.014080192591736594 0 2.1556890153565003 0.0076934342684402222 0 1.9859878536352178 0.014080192591736594 0 2.1715813412313278 0.00090398289057743808 0 2.1556890153565003 0.0076934342684402222 0 1.9955290301311706 0.00378877196046444 0 1.9859878536352178 0.014080192591736594 0 2.1715813412313278 0.00090398289057743808 0 2.1715813412313278 0.00090398289057743808 0 2.1556890153565003 0.0076934342684402222 0 2.2556494375172202 -0.0061726186602137981 0 2.2293335606840659 -0.0098968550490891437 0 2.1556890153565003 0.0076934342684402222 0 2.2556494375172202 -0.0061726186602137981 0 2.2293335606840659 -0.0098968550490891437 0 2.3368981623767908 -0.01519169343732818 0 2.2556494375172202 -0.0061726186602137981 0 2.3368981623767908 -0.01519169343732818 0 2.3536600173086231 -0.0088705294030358168 0 2.2556494375172202 -0.0061726186602137981 0 2.3536600173086231 -0.0088705294030358168 0 2.2556494375172202 -0.0061726186602137981 0 2.2614112757762834 -0.0047100243877853821 0 2.1715813412313278 0.00090398289057743808 0 2.2556494375172202 -0.0061726186602137981 0 2.2614112757762834 -0.0047100243877853821 0 2.3536600173086231 -0.0088705294030358168 0 2.2614112757762834 -0.0047100243877853821 0 2.3506859470954642 -0.0037073356342488088 0 2.2614112757762834 -0.0047100243877853821 0 2.3506859470954642 -0.0037073356342488088 0 2.2490859066435274 -0.0037489617588905492 0 2.2614112757762834 -0.0047100243877853821 0 2.1687300755259455 -0.0061689249452342382 0 2.2490859066435274 -0.0037489617588905492 0 2.1715813412313278 0.00090398289057743808 0 2.2614112757762834 -0.0047100243877853821 0 2.1687300755259455 -0.0061689249452342382 0 1.9955290301311706 0.00378877196046444 0 2.1715813412313278 0.00090398289057743808 0 2.1687300755259455 -0.0061689249452342382 0 1.9810956200358611 -0.0049056643801154761 0 1.9955290301311706 0.00378877196046444 0 2.1687300755259455 -0.0061689249452342382 0 1.9611309639155929 -0.010532453950277682 0 1.9810956200358611 -0.0049056643801154761 0 2.1470958192376428 -0.012124935344776855 0 1.9810956200358611 -0.0049056643801154761 0 2.1687300755259455 -0.0061689249452342382 0 2.1470958192376428 -0.012124935344776855 0 1.9611309639155929 -0.010532453950277682 0 2.1470958192376428 -0.012124935344776855 0 2.1013623164298152 -0.014313157121313558 0 2.1470958192376428 -0.012124935344776855 0 2.2159890818241679 -0.0015416318951056798 0 2.1013623164298152 -0.014313157121313558 0 2.1687300755259455 -0.0061689249452342382 0 2.1470958192376428 -0.012124935344776855 0 2.2490859066435274 -0.0037489617588905492 0 2.1470958192376428 -0.012124935344776855 0 2.2490859066435274 -0.0037489617588905492 0 2.2159890818241679 -0.0015416318951056798 0 2.2490859066435274 -0.0037489617588905492 0 2.3314183437562228 0.00080430923416348929 0 2.2159890818241679 -0.0015416318951056798 0 2.3506859470954642 -0.0037073356342488088 0 2.2490859066435274 -0.0037489617588905492 0 2.3314183437562228 0.00080430923416348929 0 2.3314183437562228 0.00080430923416348929 0 2.2159890818241679 -0.0015416318951056798 0 2.2797516417868153 0.0039567108948127087 0 2.2159890818241679 -0.0015416318951056798 0 2.1584067914917715 0.00068020912960977883 0 2.2797516417868153 0.0039567108948127087 0 2.2159890818241679 -0.0015416318951056798 0 2.1584067914917715 0.00068020912960977883 0 2.1013623164298152 -0.014313157121313558 0 2.2797516417868153 0.0039567108948127087 0 2.1428736146178005 1.8821945783257868e-05 0 2.2857380698896179 3.9747227667698649e-06 0 2.1584067914917715 0.00068020912960977883 0 2.2797516417868153 0.0039567108948127087 0 2.1428736146178005 1.8821945783257868e-05 0 2.1584067914917715 0.00068020912960977883 0 2.1428736146178005 1.8821945783257868e-05 0 2.0001159615531297 -3.9351704045195776e-05 0 2.1584067914917715 0.00068020912960977883 0 2.0001159615531297 -3.9351704045195776e-05 0 2.1013623164298152 -0.014313157121313558 0 1.9611309639155929 -0.010532453950277682 0 2.1013623164298152 -0.014313157121313558 0 1.948197091739885 -0.010252429188070483 0 2.0001159615531297 -3.9351704045195776e-05 0 2.1013623164298152 -0.014313157121313558 0 1.948197091739885 -0.010252429188070483 0 1.8571620413316021 -1.5727851528765445e-05 0 2.0001159615531297 -3.9351704045195776e-05 0 1.948197091739885 -0.010252429188070483 0 2.5714385478208723 4.6046423946517717e-06 0 2.52095390321512 0.0032025810596805998 0 2.6521577840147339 0.001984249937089972 0 2.52095390321512 0.0032025810596805998 0 2.6484186833357897 0.0025650730818547827 0 2.6521577840147339 0.001984249937089972 0 2.5714385478208723 4.6046423946517717e-06 0 2.52095390321512 0.0032025810596805998 0 2.4285880402614697 7.3965633473016316e-06 0 2.4285880402614697 7.3965633473016316e-06 0 2.2857380698896179 3.9747227667698649e-06 0 2.3860916946148851 0.0030018975580638073 0 2.52095390321512 0.0032025810596805998 0 2.4285880402614697 7.3965633473016316e-06 0 2.3860916946148851 0.0030018975580638073 0 2.2797516417868153 0.0039567108948127087 0 2.2857380698896179 3.9747227667698649e-06 0 2.3860916946148851 0.0030018975580638073 0 2.2797516417868153 0.0039567108948127087 0 2.3860916946148851 0.0030018975580638073 0 2.4194584251594442 0.0032596815239081083 0 2.52095390321512 0.0032025810596805998 0 2.3860916946148851 0.0030018975580638073 0 2.4194584251594442 0.0032596815239081083 0 2.3314183437562228 0.00080430923416348929 0 2.2797516417868153 0.0039567108948127087 0 2.4194584251594442 0.0032596815239081083 0 2.3314183437562228 0.00080430923416348929 0 2.4194584251594442 0.0032596815239081083 0 2.4423876102884425 -0.00073876277719729481 0 2.3506859470954642 -0.0037073356342488088 0 2.3314183437562228 0.00080430923416348929 0 2.4423876102884425 -0.00073876277719729481 0 2.4194584251594442 0.0032596815239081083 0 2.4423876102884425 -0.00073876277719729481 0 2.5399193408608016 0.0015887934778569804 0 2.4423876102884425 -0.00073876277719729481 0 2.5399193408608016 0.0015887934778569804 0 2.5509603496556732 -0.0032780369603423272 0 2.52095390321512 0.0032025810596805998 0 2.4194584251594442 0.0032596815239081083 0 2.5399193408608016 0.0015887934778569804 0 2.52095390321512 0.0032025810596805998 0 2.5399193408608016 0.0015887934778569804 0 2.6484186833357897 0.0025650730818547827 0 2.5399193408608016 0.0015887934778569804 0 2.6484186833357897 0.0025650730818547827 0 2.6546577929190414 -0.00025057906936702212 0 2.5399193408608016 0.0015887934778569804 0 2.6546577929190414 -0.00025057906936702212 0 2.5509603496556732 -0.0032780369603423272 0 2.6546577929190414 -0.00025057906936702212 0 2.6588867011786714 -0.0051507796786527359 0 2.5509603496556732 -0.0032780369603423272 0 2.6588867011786714 -0.0051507796786527359 0 2.5509603496556732 -0.0032780369603423272 0 2.552017078803416 -0.0096688939258253361 0 2.5509603496556732 -0.0032780369603423272 0 2.4506408066093104 -0.0068067073303995787 0 2.552017078803416 -0.0096688939258253361 0 2.4423876102884425 -0.00073876277719729481 0 2.5509603496556732 -0.0032780369603423272 0 2.4506408066093104 -0.0068067073303995787 0 2.3506859470954642 -0.0037073356342488088 0 2.4423876102884425 -0.00073876277719729481 0 2.4506408066093104 -0.0068067073303995787 0 2.3536600173086231 -0.0088705294030358168 0 2.3506859470954642 -0.0037073356342488088 0 2.4506408066093104 -0.0068067073303995787 0 2.4506408066093104 -0.0068067073303995787 0 2.444023678564017 -0.014032348910660188 0 2.552017078803416 -0.0096688939258253361 0 2.3536600173086231 -0.0088705294030358168 0 2.4506408066093104 -0.0068067073303995787 0 2.444023678564017 -0.014032348910660188 0 2.3368981623767908 -0.01519169343732818 0 2.3536600173086231 -0.0088705294030358168 0 2.444023678564017 -0.014032348910660188 0 2.3368981623767908 -0.01519169343732818 0 2.444023678564017 -0.014032348910660188 0 2.428399641440885 -0.020687120092487028 0 2.444023678564017 -0.014032348910660188 0 2.5458151480751745 -0.016169642419810303 0 2.428399641440885 -0.020687120092487028 0 2.444023678564017 -0.014032348910660188 0 2.5458151480751745 -0.016169642419810303 0 2.552017078803416 -0.0096688939258253361 0 2.6588867011786714 -0.0051507796786527359 0 2.552017078803416 -0.0096688939258253361 0 2.6582039847255357 -0.010668077685378216 0 2.5458151480751745 -0.016169642419810303 0 2.552017078803416 -0.0096688939258253361 0 2.6582039847255357 -0.010668077685378216 0 2.5458151480751745 -0.016169642419810303 0 2.6582039847255357 -0.010668077685378216 0 2.6512163776786446 -0.015333239023032907 0 2.6582039847255357 -0.010668077685378216 0 2.7705366143878511 -0.0092735545189637936 0 2.6512163776786446 -0.015333239023032907 0 2.6588867011786714 -0.0051507796786527359 0 2.6582039847255357 -0.010668077685378216 0 2.7691985385718101 -0.0055382320949383867 0 2.6582039847255357 -0.010668077685378216 0 2.7691985385718101 -0.0055382320949383867 0 2.7705366143878511 -0.0092735545189637936 0 2.7691985385718101 -0.0055382320949383867 0 2.7705366143878511 -0.0092735545189637936 0 2.881804866432141 -0.0040329699340392842 0 2.7705366143878511 -0.0092735545189637936 0 2.881804866432141 -0.0040329699340392842 0 2.8874194607800261 -0.0056508864271824577 0 2.9998688975733985 -3.4357873732512279e-06 0 2.881804866432141 -0.0040329699340392842 0 2.8874194607800261 -0.0056508864271824577 0 2.9998701833648997 -1.5369227454767634e-06 0 2.881804866432141 -0.0040329699340392842 0 2.8845630487173985 -0.0016094790806515027 0 2.9998688975733985 -3.4357873732512279e-06 0 2.9998701833648997 -1.5369227454767634e-06 0 2.881804866432141 -0.0040329699340392842 0 2.7691985385718101 -0.0055382320949383867 0 2.881804866432141 -0.0040329699340392842 0 2.8845630487173985 -0.0016094790806515027 0 2.9998701833648997 -1.5369227454767634e-06 0 2.8845630487173985 -0.0016094790806515027 0 2.9998679818588716 1.7506780678799828e-08 0 2.8845630487173985 -0.0016094790806515027 0 2.9998679818588716 1.7506780678799828e-08 0 2.8807118581138789 0.00052610906643661616 0 2.8845630487173985 -0.0016094790806515027 0 2.7686574340917982 -0.0015196762114452302 0 2.8807118581138789 0.00052610906643661616 0 2.7691985385718101 -0.0055382320949383867 0 2.8845630487173985 -0.0016094790806515027 0 2.7686574340917982 -0.0015196762114452302 0 2.6588867011786714 -0.0051507796786527359 0 2.7691985385718101 -0.0055382320949383867 0 2.7686574340917982 -0.0015196762114452302 0 2.6546577929190414 -0.00025057906936702212 0 2.6588867011786714 -0.0051507796786527359 0 2.7686574340917982 -0.0015196762114452302 0 2.6546577929190414 -0.00025057906936702212 0 2.7686574340917982 -0.0015196762114452302 0 2.7651628867748017 0.0014813652270991107 0 2.6484186833357897 0.0025650730818547827 0 2.6546577929190414 -0.00025057906936702212 0 2.7651628867748017 0.0014813652270991107 0 2.6484186833357897 0.0025650730818547827 0 2.7651628867748017 0.0014813652270991107 0 2.7739795507454059 0.0023353252626568703 0 2.7651628867748017 0.0014813652270991107 0 2.8828021396170054 0.0017647811331357305 0 2.7739795507454059 0.0023353252626568703 0 2.7686574340917982 -0.0015196762114452302 0 2.7651628867748017 0.0014813652270991107 0 2.8807118581138789 0.00052610906643661616 0 2.7651628867748017 0.0014813652270991107 0 2.8807118581138789 0.00052610906643661616 0 2.8828021396170054 0.0017647811331357305 0 2.9998679818588716 1.7506780678799828e-08 0 2.8807118581138789 0.00052610906643661616 0 2.9998719109841554 1.6228616357035445e-06 0 2.8807118581138789 0.00052610906643661616 0 2.9998719109841554 1.6228616357035445e-06 0 2.8828021396170054 0.0017647811331357305 0 2.9998719109841554 1.6228616357035445e-06 0 2.8828021396170054 0.0017647811331357305 0 2.9998447372346861 1.9764103602774847e-06 0 2.8828021396170054 0.0017647811331357305 0 2.8986961007591323 0.0012698551734743717 0 2.7739795507454059 0.0023353252626568703 0 2.8828021396170054 0.0017647811331357305 0 2.8986961007591323 0.0012698551734743717 0 2.9998447372346861 1.9764103602774847e-06 0 2.8986961007591323 0.0012698551734743717 0 2.9999281989028024 3.4893018055259032e-07 0 2.8571643116291416 3.6067054388733013e-06 0 2.8986961007591323 0.0012698551734743717 0 2.9998447372346861 1.9764103602774847e-06 0 2.9999281989028024 3.4893018055259032e-07 0 2.8986961007591323 0.0012698551734743717 0 2.8571643116291416 3.6067054388733013e-06 0 2.7739795507454059 0.0023353252626568703 0 2.8571643116291416 3.6067054388733013e-06 0 2.7739795507454059 0.0023353252626568703 0 2.714288445058036 3.917004619300921e-06 0 2.6484186833357897 0.0025650730818547827 0 2.7739795507454059 0.0023353252626568703 0 2.6521577840147339 0.001984249937089972 0 2.5714385478208723 4.6046423946517717e-06 0 2.6521577840147339 0.001984249937089972 0 2.714288445058036 3.917004619300921e-06 0 2.7739795507454059 0.0023353252626568703 0 2.6521577840147339 0.001984249937089972 0 2.714288445058036 3.917004619300921e-06 0 2.5523348522920819 -0.014257918901220072 0 2.4612856644825993 -0.0083137295832728265 0 2.3951171058635472 -0.016063545238374079 0 2.5523348522920819 -0.014257918901220072 0 2.3951171058635472 -0.016063545238374079 0 2.4954251559302842 -0.020485366690166484 0 2.5523348522920819 -0.014257918901220072 0 2.4954251559302842 -0.020485366690166484 0 2.6428791432060326 -0.016555072875612118 0 2.5523348522920819 -0.014257918901220072 0 2.4612856644825993 -0.0083137295832728265 0 2.620094555782813 -0.0070225727403913103 0 2.5373696480054733 -0.00031495263025583246 0 2.4612856644825993 -0.0083137295832728265 0 2.620094555782813 -0.0070225727403913103 0 2.5373696480054733 -0.00031495263025583246 0 2.4612856644825993 -0.0083137295832728265 0 2.3741281418332387 -0.00034770711534066047 0 2.4612856644825993 -0.0083137295832728265 0 2.2954823380395939 -0.0085083709055204966 0 2.3951171058635472 -0.016063545238374079 0 2.4612856644825993 -0.0083137295832728265 0 2.2954823380395939 -0.0085083709055204966 0 2.3741281418332387 -0.00034770711534066047 0 2.2954823380395939 -0.0085083709055204966 0 2.3741281418332387 -0.00034770711534066047 0 2.204134432218591 -0.00031372519656636382 0 2.1208697014107258 -0.0067911821964987398 0 2.2954823380395939 -0.0085083709055204966 0 2.204134432218591 -0.00031372519656636382 0 2.1208697014107258 -0.0067911821964987398 0 2.2954823380395939 -0.0085083709055204966 0 2.2292940100177723 -0.015294218255468868 0 2.2954823380395939 -0.0085083709055204966 0 2.2292940100177723 -0.015294218255468868 0 2.3951171058635472 -0.016063545238374079 0 2.2292940100177723 -0.015294218255468868 0 2.3951171058635472 -0.016063545238374079 0 2.3444895026645121 -0.022136294188818035 0 2.3951171058635472 -0.016063545238374079 0 2.3444895026645121 -0.022136294188818035 0 2.4954251559302842 -0.020485366690166484 0 2.1914150263114012 -0.02026491767080069 0 2.2292940100177723 -0.015294218255468868 0 2.3444895026645121 -0.022136294188818035 0 2.1914150263114012 -0.02026491767080069 0 2.3114194218815389 -0.024461559995750344 0 2.3444895026645121 -0.022136294188818035 0 2.3114194218815389 -0.024461559995750344 0 2.4534104120355997 -0.02385853894156446 0 2.3993282703838448 -0.023887661825597185 0 2.4534104120355997 -0.02385853894156446 0 2.3444895026645121 -0.022136294188818035 0 2.4954251559302842 -0.020485366690166484 0 2.3114194218815389 -0.024461559995750344 0 2.4534104120355997 -0.02385853894156446 0 2.3444895026645121 -0.022136294188818035 0 2.2943239770538155 -0.021659453128203939 0 2.3368981623767908 -0.01519169343732818 0 2.428399641440885 -0.020687120092487028 0 2.2943239770538155 -0.021659453128203939 0 2.3114194218815389 -0.024461559995750344 0 2.3993282703838448 -0.023887661825597185 0 2.2943239770538155 -0.021659453128203939 0 2.3993282703838448 -0.023887661825597185 0 2.428399641440885 -0.020687120092487028 0 2.4534104120355997 -0.02385853894156446 0 2.3993282703838448 -0.023887661825597185 0 2.5347863829643003 -0.020976345664957898 0 2.3993282703838448 -0.023887661825597185 0 2.428399641440885 -0.020687120092487028 0 2.5347863829643003 -0.020976345664957898 0 2.5458151480751745 -0.016169642419810303 0 2.428399641440885 -0.020687120092487028 0 2.5347863829643003 -0.020976345664957898 0 2.5347863829643003 -0.020976345664957898 0 2.5916456195603881 -0.020023014638798065 0 2.6663975166141265 -0.016659199756612206 0 2.5347863829643003 -0.020976345664957898 0 2.6512163776786446 -0.015333239023032907 0 2.6663975166141265 -0.016659199756612206 0 2.5458151480751745 -0.016169642419810303 0 2.5347863829643003 -0.020976345664957898 0 2.6512163776786446 -0.015333239023032907 0 2.4534104120355997 -0.02385853894156446 0 2.4954251559302842 -0.020485366690166484 0 2.5916456195603881 -0.020023014638798065 0 2.4534104120355997 -0.02385853894156446 0 2.5347863829643003 -0.020976345664957898 0 2.5916456195603881 -0.020023014638798065 0 2.4954251559302842 -0.020485366690166484 0 2.5916456195603881 -0.020023014638798065 0 2.6428791432060326 -0.016555072875612118 0 2.5916456195603881 -0.020023014638798065 0 2.6428791432060326 -0.016555072875612118 0 2.7292119944378328 -0.014709571131267056 0 2.6428791432060326 -0.016555072875612118 0 2.7292119944378328 -0.014709571131267056 0 2.7834259633794374 -0.011762244163843161 0 2.5916456195603881 -0.020023014638798065 0 2.7292119944378328 -0.014709571131267056 0 2.6663975166141265 -0.016659199756612206 0 2.7292119944378328 -0.014709571131267056 0 2.781285872659454 -0.011605867371477374 0 2.8651883017044937 -0.0082154466253306583 0 2.7292119944378328 -0.014709571131267056 0 2.7834259633794374 -0.011762244163843161 0 2.8651883017044937 -0.0082154466253306583 0 2.7705366143878511 -0.0092735545189637936 0 2.6512163776786446 -0.015333239023032907 0 2.781285872659454 -0.011605867371477374 0 2.7292119944378328 -0.014709571131267056 0 2.6663975166141265 -0.016659199756612206 0 2.781285872659454 -0.011605867371477374 0 2.6512163776786446 -0.015333239023032907 0 2.6663975166141265 -0.016659199756612206 0 2.781285872659454 -0.011605867371477374 0 2.7705366143878511 -0.0092735545189637936 0 2.781285872659454 -0.011605867371477374 0 2.8874194607800261 -0.0056508864271824577 0 2.781285872659454 -0.011605867371477374 0 2.9022770921903889 -0.0056075704827531743 0 2.8651883017044937 -0.0082154466253306583 0 2.781285872659454 -0.011605867371477374 0 2.8874194607800261 -0.0056508864271824577 0 2.9022770921903889 -0.0056075704827531743 0 2.9022770921903889 -0.0056075704827531743 0 2.9998665424059725 -3.8590620563502638e-06 0 2.999867408742916 -5.3113076495093586e-06 0 2.8874194607800261 -0.0056508864271824577 0 2.9022770921903889 -0.0056075704827531743 0 2.9998665424059725 -3.8590620563502638e-06 0 2.9998688975733985 -3.4357873732512279e-06 0 2.8874194607800261 -0.0056508864271824577 0 2.9998665424059725 -3.8590620563502638e-06 0 2.7834259633794374 -0.011762244163843161 0 2.8971079767364447 -0.0063857702355275504 0 2.8651883017044937 -0.0082154466253306583 0 2.9022770921903889 -0.0056075704827531743 0 2.8651883017044937 -0.0082154466253306583 0 2.999867408742916 -5.3113076495093586e-06 0 2.8971079767364447 -0.0063857702355275504 0 2.8651883017044937 -0.0082154466253306583 0 2.999867408742916 -5.3113076495093586e-06 0 2.8971079767364447 -0.0063857702355275504 0 2.999867408742916 -5.3113076495093586e-06 0 2.9998573223278893 -5.8807584578388159e-06 0 2.8971079767364447 -0.0063857702355275504 0 2.9998573223278893 -5.8807584578388159e-06 0 2.8680817224571835 -0.0065974976412248622 0 2.9998573223278893 -5.8807584578388159e-06 0 2.9998532318821223 -3.0056647124007366e-06 0 2.8680817224571835 -0.0065974976412248622 0 2.9998532318821223 -3.0056647124007366e-06 0 2.8680817224571835 -0.0065974976412248622 0 2.9011290491345703 -0.0026989562936335378 0 2.7834259633794374 -0.011762244163843161 0 2.8971079767364447 -0.0063857702355275504 0 2.8680817224571835 -0.0065974976412248622 0 2.7834259633794374 -0.011762244163843161 0 2.8680817224571835 -0.0065974976412248622 0 2.7060502481023989 -0.011123528366088641 0 2.8680817224571835 -0.0065974976412248622 0 2.7060502481023989 -0.011123528366088641 0 2.775142903332751 -0.0052333522536507152 0 2.5523348522920819 -0.014257918901220072 0 2.7060502481023989 -0.011123528366088641 0 2.620094555782813 -0.0070225727403913103 0 2.5523348522920819 -0.014257918901220072 0 2.6428791432060326 -0.016555072875612118 0 2.7060502481023989 -0.011123528366088641 0 2.6428791432060326 -0.016555072875612118 0 2.7834259633794374 -0.011762244163843161 0 2.7060502481023989 -0.011123528366088641 0 2.5373696480054733 -0.00031495263025583246 0 2.6981126327273413 -0.00026401681697019224 0 2.620094555782813 -0.0070225727403913103 0 2.6981126327273413 -0.00026401681697019224 0 2.620094555782813 -0.0070225727403913103 0 2.775142903332751 -0.0052333522536507152 0 2.7060502481023989 -0.011123528366088641 0 2.620094555782813 -0.0070225727403913103 0 2.775142903332751 -0.0052333522536507152 0 2.6981126327273413 -0.00026401681697019224 0 2.775142903332751 -0.0052333522536507152 0 2.8633138413254793 -6.4436601732216264e-05 0 2.775142903332751 -0.0052333522536507152 0 2.8633138413254793 -6.4436601732216264e-05 0 2.9011290491345703 -0.0026989562936335378 0 2.8680817224571835 -0.0065974976412248622 0 2.775142903332751 -0.0052333522536507152 0 2.9011290491345703 -0.0026989562936335378 0 2.9998532318821223 -3.0056647124007366e-06 0 2.9011290491345703 -0.0026989562936335378 0 2.999850494559142 -2.2415794854812103e-06 0 2.8633138413254793 -6.4436601732216264e-05 0 2.999850494559142 -2.2415794854812103e-06 0 2.9998507335485041 2.2549355008681239e-06 0 2.8633138413254793 -6.4436601732216264e-05 0 2.9011290491345703 -0.0026989562936335378 0 2.999850494559142 -2.2415794854812103e-06 0 2.8633138413254793 -6.4436601732216264e-05 0 2.9998507335485041 2.2549355008681239e-06 0 2.8986638953157997 0.0028351748942213482 0 2.9998507335485041 2.2549355008681239e-06 0 2.8986638953157997 0.0028351748942213482 0 2.9998529184452751 2.9137716905769814e-06 0 2.8986638953157997 0.0028351748942213482 0 2.8658985149096186 0.0065387241824850775 0 2.7746335292896975 0.0045593930966779132 0 2.8633138413254793 -6.4436601732216264e-05 0 2.8986638953157997 0.0028351748942213482 0 2.7746335292896975 0.0045593930966779132 0 2.9998575074065155 5.9906604652677329e-06 0 2.8658985149096186 0.0065387241824850775 0 2.8970677116595942 0.0063677010939160554 0 2.9998575074065155 5.9906604652677329e-06 0 2.9998529184452751 2.9137716905769814e-06 0 2.8658985149096186 0.0065387241824850775 0 2.8986638953157997 0.0028351748942213482 0 2.9998529184452751 2.9137716905769814e-06 0 2.8658985149096186 0.0065387241824850775 0 2.8658985149096186 0.0065387241824850775 0 2.7830387861128765 0.011734947947426537 0 2.8970677116595942 0.0063677010939160554 0 2.8658985149096186 0.0065387241824850775 0 2.7047826709038993 0.010892714400168977 0 2.7830387861128765 0.011734947947426537 0 2.8658985149096186 0.0065387241824850775 0 2.7047826709038993 0.010892714400168977 0 2.7746335292896975 0.0045593930966779132 0 2.7047826709038993 0.010892714400168977 0 2.6207524314519715 0.0065497302171486213 0 2.5533045767804952 0.014058567786949942 0 2.7047826709038993 0.010892714400168977 0 2.6422739244286411 0.016547513397044904 0 2.7830387861128765 0.011734947947426537 0 2.7047826709038993 0.010892714400168977 0 2.5533045767804952 0.014058567786949942 0 2.6422739244286411 0.016547513397044904 0 2.6981126327273413 -0.00026401681697019224 0 2.8633138413254793 -6.4436601732216264e-05 0 2.7746335292896975 0.0045593930966779132 0 2.7047826709038993 0.010892714400168977 0 2.7746335292896975 0.0045593930966779132 0 2.6207524314519715 0.0065497302171486213 0 2.5373696480054733 -0.00031495263025583246 0 2.6981126327273413 -0.00026401681697019224 0 2.6207524314519715 0.0065497302171486213 0 2.6981126327273413 -0.00026401681697019224 0 2.7746335292896975 0.0045593930966779132 0 2.6207524314519715 0.0065497302171486213 0 2.5373696480054733 -0.00031495263025583246 0 2.6207524314519715 0.0065497302171486213 0 2.4609804442862067 0.0077688132952275207 0 2.5373696480054733 -0.00031495263025583246 0 2.3741281418332387 -0.00034770711534066047 0 2.4609804442862067 0.0077688132952275207 0 2.6207524314519715 0.0065497302171486213 0 2.4609804442862067 0.0077688132952275207 0 2.5533045767804952 0.014058567786949942 0 2.5533045767804952 0.014058567786949942 0 2.4952159340384767 0.020447724382071361 0 2.6422739244286411 0.016547513397044904 0 2.5533045767804952 0.014058567786949942 0 2.3935760583137244 0.015563233840778998 0 2.4952159340384767 0.020447724382071361 0 2.4609804442862067 0.0077688132952275207 0 2.5533045767804952 0.014058567786949942 0 2.3935760583137244 0.015563233840778998 0 2.3935760583137244 0.015563233840778998 0 2.2297877190781401 0.014778293743538388 0 2.2951751208255278 0.0078464193211681237 0 2.3935760583137244 0.015563233840778998 0 2.3416414251553617 0.021849478675819597 0 2.2297877190781401 0.014778293743538388 0 2.3935760583137244 0.015563233840778998 0 2.3416414251553617 0.021849478675819597 0 2.4952159340384767 0.020447724382071361 0 2.3416414251553617 0.021849478675819597 0 2.2297877190781401 0.014778293743538388 0 2.1884212901966298 0.020005453246433432 0 2.2297877190781401 0.014778293743538388 0 2.2951751208255278 0.0078464193211681237 0 2.1221889769769473 0.0061818099005135465 0 2.204134432218591 -0.00031372519656636382 0 2.2951751208255278 0.0078464193211681237 0 2.1221889769769473 0.0061818099005135465 0 2.3741281418332387 -0.00034770711534066047 0 2.204134432218591 -0.00031372519656636382 0 2.2951751208255278 0.0078464193211681237 0 2.3741281418332387 -0.00034770711534066047 0 2.4609804442862067 0.0077688132952275207 0 2.2951751208255278 0.0078464193211681237 0 2.4609804442862067 0.0077688132952275207 0 2.3935760583137244 0.015563233840778998 0 2.2951751208255278 0.0078464193211681237 0 2.4024882238760492 0.023679104379443216 0 2.430813804785644 0.020239510462622005 0 2.5343847967565534 0.020973563490950097 0 2.4024882238760492 0.023679104379443216 0 2.4533523179003751 0.023816066933405402 0 2.5343847967565534 0.020973563490950097 0 2.430813804785644 0.020239510462622005 0 2.3403680292652411 0.014934353284809349 0 2.2962976409000535 0.021588840441695904 0 2.4024882238760492 0.023679104379443216 0 2.430813804785644 0.020239510462622005 0 2.2962976409000535 0.021588840441695904 0 2.4024882238760492 0.023679104379443216 0 2.3113389432676574 0.024409246283840901 0 2.2962976409000535 0.021588840441695904 0 2.3416414251553617 0.021849478675819597 0 2.3113389432676574 0.024409246283840901 0 2.1884212901966298 0.020005453246433432 0 2.3416414251553617 0.021849478675819597 0 2.3113389432676574 0.024409246283840901 0 2.4533523179003751 0.023816066933405402 0 2.3416414251553617 0.021849478675819597 0 2.4533523179003751 0.023816066933405402 0 2.4952159340384767 0.020447724382071361 0 2.4024882238760492 0.023679104379443216 0 2.3113389432676574 0.024409246283840901 0 2.4533523179003751 0.023816066933405402 0 2.4533523179003751 0.023816066933405402 0 2.59157350429851 0.020014100394356301 0 2.5343847967565534 0.020973563490950097 0 2.4533523179003751 0.023816066933405402 0 2.4952159340384767 0.020447724382071361 0 2.59157350429851 0.020014100394356301 0 2.4952159340384767 0.020447724382071361 0 2.59157350429851 0.020014100394356301 0 2.6422739244286411 0.016547513397044904 0 2.5343847967565534 0.020973563490950097 0 2.6511735531088356 0.015355309502197618 0 2.6569888220506965 0.017070935967882065 0 2.59157350429851 0.020014100394356301 0 2.5343847967565534 0.020973563490950097 0 2.6569888220506965 0.017070935967882065 0 2.430813804785644 0.020239510462622005 0 2.5343847967565534 0.020973563490950097 0 2.5467771548524905 0.015850817905893551 0 2.5343847967565534 0.020973563490950097 0 2.6511735531088356 0.015355309502197618 0 2.5467771548524905 0.015850817905893551 0 2.6511735531088356 0.015355309502197618 0 2.7791950899748463 0.011699583441441451 0 2.7671588097131976 0.0093682635501780385 0 2.6511735531088356 0.015355309502197618 0 2.6569888220506965 0.017070935967882065 0 2.7791950899748463 0.011699583441441451 0 2.6569888220506965 0.017070935967882065 0 2.7791950899748463 0.011699583441441451 0 2.7291864115054736 0.014752234949241215 0 2.7791950899748463 0.011699583441441451 0 2.8841908627056885 0.0057862708815921791 0 2.7671588097131976 0.0093682635501780385 0 2.59157350429851 0.020014100394356301 0 2.6422739244286411 0.016547513397044904 0 2.7291864115054736 0.014752234949241215 0 2.6422739244286411 0.016547513397044904 0 2.7291864115054736 0.014752234949241215 0 2.7830387861128765 0.011734947947426537 0 2.59157350429851 0.020014100394356301 0 2.6569888220506965 0.017070935967882065 0 2.7291864115054736 0.014752234949241215 0 2.7791950899748463 0.011699583441441451 0 2.7291864115054736 0.014752234949241215 0 2.8651963478722888 0.0082176391254324081 0 2.7291864115054736 0.014752234949241215 0 2.7830387861128765 0.011734947947426537 0 2.8651963478722888 0.0082176391254324081 0 2.7830387861128765 0.011734947947426537 0 2.8970677116595942 0.0063677010939160554 0 2.8651963478722888 0.0082176391254324081 0 2.8651963478722888 0.0082176391254324081 0 2.9998673824089694 5.2812597551960639e-06 0 2.9022867440363589 0.0056018873210974271 0 2.8970677116595942 0.0063677010939160554 0 2.8651963478722888 0.0082176391254324081 0 2.9998673824089694 5.2812597551960639e-06 0 2.9998575074065155 5.9906604652677329e-06 0 2.8970677116595942 0.0063677010939160554 0 2.9998673824089694 5.2812597551960639e-06 0 2.7791950899748463 0.011699583441441451 0 2.8841908627056885 0.0057862708815921791 0 2.9022867440363589 0.0056018873210974271 0 2.7791950899748463 0.011699583441441451 0 2.8651963478722888 0.0082176391254324081 0 2.9022867440363589 0.0056018873210974271 0 2.9998673824089694 5.2812597551960639e-06 0 2.9022867440363589 0.0056018873210974271 0 2.9998665389168311 3.9115726843524423e-06 0 2.8841908627056885 0.0057862708815921791 0 2.9022867440363589 0.0056018873210974271 0 2.9998665389168311 3.9115726843524423e-06 0 2.8841908627056885 0.0057862708815921791 0 2.9998665389168311 3.9115726843524423e-06 0 2.9998689076877127 3.396945367438578e-06 0 2.8841908627056885 0.0057862708815921791 0 2.9998689076877127 3.396945367438578e-06 0 2.8813876213978427 0.0040475866515461119 0 2.8841908627056885 0.0057862708815921791 0 2.8813876213978427 0.0040475866515461119 0 2.7671588097131976 0.0093682635501780385 0 2.8813876213978427 0.0040475866515461119 0 2.8855510643875562 0.0016003224752336009 0 2.7698218096089295 0.005515126548870355 0 2.8813876213978427 0.0040475866515461119 0 2.9998702082193049 1.5617025484078942e-06 0 2.8855510643875562 0.0016003224752336009 0 2.9998689076877127 3.396945367438578e-06 0 2.8813876213978427 0.0040475866515461119 0 2.9998702082193049 1.5617025484078942e-06 0 2.9998702082193049 1.5617025484078942e-06 0 2.9998679485607025 -8.5171039711231647e-08 0 2.8855510643875562 0.0016003224752336009 0 2.9998679485607025 -8.5171039711231647e-08 0 2.8855510643875562 0.0016003224752336009 0 2.8855944842386263 -0.00055088467630705698 0 2.8855510643875562 0.0016003224752336009 0 2.7753682181557511 0.0014765452617825025 0 2.8855944842386263 -0.00055088467630705698 0 2.8855510643875562 0.0016003224752336009 0 2.7753682181557511 0.0014765452617825025 0 2.7698218096089295 0.005515126548870355 0 2.7753682181557511 0.0014765452617825025 0 2.6554649255397393 0.00026123997360895043 0 2.6601687842410988 0.0050922022951937849 0 2.7753682181557511 0.0014765452617825025 0 2.7698218096089295 0.005515126548870355 0 2.6601687842410988 0.0050922022951937849 0 2.7698218096089295 0.005515126548870355 0 2.6578758670402514 0.010587045956576668 0 2.6601687842410988 0.0050922022951937849 0 2.7671588097131976 0.0093682635501780385 0 2.7698218096089295 0.005515126548870355 0 2.6578758670402514 0.010587045956576668 0 2.6511735531088356 0.015355309502197618 0 2.7671588097131976 0.0093682635501780385 0 2.6578758670402514 0.010587045956576668 0 2.8813876213978427 0.0040475866515461119 0 2.7671588097131976 0.0093682635501780385 0 2.7698218096089295 0.005515126548870355 0 2.8571643777206548 -3.5037770415291587e-06 0 2.8991937089344484 -0.0012787329572965373 0 2.7797367737991987 -0.0022882597110196316 0 2.8571643777206548 -3.5037770415291587e-06 0 2.9999281848127106 -3.7149739140281877e-07 0 2.8991937089344484 -0.0012787329572965373 0 2.9999281848127106 -3.7149739140281877e-07 0 2.9998447495387492 -1.9548664562158901e-06 0 2.8991937089344484 -0.0012787329572965373 0 2.9998447495387492 -1.9548664562158901e-06 0 2.8991937089344484 -0.0012787329572965373 0 2.8895207536396192 -0.0017160856386212288 0 2.8991937089344484 -0.0012787329572965373 0 2.8895207536396192 -0.0017160856386212288 0 2.7797367737991987 -0.0022882597110196316 0 2.9998447495387492 -1.9548664562158901e-06 0 2.8895207536396192 -0.0017160856386212288 0 2.9998718949010201 -1.589957398905635e-06 0 2.8895207536396192 -0.0017160856386212288 0 2.9998718949010201 -1.589957398905635e-06 0 2.8855944842386263 -0.00055088467630705698 0 2.9998679485607025 -8.5171039711231647e-08 0 2.9998718949010201 -1.589957398905635e-06 0 2.8855944842386263 -0.00055088467630705698 0 2.8895207536396192 -0.0017160856386212288 0 2.8855944842386263 -0.00055088467630705698 0 2.772651744493388 -0.0015386182146526046 0 2.7753682181557511 0.0014765452617825025 0 2.8855944842386263 -0.00055088467630705698 0 2.772651744493388 -0.0015386182146526046 0 2.7753682181557511 0.0014765452617825025 0 2.772651744493388 -0.0015386182146526046 0 2.6554649255397393 0.00026123997360895043 0 2.772651744493388 -0.0015386182146526046 0 2.6517422136732391 -0.0025397048108963039 0 2.6554649255397393 0.00026123997360895043 0 2.772651744493388 -0.0015386182146526046 0 2.6517422136732391 -0.0025397048108963039 0 2.7797367737991987 -0.0022882597110196316 0 2.8895207536396192 -0.0017160856386212288 0 2.772651744493388 -0.0015386182146526046 0 2.7797367737991987 -0.0022882597110196316 0 2.6517422136732391 -0.0025397048108963039 0 2.7797367737991987 -0.0022882597110196316 0 2.6476011445537351 -0.0019650580658454823 0 2.7797367737991987 -0.0022882597110196316 0 2.7142883361173027 -4.1193347834240418e-06 0 2.6476011445537351 -0.0019650580658454823 0 2.7142883361173027 -4.1193347834240418e-06 0 2.6476011445537351 -0.0019650580658454823 0 2.571438511225308 -4.3943778296668629e-06 0 2.8571643777206548 -3.5037770415291587e-06 0 2.7797367737991987 -0.0022882597110196316 0 2.7142883361173027 -4.1193347834240418e-06 0 2.571438511225308 -4.3943778296668629e-06 0 2.5205013717224185 -0.0031868043059519588 0 2.4285882621712336 -7.5466520614945755e-06 0 2.6476011445537351 -0.0019650580658454823 0 2.571438511225308 -4.3943778296668629e-06 0 2.5205013717224185 -0.0031868043059519588 0 2.6517422136732391 -0.0025397048108963039 0 2.6476011445537351 -0.0019650580658454823 0 2.5205013717224185 -0.0031868043059519588 0 2.5205013717224185 -0.0031868043059519588 0 2.5384426731245302 -0.0016826370312088639 0 2.4123939930057188 -0.0033466277092755619 0 2.6517422136732391 -0.0025397048108963039 0 2.5205013717224185 -0.0031868043059519588 0 2.5384426731245302 -0.0016826370312088639 0 2.6517422136732391 -0.0025397048108963039 0 2.5384426731245302 -0.0016826370312088639 0 2.6554649255397393 0.00026123997360895043 0 2.5384426731245302 -0.0016826370312088639 0 2.6554649255397393 0.00026123997360895043 0 2.5496083041128146 0.0032018471097066013 0 2.5384426731245302 -0.0016826370312088639 0 2.4378424738992397 0.00066078569816731031 0 2.5496083041128146 0.0032018471097066013 0 2.4378424738992397 0.00066078569816731031 0 2.3472383397440288 0.0037035254137054562 0 2.3251367374089962 -0.00076254502151094678 0 2.4378424738992397 0.00066078569816731031 0 2.4123939930057188 -0.0033466277092755619 0 2.3251367374089962 -0.00076254502151094678 0 2.4123939930057188 -0.0033466277092755619 0 2.2769128428980192 -0.0039535136917863674 0 2.3251367374089962 -0.00076254502151094678 0 2.5384426731245302 -0.0016826370312088639 0 2.4378424738992397 0.00066078569816731031 0 2.4123939930057188 -0.0033466277092755619 0 2.5205013717224185 -0.0031868043059519588 0 2.4123939930057188 -0.0033466277092755619 0 2.3805356961641242 -0.0029065463043456722 0 2.4123939930057188 -0.0033466277092755619 0 2.3805356961641242 -0.0029065463043456722 0 2.2769128428980192 -0.0039535136917863674 0 2.2857381885129242 -3.9634728943088007e-06 0 2.3805356961641242 -0.0029065463043456722 0 2.2769128428980192 -0.0039535136917863674 0 2.2857381885129242 -3.9634728943088007e-06 0 2.3805356961641242 -0.0029065463043456722 0 2.4285882621712336 -7.5466520614945755e-06 0 2.5205013717224185 -0.0031868043059519588 0 2.3805356961641242 -0.0029065463043456722 0 2.4285882621712336 -7.5466520614945755e-06 0 2.5530376011657832 0.0095317801205713256 0 2.5467771548524905 0.015850817905893551 0 2.4476600603254348 0.013586962720304083 0 2.6511735531088356 0.015355309502197618 0 2.5467771548524905 0.015850817905893551 0 2.6578758670402514 0.010587045956576668 0 2.5530376011657832 0.0095317801205713256 0 2.6578758670402514 0.010587045956576668 0 2.6601687842410988 0.0050922022951937849 0 2.5530376011657832 0.0095317801205713256 0 2.5467771548524905 0.015850817905893551 0 2.6578758670402514 0.010587045956576668 0 2.5530376011657832 0.0095317801205713256 0 2.6601687842410988 0.0050922022951937849 0 2.5496083041128146 0.0032018471097066013 0 2.6554649255397393 0.00026123997360895043 0 2.6601687842410988 0.0050922022951937849 0 2.5496083041128146 0.0032018471097066013 0 2.5530376011657832 0.0095317801205713256 0 2.5496083041128146 0.0032018471097066013 0 2.4498724340383964 0.0066460575954384359 0 2.4378424738992397 0.00066078569816731031 0 2.5496083041128146 0.0032018471097066013 0 2.4498724340383964 0.0066460575954384359 0 2.4378424738992397 0.00066078569816731031 0 2.4498724340383964 0.0066460575954384359 0 2.3472383397440288 0.0037035254137054562 0 2.4498724340383964 0.0066460575954384359 0 2.3535258048952326 0.0088796711542089117 0 2.3472383397440288 0.0037035254137054562 0 2.4476600603254348 0.013586962720304083 0 2.3403680292652411 0.014934353284809349 0 2.3535258048952326 0.0088796711542089117 0 2.4498724340383964 0.0066460575954384359 0 2.4476600603254348 0.013586962720304083 0 2.3535258048952326 0.0088796711542089117 0 2.5530376011657832 0.0095317801205713256 0 2.4498724340383964 0.0066460575954384359 0 2.4476600603254348 0.013586962720304083 0 2.430813804785644 0.020239510462622005 0 2.5467771548524905 0.015850817905893551 0 2.4476600603254348 0.013586962720304083 0 2.430813804785644 0.020239510462622005 0 2.4476600603254348 0.013586962720304083 0 2.3403680292652411 0.014934353284809349 0 2.3403680292652411 0.014934353284809349 0 2.255088369369489 0.0060140500872470307 0 2.2282410203498175 0.0093471556735791068 0 2.255088369369489 0.0060140500872470307 0 2.1556640624613048 -0.0077076004165010309 0 2.2282410203498175 0.0093471556735791068 0 2.255088369369489 0.0060140500872470307 0 2.2609341923425457 0.0047037982313995075 0 2.1716204927682732 -0.00090720331240864256 0 2.3403680292652411 0.014934353284809349 0 2.255088369369489 0.0060140500872470307 0 2.3535258048952326 0.0088796711542089117 0 2.255088369369489 0.0060140500872470307 0 2.3535258048952326 0.0088796711542089117 0 2.2609341923425457 0.0047037982313995075 0 2.3535258048952326 0.0088796711542089117 0 2.3472383397440288 0.0037035254137054562 0 2.2609341923425457 0.0047037982313995075 0 2.3472383397440288 0.0037035254137054562 0 2.2609341923425457 0.0047037982313995075 0 2.2469055894207552 0.0038491799218960255 0 2.2609341923425457 0.0047037982313995075 0 2.1686676728757894 0.0061377652866547771 0 2.2469055894207552 0.0038491799218960255 0 2.2609341923425457 0.0047037982313995075 0 2.1686676728757894 0.0061377652866547771 0 2.1716204927682732 -0.00090720331240864256 0 2.1686676728757894 0.0061377652866547771 0 1.988939129146319 0.0052710556119352396 0 1.9971827771250652 -0.0036900788066876861 0 2.1686676728757894 0.0061377652866547771 0 2.1716204927682732 -0.00090720331240864256 0 1.9971827771250652 -0.0036900788066876861 0 2.1556640624613048 -0.0077076004165010309 0 2.1716204927682732 -0.00090720331240864256 0 1.985395166285703 -0.014046000381606883 0 2.1716204927682732 -0.00090720331240864256 0 1.985395166285703 -0.014046000381606883 0 1.9971827771250652 -0.0036900788066876861 0 2.1556640624613048 -0.0077076004165010309 0 1.985395166285703 -0.014046000381606883 0 1.9676722706292258 -0.023278440659012443 0 2.255088369369489 0.0060140500872470307 0 2.1556640624613048 -0.0077076004165010309 0 2.1716204927682732 -0.00090720331240864256 0 2.1428732148887399 -1.8791557472976134e-05 0 2.1585792745077836 -0.00069501622598286134 0 2.0001163001881426 3.9531585372523137e-05 0 2.1428732148887399 -1.8791557472976134e-05 0 2.2769128428980192 -0.0039535136917863674 0 2.1585792745077836 -0.00069501622598286134 0 2.2857381885129242 -3.9634728943088007e-06 0 2.1428732148887399 -1.8791557472976134e-05 0 2.2769128428980192 -0.0039535136917863674 0 2.1585792745077836 -0.00069501622598286134 0 2.2121991777080998 0.0017540560274802905 0 2.1015646510096246 0.014375464547005655 0 2.2769128428980192 -0.0039535136917863674 0 2.1585792745077836 -0.00069501622598286134 0 2.2121991777080998 0.0017540560274802905 0 2.2769128428980192 -0.0039535136917863674 0 2.2121991777080998 0.0017540560274802905 0 2.3251367374089962 -0.00076254502151094678 0 2.3472383397440288 0.0037035254137054562 0 2.3251367374089962 -0.00076254502151094678 0 2.2469055894207552 0.0038491799218960255 0 2.2121991777080998 0.0017540560274802905 0 2.3251367374089962 -0.00076254502151094678 0 2.2469055894207552 0.0038491799218960255 0 2.2121991777080998 0.0017540560274802905 0 2.2469055894207552 0.0038491799218960255 0 2.1470719014601749 0.01210779534034318 0 2.1686676728757894 0.0061377652866547771 0 2.2469055894207552 0.0038491799218960255 0 2.1470719014601749 0.01210779534034318 0 2.1470719014601749 0.01210779534034318 0 1.988939129146319 0.0052710556119352396 0 1.9711681288943479 0.010755109319505171 0 2.1686676728757894 0.0061377652866547771 0 2.1470719014601749 0.01210779534034318 0 1.988939129146319 0.0052710556119352396 0 2.1470719014601749 0.01210779534034318 0 1.9711681288943479 0.010755109319505171 0 2.1015646510096246 0.014375464547005655 0 2.2121991777080998 0.0017540560274802905 0 2.1470719014601749 0.01210779534034318 0 2.1015646510096246 0.014375464547005655 0 1.9711681288943479 0.010755109319505171 0 2.1015646510096246 0.014375464547005655 0 1.9487852347904144 0.010313978626547525 0 2.1015646510096246 0.014375464547005655 0 1.9487852347904144 0.010313978626547525 0 2.0001163001881426 3.9531585372523137e-05 0 1.9487852347904144 0.010313978626547525 0 2.0001163001881426 3.9531585372523137e-05 0 1.8571612657509464 1.502037719593041e-05 0 2.1585792745077836 -0.00069501622598286134 0 2.1015646510096246 0.014375464547005655 0 2.0001163001881426 3.9531585372523137e-05 0 1.7143022089487592 1.3758635029322981e-05 0 1.8571612657509464 1.502037719593041e-05 0 1.8106178860389641 0.0091686705314354914 0 1.7143022089487592 1.3758635029322981e-05 0 1.8106178860389641 0.0091686705314354914 0 1.6504369118831035 0.0055082189219656614 0 1.9487852347904144 0.010313978626547525 0 1.8571612657509464 1.502037719593041e-05 0 1.8106178860389641 0.0091686705314354914 0 1.9711681288943479 0.010755109319505171 0 1.9487852347904144 0.010313978626547525 0 1.8106178860389641 0.0091686705314354914 0 1.8106178860389641 0.0091686705314354914 0 1.8197202992916532 0.0059456928735412817 0 1.6539976772527496 0.0065951857468497452 0 1.9711681288943479 0.010755109319505171 0 1.8106178860389641 0.0091686705314354914 0 1.8197202992916532 0.0059456928735412817 0 1.988939129146319 0.0052710556119352396 0 1.9711681288943479 0.010755109319505171 0 1.8197202992916532 0.0059456928735412817 0 1.988939129146319 0.0052710556119352396 0 1.8197202992916532 0.0059456928735412817 0 1.8300964403904632 -0.0031636848509072981 0 1.8197202992916532 0.0059456928735412817 0 1.6538664865964245 -0.0005087939128245937 0 1.8300964403904632 -0.0031636848509072981 0 1.8197202992916532 0.0059456928735412817 0 1.6538664865964245 -0.0005087939128245937 0 1.6539976772527496 0.0065951857468497452 0 1.4912169727452098 -0.006723029143228536 0 1.4933396322241472 0.0034111946522727707 0 1.6538664865964245 -0.0005087939128245937 0 1.4933396322241472 0.0034111946522727707 0 1.6538664865964245 -0.0005087939128245937 0 1.6539976772527496 0.0065951857468497452 0 1.4933396322241472 0.0034111946522727707 0 1.498022965570138 0.006580650191543253 0 1.6539976772527496 0.0065951857468497452 0 1.8106178860389641 0.0091686705314354914 0 1.6539976772527496 0.0065951857468497452 0 1.6504369118831035 0.0055082189219656614 0 1.498022965570138 0.006580650191543253 0 1.6539976772527496 0.0065951857468497452 0 1.6504369118831035 0.0055082189219656614 0 1.498022965570138 0.006580650191543253 0 1.5714376837923245 1.1532767010325268e-05 0 1.6504369118831035 0.0055082189219656614 0 1.7143022089487592 1.3758635029322981e-05 0 1.5714376837923245 1.1532767010325268e-05 0 1.6504369118831035 0.0055082189219656614 0 1.8213906483632232 -0.01518454451777288 0 1.8100117083033782 -0.027590859338841957 0 1.6530465586056453 -0.025849125083415588 0 1.8100117083033782 -0.027590859338841957 0 1.985395166285703 -0.014046000381606883 0 1.9676722706292258 -0.023278440659012443 0 1.8213906483632232 -0.01518454451777288 0 1.8100117083033782 -0.027590859338841957 0 1.985395166285703 -0.014046000381606883 0 1.8213906483632232 -0.01518454451777288 0 1.985395166285703 -0.014046000381606883 0 1.9971827771250652 -0.0036900788066876861 0 1.8213906483632232 -0.01518454451777288 0 1.9971827771250652 -0.0036900788066876861 0 1.8300964403904632 -0.0031636848509072981 0 1.988939129146319 0.0052710556119352396 0 1.9971827771250652 -0.0036900788066876861 0 1.8300964403904632 -0.0031636848509072981 0 1.8213906483632232 -0.01518454451777288 0 1.8300964403904632 -0.0031636848509072981 0 1.6569937137005217 -0.012256827324873354 0 1.6538664865964245 -0.0005087939128245937 0 1.8300964403904632 -0.0031636848509072981 0 1.6569937137005217 -0.012256827324873354 0 1.4912169727452098 -0.006723029143228536 0 1.6538664865964245 -0.0005087939128245937 0 1.6569937137005217 -0.012256827324873354 0 1.4928317265079358 -0.020179643592887868 0 1.4912169727452098 -0.006723029143228536 0 1.6569937137005217 -0.012256827324873354 0 1.4928317265079358 -0.020179643592887868 0 1.6569937137005217 -0.012256827324873354 0 1.6530465586056453 -0.025849125083415588 0 1.4928317265079358 -0.020179643592887868 0 1.4935816683310237 -0.033694856002430329 0 1.6530465586056453 -0.025849125083415588 0 1.8213906483632232 -0.01518454451777288 0 1.6569937137005217 -0.012256827324873354 0 1.6530465586056453 -0.025849125083415588 0 1.8100117083033782 -0.027590859338841957 0 1.6530465586056453 -0.025849125083415588 0 1.6433535298758171 -0.038205021018150709 0 1.4935816683310237 -0.033694856002430329 0 1.6530465586056453 -0.025849125083415588 0 1.6433535298758171 -0.038205021018150709 0 1.4935816683310237 -0.033694856002430329 0 1.4973195668883383 -0.044219771916795679 0 1.6433535298758171 -0.038205021018150709 0 1.4973195668883383 -0.044219771916795679 0 1.6455520254838649 -0.043157694737960661 0 1.6433535298758171 -0.038205021018150709 0 1.4973195668883383 -0.044219771916795679 0 1.6455520254838649 -0.043157694737960661 0 1.5698036159838495 -0.043540703085849043 0 1.6455520254838649 -0.043157694737960661 0 1.6433535298758171 -0.038205021018150709 0 1.8033993088901574 -0.037736237833858217 0 1.8100117083033782 -0.027590859338841957 0 1.6433535298758171 -0.038205021018150709 0 1.8033993088901574 -0.037736237833858217 0 1.6455520254838649 -0.043157694737960661 0 1.8033993088901574 -0.037736237833858217 0 1.7087840070997131 -0.040753985934699602 0 1.8033993088901574 -0.037736237833858217 0 1.8537419652207101 -0.032547233130667041 0 1.9544201344662628 -0.027095430661560827 0 1.8033993088901574 -0.037736237833858217 0 1.9676722706292258 -0.023278440659012443 0 1.9544201344662628 -0.027095430661560827 0 1.8100117083033782 -0.027590859338841957 0 1.8033993088901574 -0.037736237833858217 0 1.9676722706292258 -0.023278440659012443 0 1.8537419652207101 -0.032547233130667041 0 1.742280784386399 -0.033755193685205361 0 1.8459224928856592 -0.024474028463328214 0 1.8537419652207101 -0.032547233130667041 0 1.7087840070997131 -0.040753985934699602 0 1.742280784386399 -0.033755193685205361 0 1.8033993088901574 -0.037736237833858217 0 1.8537419652207101 -0.032547233130667041 0 1.7087840070997131 -0.040753985934699602 0 1.7087840070997131 -0.040753985934699602 0 1.6232655016166482 -0.037464775538009816 0 1.742280784386399 -0.033755193685205361 0 1.7087840070997131 -0.040753985934699602 0 1.5698036159838495 -0.043540703085849043 0 1.6232655016166482 -0.037464775538009816 0 1.6455520254838649 -0.043157694737960661 0 1.7087840070997131 -0.040753985934699602 0 1.5698036159838495 -0.043540703085849043 0 1.5000102543527569 -0.038882380433964706 0 1.5698036159838495 -0.043540703085849043 0 1.6232655016166482 -0.037464775538009816 0 1.5000102543527569 -0.038882380433964706 0 1.5556586400395218 -0.028225470298951026 0 1.6232655016166482 -0.037464775538009816 0 1.5556586400395218 -0.028225470298951026 0 1.6037204016742843 -0.014024205666822807 0 1.665411406519707 -0.025793997517432488 0 1.5556586400395218 -0.028225470298951026 0 1.6232655016166482 -0.037464775538009816 0 1.665411406519707 -0.025793997517432488 0 1.5000200041034211 -0.014707277005580372 0 1.4491553352389948 0.00063371674889317858 0 1.5509075408897104 0.00063675314746194217 0 1.5000200041034211 -0.014707277005580372 0 1.5509075408897104 0.00063675314746194217 0 1.6037204016742843 -0.014024205666822807 0 1.5000200041034211 -0.014707277005580372 0 1.5556586400395218 -0.028225470298951026 0 1.6037204016742843 -0.014024205666822807 0 1.5509075408897104 0.00063675314746194217 0 1.6529401748638488 0.0005663125105039692 0 1.6037204016742843 -0.014024205666822807 0 1.6529401748638488 0.0005663125105039692 0 1.6037204016742843 -0.014024205666822807 0 1.7046348291389695 -0.011184803533220745 0 1.6037204016742843 -0.014024205666822807 0 1.7046348291389695 -0.011184803533220745 0 1.665411406519707 -0.025793997517432488 0 1.7046348291389695 -0.011184803533220745 0 1.7827019403951108 -0.018494765982894127 0 1.7880039845244917 -0.0062864946872135735 0 1.7587598229680363 0.00012090393356738811 0 1.7046348291389695 -0.011184803533220745 0 1.7880039845244917 -0.0062864946872135735 0 1.6529401748638488 0.0005663125105039692 0 1.7587598229680363 0.00012090393356738811 0 1.7046348291389695 -0.011184803533220745 0 1.6232655016166482 -0.037464775538009816 0 1.742280784386399 -0.033755193685205361 0 1.665411406519707 -0.025793997517432488 0 1.7046348291389695 -0.011184803533220745 0 1.665411406519707 -0.025793997517432488 0 1.7827019403951108 -0.018494765982894127 0 1.742280784386399 -0.033755193685205361 0 1.665411406519707 -0.025793997517432488 0 1.7827019403951108 -0.018494765982894127 0 1.742280784386399 -0.033755193685205361 0 1.7827019403951108 -0.018494765982894127 0 1.8459224928856592 -0.024474028463328214 0 1.7827019403951108 -0.018494765982894127 0 1.9049444162827276 0.00099120187507537733 0 1.8459224928856592 -0.024474028463328214 0 1.7827019403951108 -0.018494765982894127 0 1.8630252298460128 0.00096993965074844782 0 1.7880039845244917 -0.0062864946872135735 0 1.7827019403951108 -0.018494765982894127 0 1.8630252298460128 0.00096993965074844782 0 1.9049444162827276 0.00099120187507537733 0 1.8630252298460128 0.00096993965074844782 0 1.9049444162827276 0.00099120187507537733 0 2.0453311041674564 0.0099735386394164526 0 1.7587598229680363 0.00012090393356738811 0 1.7880039845244917 -0.0062864946872135735 0 1.8455681700726629 1.0478200646930818e-05 0 1.8630252298460128 0.00096993965074844782 0 1.7880039845244917 -0.0062864946872135735 0 1.8455681700726629 1.0478200646930818e-05 0 1.8630252298460128 0.00096993965074844782 0 1.8455681700726629 1.0478200646930818e-05 0 1.9737189226869063 0.003346996040586853 0 2.0067043030481728 -2.3211797633820926e-05 0 1.9737189226869063 0.003346996040586853 0 2.1221889769769473 0.0061818099005135465 0 2.0067043030481728 -2.3211797633820926e-05 0 1.8455681700726629 1.0478200646930818e-05 0 1.9737189226869063 0.003346996040586853 0 1.9737189226869063 0.003346996040586853 0 2.1221889769769473 0.0061818099005135465 0 2.0453311041674564 0.0099735386394164526 0 2.0067043030481728 -2.3211797633820926e-05 0 2.204134432218591 -0.00031372519656636382 0 2.1221889769769473 0.0061818099005135465 0 1.9049444162827276 0.00099120187507537733 0 2.0453311041674564 0.0099735386394164526 0 2.0607138267017406 0.013119740625962885 0 2.0453311041674564 0.0099735386394164526 0 2.1884212901966298 0.020005453246433432 0 2.0607138267017406 0.013119740625962885 0 1.8630252298460128 0.00096993965074844782 0 1.9737189226869063 0.003346996040586853 0 2.0453311041674564 0.0099735386394164526 0 2.2297877190781401 0.014778293743538388 0 2.1221889769769473 0.0061818099005135465 0 2.0453311041674564 0.0099735386394164526 0 2.2297877190781401 0.014778293743538388 0 2.0453311041674564 0.0099735386394164526 0 2.1884212901966298 0.020005453246433432 0 2.3113389432676574 0.024409246283840901 0 2.1884212901966298 0.020005453246433432 0 2.1665344749336324 0.018587148696281881 0 2.0607138267017406 0.013119740625962885 0 2.1665344749336324 0.018587148696281881 0 2.009761621107665 -0.0066664411947040978 0 2.1884212901966298 0.020005453246433432 0 2.0607138267017406 0.013119740625962885 0 2.1665344749336324 0.018587148696281881 0 2.1665344749336324 0.018587148696281881 0 2.1754312965188158 0.012408060223232265 0 2.009761621107665 -0.0066664411947040978 0 2.3113389432676574 0.024409246283840901 0 2.1665344749336324 0.018587148696281881 0 2.2962976409000535 0.021588840441695904 0 2.1665344749336324 0.018587148696281881 0 2.2962976409000535 0.021588840441695904 0 2.1754312965188158 0.012408060223232265 0 2.3403680292652411 0.014934353284809349 0 2.2962976409000535 0.021588840441695904 0 2.2282410203498175 0.0093471556735791068 0 2.2962976409000535 0.021588840441695904 0 2.2282410203498175 0.0093471556735791068 0 2.1754312965188158 0.012408060223232265 0 2.2282410203498175 0.0093471556735791068 0 2.1754312965188158 0.012408060223232265 0 2.1144604491423009 -0.012718972742221094 0 2.1754312965188158 0.012408060223232265 0 2.1144604491423009 -0.012718972742221094 0 2.009761621107665 -0.0066664411947040978 0 2.1556640624613048 -0.0077076004165010309 0 2.2282410203498175 0.0093471556735791068 0 2.1144604491423009 -0.012718972742221094 0 2.1556640624613048 -0.0077076004165010309 0 1.9676722706292258 -0.023278440659012443 0 2.1144604491423009 -0.012718972742221094 0 1.9676722706292258 -0.023278440659012443 0 2.1144604491423009 -0.012718972742221094 0 1.9544201344662628 -0.027095430661560827 0 2.1144604491423009 -0.012718972742221094 0 1.9544201344662628 -0.027095430661560827 0 2.009761621107665 -0.0066664411947040978 0 1.8537419652207101 -0.032547233130667041 0 1.9544201344662628 -0.027095430661560827 0 2.009761621107665 -0.0066664411947040978 0 1.9049444162827276 0.00099120187507537733 0 1.8459224928856592 -0.024474028463328214 0 2.009761621107665 -0.0066664411947040978 0 1.8537419652207101 -0.032547233130667041 0 1.8459224928856592 -0.024474028463328214 0 2.009761621107665 -0.0066664411947040978 0 1.9049444162827276 0.00099120187507537733 0 2.0607138267017406 0.013119740625962885 0 2.009761621107665 -0.0066664411947040978 0 
</DataArray>
</PointData>
<CellData Scalars="region_id,displacement_divergence," Vectors="" Tensors="stress,">
<DataArray type="Float64" Name="region_id" format="ascii">
5 5 5 5 5 5 5 5 5 5 5 5 5 5 5 5 5 5 5 5 5 5 5 5 5 5 5 5 5 5 5 5 5 5 5 5 5 5 5 5 5 5 5 5 5 5 5 5 5 5 5 5 5 5 5 5 5 5 5 5 5 5 5 5 5 5 5 5 5 5 5 6 6 6 6 6 6 5 5 5 5 5 5 5 5 5 5 5 5 5 5 5 5 6 6 6 5 6 6 6 6 6 6 6 6 6 6 6 6 6 6 6 6 6 6 6 6 6 6 6 6 6 6 6 6 6 6 6 6 6 6 6 5 5 5 5 5 5 5 5 5 5 5 5 5 5 5 5 5 5 5 6 6 5 6 6 6 6 6 6 6 6 6 5 6 5 5 5 5 6 6 6 6 6 5 5 5 5 5 5 6 6 5 5 6 6 6 6 6 6 6 5 5 5 5 5 6 6 6 6 6 6 6 6 6 6 6 6 6 6 6 6 6 6 6 6 6 5 5 5 5 5 5 6 6 6 6 6 5 5 5 5 5 5 5 5 5 5 6 6 6 6 6 6 5 5 5 5 5 5 6 6 6 6 6 6 6 6 6 6 6 6 6 6 6 6 6 6 6 6 6 6 6 6 6 6 6 6 6 6 6 6 6 6 6 6 6 5 6 5 5 5 5 5 5 5 5 5 6 5 5 6 6 6 5 6 5 5 5 5 5 5 5 5 6 6 5 6 6 6 6 6 6 6 6 6 6 6 6 6 6 6 6 5 5 5 5 5 5 5 5 5 5 5 5 5 5 5 5 5 5 5 5 5 5 5 5 5 5 5 5 5 5 5 5 5 5 5 5 5 5 5 5 5 5 5 5 5 5 5 5 5 5 5 5 5 5 5 5 5 5 5 5 5 5 5 5 5 6 6 6 5 5 5 5 5 5 5 5 5 5 5 5 6 6 6 6 6 5 5 5 5 5 5 5 5 5 5 5 6 6 6 6 6 6 6 6 6 6 6 6 6 6 6 6 6 6 6 6 6 6 6 6 6 6 6 6 6 6 6 6 6 6 6 6 6 5 5 5 5 5 5 6 6 6 6 6 6 6 6 6 6 6 5 5 6 6 5 5 5 5 5 5 6 6 6 6 6 5 5 5 5 6 5 6 6 6 6 6 6 6 6 6 5 6 6 5 5 5 5 5 5 5 5 5 5 5 5 5 5 5 5 5 5 5 5 5 5 5 5 5 5 5 5 5 5 5 5 5 5 5 5 6 5 6 6 6 6 6 6 6 6 6 5 6 5 5 5 5 6 6 6 6 6 5 5 5 5 5 5 6 6 5 5 6 6 6 6 6 6 6 6 6 6 6 6 5 5 5 5 5 5 6 6 6 6 6 6 6 6 6 6 6 6 6 6 6 6 6 6 6 6 6 6 6 6 6 6 6 6 6 6 6 6 6 6 6 6 5 5 5 5 5 5 5 5 5 5 6 6 6 6 6 5 5 5 5 5 5 5 5 5 5 5 5 6 6 6 5 5 5 5 5 5 5 5 5 5 5 5 5 5 5 5 5 5 5 5 5 5 5 5 5 5 5 5 5 5 5 5 5 5 5 5 5 5 5 5 5 5 5 5 5 5 5 5 5 5 5 5 5 5 5 5 5 5 5 5 5 5 5 5 5 6 6 6 6 6 6 6 6 6 6 6 6 6 6 6 6 5 6 6 5 5 5 5 5 5 5 5 5 6 5 6 6 6 5 5 6 5 5 5 5 5 5 5 5 5 6 5 6 6 6 6 6 6 6 6 6 6 6 6 6 6 6 6 6 6 6 6 6 6 6 6 6 6 6 6 6 6 6 6 6 6 6 6 6 6 6 6 6 6 6 6 6 6 6 6 6 6 6 6 5 5 5 5 5 6 6 6 5 5 6 6 5 5 5 5 5 5 5 5 6 6 5 5 6 6 5 6 6 5 5 5 5 5 5 5 5 5 5 5 5 5 5 5 5 5 5 5 5 5 5 5 5 5 5 5 5 5 5 5 5 5 5 5 5 5 5 5 5 5 5 5 5 5 5 5 5 5 5 5 5 5 5 5 5 5 5 5 5 5 5 5 5 5 5 5 5 5 5 5 5 5 5 5 5 5 5 5 6 6 6 6 6 5 5 5 5 5 5 5 5 5 5 5 6 6 6 5 6 6 6 5 6 6 6 6 6 6 6 6 6 6 6 6 6 6 6 6 6 6 6 6 6 6 6 6 6 6 6 6 6 6 6 6 6 6 6 6 6 6 6 6 6 5 5 6 5 5 6 5 5 5 5 5 5 5 5 5 5 5 5 5 5 5 5 5 5 5 5 6 5 5 6 6 6 6 6 6 6 6 6 6 6 6 6 5 5 5 5 5 5 5 5 6 6 6 6 5 5 6 
</DataArray>
<DataArray type="Float64" Name="stress" NumberOfComponents="9" format="ascii">
99.933996747171307 -1.523383118375556 0 -1.523383118375556 -1.185804339295516 0 0 0 0 96.830872054790021 -0.56404904147330392 0 -0.56404904147330392 -0.0013478007188050382 0 0 0 0 96.594184661745345 -2.429713646570697 0 -2.429713646570697 -1.3970210182742613 0 0 0 0 96.429978689872357 -1.7919494133093672 0 -1.7919494133093672 -0.24510558412304639 0 0 0 0 95.781019380907964 -1.9957282682151476 0 -1.9957282682151476 -0.13905529609727219 0 0 0 0 93.953180304643908 -0.67544161401335667 0 -0.67544161401335667 0.00085722903711478676 0 0 0 0 91.725282220452925 -0.16338502978833705 0 -0.16338502978833705 0.00037580776408598353 0 0 0 0 93.18524492265685 -1.3717287343508595 0 -1.3717287343508595 0.78985305915209025 0 0 0 0 91.105891883501045 -1.0814307411805184 0 -1.0814307411805184 1.0819411831032613 0 0 0 0 93.053668128391649 -2.830807629881634 0 -2.830807629881634 0.196000460420376 0 0 0 0 92.817413639111706 -1.7873130933807455 0 -1.7873130933807455 1.3172292589003685 0 0 0 0 89.49469097000167 -2.2782237748020782 0 -2.2782237748020782 1.7596190337380064 0 0 0 0 91.143445261441428 -3.0858831578712294 0 -3.0858831578712294 2.1468652122243772 0 0 0 0 91.20380672406111 -4.8285028776177485 0 -4.8285028776177485 0.35187359926770045 0 0 0 0 95.691803000070308 -3.5658359297162154 0 -3.5658359297162154 0.25743823832252388 0 0 0 0 95.799527235503376 -4.5427843952446576 0 -4.5427843952446576 -1.840403487048492 0 0 0 0 99.992153619736598 -5.6235630397005503 0 -5.6235630397005503 -1.9221137030966307 0 0 0 0 100.01503916757471 -3.2178362334317598 0 -3.2178362334317598 -1.752468965591838 0 0 0 0 90.232537760553967 2.0298406107071267 0 2.0298406107071267 1.4963651269331253 0 0 0 0 91.634467319199786 2.4238034814454377 0 2.4238034814454377 1.1548210052134427 0 0 0 0 90.810104740714365 1.0996029048991989 0 1.0996029048991989 1.3722605592139483 0 0 0 0 90.931095481117978 1.5217163322481735 0 1.5217163322481735 0.00039653134068710991 0 0 0 0 90.170992303331616 1.4021592261451925 0 1.4021592261451925 1.5652198766051371 0 0 0 0 90.718324128952688 0.63926683638909876 0 0.63926683638909876 0.0018306962146759818 0 0 0 0 91.17423392739812 -0.1197825043795113 0 -0.1197825043795113 1.2637935563683929 0 0 0 0 90.997396190777707 -0.31425542616718061 0 -0.31425542616718061 1.3658596554969431 0 0 0 0 89.323160103092064 -0.20364503144568658 0 -0.20364503144568658 2.2596923888573057 0 0 0 0 87.142084427435975 -0.91567839191927991 0 -0.91567839191927991 3.2112163605519628 0 0 0 0 89.318305537706365 -0.67925756769329593 0 -0.67925756769329593 2.7765801468085849 0 0 0 0 87.141955347055045 1.1630585539207816 0 1.1630585539207816 3.6418168885516731 0 0 0 0 89.27222164809217 1.0208732682338237 0 1.0208732682338237 2.4391052338723633 0 0 0 0 88.625158319636228 1.3131569053854013 0 1.3131569053854013 2.9916374582632486 0 0 0 0 89.535251202135157 3.2210669751401313 0 3.2210669751401313 3.1152252297158851 0 0 0 0 88.690512016141554 2.6867469759207236 0 2.6867469759207236 2.7794245964171349 0 0 0 0 90.862677352717697 2.6530428277309581 0 2.6530428277309581 2.0276512956611796 0 0 0 0 87.562322232787494 3.9794873538346049 0 3.9794873538346049 3.8999402170226238 0 0 0 0 86.390329992574877 3.5584977122121408 0 3.5584977122121408 3.8036274729105557 0 0 0 0 86.361012822479267 1.2096925040474262 0 1.2096925040474262 3.9563351926885204 0 0 0 0 84.168641035480107 1.3049761440842382 0 1.3049761440842382 4.5774821175391907 0 0 0 0 86.982356880857793 -1.3193125585991958 0 -1.3193125585991958 3.721838404155537 0 0 0 0 84.168656119892432 -1.9373603626325324 0 -1.9373603626325324 3.9308944076416505 0 0 0 0 80.188000852801338 -3.0963675464492479 0 -3.0963675464492479 4.1628463190293772 0 0 0 0 83.448780836757621 -2.0471257932397422 0 -2.0471257932397422 4.2897156292946992 0 0 0 0 78.904007697100894 -2.4205892075661186 0 -2.4205892075661186 3.8131959589448936 0 0 0 0 80.157692823914672 1.4156783983933403 0 1.4156783983933403 4.9180546419131481 0 0 0 0 83.092863002895569 0.92891712040941377 0 0.92891712040941377 4.5016831366327548 0 0 0 0 78.966174595321434 0.18587855173095313 0 0.18587855173095313 3.8704810380567665 0 0 0 0 78.530089690013838 5.4766932696770931 0 5.4766932696770931 5.2076736519023346 0 0 0 0 83.093634753878916 4.582796065549287 0 4.582796065549287 4.6927466636783688 0 0 0 0 84.593703500234597 4.6158449780561162 0 4.6158449780561162 4.2312572806725948 0 0 0 0 99.999033229634733 -8.7582513693695461 0 -8.7582513693695461 -2.2479173870880125 0 0 0 0 94.590902324973186 -7.3803621743606405 0 -7.3803621743606405 -2.0905002410459494 0 0 0 0 94.557955939987252 -5.943587623360628 0 -5.943587623360628 0.47871264867711649 0 0 0 0 86.992511016312619 -3.959926439584891 0 -3.959926439584891 2.4201449135784405 0 0 0 0 88.549434409188279 -4.7073209328716263 0 -4.7073209328716263 2.773068879316364 0 0 0 0 88.849917975597748 -7.5255597716383242 0 -7.5255597716383242 0.56405300208292131 0 0 0 0 85.045840426387826 -10.570818166392508 0 -10.570818166392508 1.0663059217988187 0 0 0 0 85.016540365840854 -6.3834640229323618 0 -6.3834640229323618 3.0145735273566459 0 0 0 0 83.523692102306171 -5.9479767219549338 0 -5.9479767219549338 3.0017052517308818 0 0 0 0 78.924974390705927 -7.9067223473928729 0 -7.9067223473928729 3.2277179713087958 0 0 0 0 89.904132510839247 -12.032999653642278 0 -12.032999653642278 1.1635881712714513 0 0 0 0 92.586429696684093 -8.7223321975586678 0 -8.7223321975586678 0.73771749142319254 0 0 0 0 99.990488397531635 -12.812845929994797 0 -12.812845929994797 -2.6702830193151903 0 0 0 0 92.729275011584079 -11.029262477552418 0 -11.029262477552418 -2.4639357933292421 0 0 0 0 89.654746797475411 -15.772363524548894 0 -15.772363524548894 -2.7825462003255392 0 0 0 0 100.00843981763546 -18.392647615417509 0 -18.392647615417509 -2.8835641225461073 0 0 0 0 86.496351450266786 -16.5108503908431 0 -16.5108503908431 2.0206493903849676 0 0 0 0 69.334106508602076 -13.267182446839973 0 -13.267182446839973 4.0893597295479349 0 0 0 0 99.928651145106983 -25.889026167565394 0 -25.889026167565394 -0.74434015642660911 0 0 0 0 84.609660179774011 -22.008188950869158 0 -22.008188950869158 -1.5329545459450094 0 0 0 0 80.858027699921195 -30.080502555499343 0 -30.080502555499343 9.9433305129408431 0 0 0 0 66.692274360001988 -9.6974879668342222 0 -9.6974879668342222 0.4250437609073936 0 0 0 0 60.184006008443419 -17.755858385392649 0 -17.755858385392649 4.9716652564704225 0 0 0 0 50.034552523707134 -12.651772296269309 0 -12.651772296269309 4.9129465629671438 0 0 0 0 67.80738723505587 -4.5815578160442367 0 -4.5815578160442367 -2.142236580282745 0 0 0 0 69.2303382694775 -5.8429893904007599 0 -5.8429893904007599 -1.9280098149606524 0 0 0 0 65.640863023598342 -8.523980738830609 0 -8.523980738830609 -0.66947495836002968 0 0 0 0 74.617541647795406 -11.523029557238502 0 -11.523029557238502 -1.3389499167200596 0 0 0 0 73.719466453309622 -5.5509305455234736 0 -5.5509305455234736 -4.2844731605654873 0 0 0 0 69.986972921979884 -5.5777839233211415 0 -5.5777839233211415 0.72309608658316116 0 0 0 0 74.068791736759181 -8.9687276712274073 0 -8.9687276712274073 2.3293187079120825 0 0 0 0 78.70835701977154 -13.696757107070995 0 -13.696757107070995 2.4060677511072486 0 0 0 0 80.220095704786019 -7.3560141172676587 0 -7.3560141172676587 2.1635661345233661 0 0 0 0 75.35601149315471 -4.232565525095362 0 -4.232565525095362 2.8944692336896245 0 0 0 0 75.587832814305216 1.4413936058772077 0 1.4413936058772077 3.4991232237917425 0 0 0 0 69.759195084820249 -3.8990643400623166 0 -3.8990643400623166 0.049974977310862645 0 0 0 0 75.634336558406005 -2.5513518848845513 0 -2.5513518848845513 0.3576585710878728 0 0 0 0 80.196256375683049 4.2738619009243068 0 4.2738619009243068 3.2330121359844197 0 0 0 0 69.86881297346747 0.28670007810066289 0 0.28670007810066289 0.36908538511322941 0 0 0 0 75.121608858073387 -0.92036775749629673 0 -0.92036775749629673 0.64474008102216906 0 0 0 0 70.325469358886721 1.3146055156924303 0 1.3146055156924303 1.4287157421016996 0 0 0 0 74.629077432710218 5.7691491719686985 0 5.7691491719686985 3.4791955478455847 0 0 0 0 74.262300340814079 1.4149163823602942 0 1.4149163823602942 -4.999238218340178 0 0 0 0 70.467971893444428 -0.54376507447540823 0 -0.54376507447540823 -3.5047486980259741 0 0 0 0 68.464312509011279 0.91218246415951354 0 0.91218246415951354 -2.4996191091700886 0 0 0 0 70.346511113982132 2.2432499630757321 0 2.2432499630757321 -3.4337475302021367 0 0 0 0 73.709242903500012 -1.8805476443359774 0 -1.8805476443359774 -4.8194341249232533 0 0 0 0 68.677193240148199 -1.7970905844991121 0 -1.7970905844991121 -2.4097170624616271 0 0 0 0 70.156967260003285 -2.8664280876237438 0 -2.8664280876237438 -3.0462721015084071 0 0 0 0 66.505594649019145 -2.5403739360191979 0 -2.5403739360191979 -3.0572335127579113 0 0 0 0 68.315468855055514 -1.3713765516965679 0 -1.3713765516965679 -4.0724037042206929 0 0 0 0 65.689403003146595 -0.86434818252365453 0 -0.86434818252365453 -4.1000084193602362 0 0 0 0 65.098641166057547 2.5871369949403413 0 2.5871369949403413 -3.4192112662842016 0 0 0 0 66.830021819183742 -0.22351641184898385 0 -0.22351641184898385 -3.5046327911521993 0 0 0 0 67.856983992111452 0.44720069873505652 0 0.44720069873505652 -4.3194180368471224 0 0 0 0 64.782708570134901 1.0045088595774736 0 1.0045088595774736 -4.3152301367867238 0 0 0 0 64.648904607899794 0.88109266678303166 0 0.88109266678303166 -4.3363308207714599 0 0 0 0 66.501970173083123 -0.37787301065516177 0 -0.37787301065516177 -4.7102003237754193 0 0 0 0 64.484632366535152 -0.22699337506890638 0 -0.22699337506890638 -4.7140617698353111 0 0 0 0 64.966059101181372 0.1868621325630706 0 0.1868621325630706 -4.7229322577786474 0 0 0 0 62.433019474487764 1.4325602265756157 0 1.4325602265756157 -4.3227483114002467 0 0 0 0 66.221875043929629 -1.3585909258650228 0 -1.3585909258650228 -4.0484530233151581 0 0 0 0 65.507982111320189 -0.30267220513220761 0 -0.30267220513220761 -4.6336460343466452 0 0 0 0 64.72187717710591 -0.81993040089958291 0 -0.81993040089958291 -4.0717699731110732 0 0 0 0 64.01465911284032 -0.37446130176080955 0 -0.37446130176080955 -3.4321242679854542 0 0 0 0 63.790611162011601 -2.4820766930998106 0 -2.4820766930998106 -2.3655543910437147 0 0 0 0 59.920085415040887 -0.42001659802864533 0 -0.42001659802864533 -1.0628673427411821 0 0 0 0 61.848859149340228 -1.9001850028464178 0 -1.9001850028464178 -2.3895989332615759 0 0 0 0 55.699953771687888 -1.7779340734625286 0 -1.7779340734625286 2.7952823584204953 0 0 0 0 50.006503683489825 -0.030487131615329684 0 -0.030487131615329684 2.5955198890080995 0 0 0 0 50.002332743364946 -3.8987642894249253 0 -3.8987642894249253 3.088515227587568 0 0 0 0 58.144443590576202 -3.6299556613707935 0 -3.6299556613707935 0.59893463508537981 0 0 0 0 56.429187570726299 -2.818692870599012 0 -2.818692870599012 0.52640276963367016 0 0 0 0 50.000703938292133 -7.6384429614810889 0 -7.6384429614810889 3.5912755108291292 0 0 0 0 56.037978158179214 -6.5405123952622137 0 -6.5405123952622137 3.4164738376805768 0 0 0 0 59.556953706441263 -11.536048241335518 0 -11.536048241335518 4.45395340494776 0 0 0 0 58.619245266330779 -8.6439484716894714 0 -8.6439484716894714 0.29227391321692886 0 0 0 0 64.108546798711274 -5.6118420186754259 0 -5.6118420186754259 -0.9420365375878057 0 0 0 0 67.227218803596628 -3.1660126977871075 0 -3.1660126977871075 -3.0635762423760209 0 0 0 0 64.105259209844007 -5.3382540222752279 0 -5.3382540222752279 -1.9519361239080364 0 0 0 0 64.264175959779465 -2.7020961400251697 0 -2.7020961400251697 -3.0826146856931094 0 0 0 0 60.320645737677012 -4.9313502481215625 0 -4.9313502481215625 -1.0101541005659134 0 0 0 0 85.962402613934387 6.1628879928356337 0 6.1628879928356337 7.5472931112212969 0 0 0 0 73.378118283827348 8.0016649005647498 0 8.0016649005647498 9.0147598966052627 0 0 0 0 84.490726970167771 10.526855727620065 0 10.526855727620065 6.4100494100280798 0 0 0 0 74.48543833706961 2.9719402780621174 0 2.9719402780621174 8.3915329183423726 0 0 0 0 67.56159862251161 5.1911068805690803 0 5.1911068805690803 8.1086398902408305 0 0 0 0 67.9922029834255 1.966797970307578 0 1.966797970307578 9.3833770098877309 0 0 0 0 69.75417315397533 0.11805716511434582 0 0.11805716511434582 5.7534874433317196 0 0 0 0 70.64097317888249 0.1078955361785766 0 0.1078955361785766 10.646929252885451 0 0 0 0 70.690272933528149 3.8332732476133344 0 3.8332732476133344 10.431587718358536 0 0 0 0 70.370466431287241 1.064823805504423 0 1.064823805504423 11.807138933922435 0 0 0 0 72.592813519630639 0.15117521117589702 0 0.15117521117589702 12.115995869329577 0 0 0 0 72.576370632865547 1.4223095040534157 0 1.4223095040534157 11.055737827369825 0 0 0 0 78.256772774084197 0.011392572242748145 0 0.011392572242748145 10.781608367370129 0 0 0 0 77.308633296328594 2.1098752245371877 0 2.1098752245371877 10.305400782042563 0 0 0 0 77.205147912693207 4.2151967102323828 0 4.2151967102323828 8.3065868688542395 0 0 0 0 78.25707031202478 -0.012647853465873382 0 -0.012647853465873382 8.2629679895958716 0 0 0 0 86.768812300596323 1.9970914144230747 0 1.9970914144230747 7.789506354210868 0 0 0 0 97.653363205362552 -0.0048225000901496173 0 -0.0048225000901496173 3.6766176743409247 0 0 0 0 86.791638152321241 2.5870031809701146 0 2.5870031809701146 4.1926904503726306 0 0 0 0 48.826681602681219 0.071735946536646722 0 0.071735946536646722 0.25864360814563803 0 0 0 0 48.632843919011123 4.035883816415816 0 4.035883816415816 0.38689728839354309 0 0 0 0 97.265687838022131 4.9746666857060653 0 4.9746666857060653 3.6151413178422178 0 0 0 0 60.513328344225897 -0.028551183022280213 0 -0.028551183022280213 -3.3341439215513478 0 0 0 0 56.321041776171768 2.6493299010887954 0 2.6493299010887954 -2.2246662141446052 0 0 0 0 55.754523521606529 1.7070924890423829 0 1.7070924890423829 0.010242515072270919 0 0 0 0 59.199339949826879 2.4967721740865567 0 2.4967721740865567 -2.2692931749443845 0 0 0 0 61.159986442647607 3.6827632040634524 0 3.6827632040634524 -3.5827500484851553 0 0 0 0 56.697106518106295 6.5990404831102705 0 6.5990404831102705 -0.43878928367335845 0 0 0 0 62.229288800496931 10.53309527697488 0 10.53309527697488 -1.0335337801149276 0 0 0 0 60.443646523753387 6.1938337101040739 0 6.1938337101040739 -2.5023348148173845 0 0 0 0 65.857742728358005 3.225320005113856 0 3.225320005113856 -3.7075353422183346 0 0 0 0 85.80856376080726 7.6453150129503999 0 7.6453150129503999 4.1116731557812205 0 0 0 0 50.80762037280158 7.354134934703934 0 7.354134934703934 -0.085881039153772321 0 0 0 0 83.274791341551236 14.605857816819249 0 14.605857816819249 4.3477331242488262 0 0 0 0 101.61524074560316 10.595170732269336 0 10.595170732269336 2.4356904468833633 0 0 0 0 83.303757948634029 25.525599637223422 0 25.525599637223422 5.3604690982003449 0 0 0 0 109.17712927058574 14.770241127937002 0 14.770241127937002 0.99781479482169244 0 0 0 0 54.588564635292869 9.5560027613262157 0 9.5560027613262157 0.70541051983665604 0 0 0 0 61.042518300491452 14.979726265339455 0 14.979726265339455 2.6802345491001711 0 0 0 0 67.316208071065432 4.5200045439831911 0 4.5200045439831911 -1.6259685355686337 0 0 0 0 63.123376713730408 14.498072639865565 0 14.498072639865565 2.0547381984846567 0 0 0 0 69.855949414486759 6.1694453296062282 0 6.1694453296062282 -2.6894026334672683 0 0 0 0 85.399436752064162 25.489204198837324 0 25.489204198837324 4.1094763969693107 0 0 0 0 75.991601038577983 6.5461644279514442 0 6.5461644279514442 -3.2519370711372662 0 0 0 0 71.524516417179598 6.9031441151992672 0 6.9031441151992672 6.117170756434124 0 0 0 0 86.477358897100132 16.348195508537557 0 16.348195508537557 2.8184678493230422 0 0 0 0 87.432966747114961 12.078088312894076 0 12.078088312894076 3.3779126499980898 0 0 0 0 78.997522826878765 9.9671820369888131 0 9.9671820369888131 5.495258902678934 0 0 0 0 60.268733582600134 12.644587388544494 0 12.644587388544494 -1.3824464514994284 0 0 0 0 54.792235862032214 10.847778156048427 0 10.847778156048427 0.66662076898140121 0 0 0 0 109.58447172406443 15.793212076730969 0 15.793212076730969 -0.68357433081824404 0 0 0 0 101.99696413055892 13.242757460331449 0 13.242757460331449 0.37884744452439634 0 0 0 0 50.998482065279489 10.224807906154632 0 10.224807906154632 -0.69339485660000211 0 0 0 0 61.291826398249697 7.0665436754371012 0 7.0665436754371012 -2.9671371608526971 0 0 0 0 60.578107363340393 3.2335986150194249 0 3.2335986150194249 -2.4079199526135087 0 0 0 0 66.029961075408892 3.109534913674818 0 3.109534913674818 -1.8016521456250951 0 0 0 0 58.817401292070159 7.3654384364038075 0 7.3654384364038075 -1.9070381129398895 0 0 0 0 67.243643654320124 7.4147763327724325 0 7.4147763327724325 -2.2699400755956027 0 0 0 0 63.734228996035 5.5892647092844543 0 5.5892647092844543 -0.033198093874027002 0 0 0 0 66.236268954390482 1.3624367018017329 0 1.3624367018017329 6.0570660195342194 0 0 0 0 71.646588983100514 7.1778884412804418 0 7.1778884412804418 -0.06639618774804612 0 0 0 0 68.666449800579358 6.1645078026011344 0 6.1645078026011344 8.8238513229701105 0 0 0 0 64.34286627835445 1.5146307501957925 0 1.5146307501957925 5.4072445858106528 0 0 0 0 68.667968034982209 2.1988827607121255 0 2.1988827607121255 -0.65430893224298037 0 0 0 0 63.7476183160652 2.1921194081913251 0 2.1921194081913251 -0.32715446612149024 0 0 0 0 63.51093154046211 0.024766097577068779 0 0.024766097577068779 0.0030398016370998138 0 0 0 0 62.425178480537795 0.74896192011141882 0 0.74896192011141882 -1.6207981058890548 0 0 0 0 65.453934868568268 1.4323732137009604 0 1.4323732137009604 -1.4668626002066811 0 0 0 0 62.99313198388802 4.1760299650575741 0 4.1760299650575741 -2.1635426457470608 0 0 0 0 62.062945594265443 1.5817426552050413 0 1.5817426552050413 -2.5922481846757925 0 0 0 0 60.388443155438949 0.81347546009452465 0 0.81347546009452465 -2.9297653595065842 0 0 0 0 59.496935724164132 1.3926575556459189 0 1.3926575556459189 -3.3015436961338787 0 0 0 0 57.815397942616698 0.94387049716972404 0 0.94387049716972404 -3.2585088775514324 0 0 0 0 57.76066161680086 3.3331210707656771 0 3.3331210707656771 -3.1156791909242929 0 0 0 0 60.462460453706498 3.8900824182913785 0 3.8900824182913785 -3.1278930573268235 0 0 0 0 55.882664248666686 6.2097841924847392 0 6.2097841924847392 -2.351702710086359 0 0 0 0 57.526044723182345 5.992831322352095 0 5.992831322352095 -2.6454907463875843 0 0 0 0 53.281223741972582 5.2499037650380762 0 5.2499037650380762 -2.1167963779408874 0 0 0 0 57.505521008954844 3.2331013745099888 0 3.2331013745099888 -2.916463847322849 0 0 0 0 55.104288719522003 2.8315439142155059 0 2.8315439142155059 -2.7495303712755486 0 0 0 0 54.989687311984909 4.7665281589302957 0 4.7665281589302957 -2.1183109109897602 0 0 0 0 51.584142746152622 4.0828868085214598 0 4.0828868085214598 -1.6805036319916256 0 0 0 0 55.539989523315455 2.6113428712620625 0 2.6113428712620625 -2.6393020555354223 0 0 0 0 55.616503839961496 0.90231118578696257 0 0.90231118578696257 -2.9616235828855197 0 0 0 0 57.147525590651043 1.1138351467727636 0 1.1138351467727636 -3.2289442442318284 0 0 0 0 84.398616787240158 8.1292534641348198 0 8.1292534641348198 4.0462510184764717 0 0 0 0 91.394924537272857 7.0551168187410944 0 7.0551168187410944 2.9554909701324572 0 0 0 0 89.86383329180569 9.1864975048944757 0 9.1864975048944757 3.3215507596187024 0 0 0 0 89.683567209289833 11.199278208038036 0 11.199278208038036 2.07401339125947 0 0 0 0 91.394924537274278 8.0545431799539475 0 8.0545431799539475 1.5030753112702602 0 0 0 0 98.609667115272771 9.6271209811119753 0 9.6271209811119753 0.91401755224789305 0 0 0 0 56.005762272818828 9.5418340641330879 0 9.5418340641330879 -1.4435822689068205 0 0 0 0 49.304833557636371 8.1338602203943822 0 8.1338602203943822 -0.79076205252860632 0 0 0 0 53.281909634995941 7.1470638268385098 0 7.1470638268385098 -0.96895045740256336 0 0 0 0 48.515225715511946 6.1260479314392757 0 6.1260479314392757 -0.57859135322671529 0 0 0 0 51.540171183295101 5.2430045886521883 0 5.2430045886521883 -0.58732321454712855 0 0 0 0 97.03045143102392 6.9107184756895128 0 6.9107184756895128 0.94534134850839635 0 0 0 0 92.297558801866074 5.7552132850054303 0 5.7552132850054303 1.1887097591132321 0 0 0 0 92.29303976952616 5.2833370730095215 0 5.2833370730095215 2.4724495662954942 0 0 0 0 87.56508887771804 6.0875710839932617 0 6.0875710839932617 3.1157472412901308 0 0 0 0 90.986297282815144 3.3572737499102527 0 3.3572737499102527 1.6864066604261103 0 0 0 0 92.76907382642392 3.9599952167713681 0 3.9599952167713681 1.8404970044203406 0 0 0 0 89.550540995187646 4.4483091363262712 0 4.4483091363262712 2.4070839203629362 0 0 0 0 92.777360654474123 4.0969198589546965 0 4.0969198589546965 0.99643740318231977 0 0 0 0 95.407357291203866 3.7293897801016387 0 3.7293897801016387 0.60758738408223767 0 0 0 0 96.099899482965299 4.959468915660465 0 4.959468915660465 0.85766427595556394 0 0 0 0 48.049949741482635 4.4520111348900464 0 4.4520111348900464 -0.29950895896070229 0 0 0 0 50.408236668714807 3.7218368574892522 0 3.7218368574892522 -0.26412515973779405 0 0 0 0 47.703678645601919 3.1921026177691392 0 3.1921026177691392 0.048456757732920464 0 0 0 0 49.592218340831216 2.6201222137732887 0 2.6201222137732887 0.010205655968297922 0 0 0 0 49.146924141861611 1.5164887334197792 0 1.5164887334197792 0.00028922328723093448 0 0 0 0 47.164719012814629 2.4150742311106788 0 2.4150742311106788 0.18532335695087765 0 0 0 0 94.329438025629258 3.3066494000563282 0 3.3066494000563282 0.39979804485529069 0 0 0 0 93.126804184117162 3.0835823351956648 0 3.0835823351956648 0.74053013220362107 0 0 0 0 93.126164190196292 3.0801816644527773 0 3.0801816644527773 0.72679205982299955 0 0 0 0 93.404259197698693 2.6444803083537716 0 2.6444803083537716 0.00063868937984704619 0 0 0 0 92.916970208014192 3.1675972085955921 0 3.1675972085955921 0.77944932481592488 0 0 0 0 91.986080791840465 2.2306327457563997 0 2.2306327457563997 0.0010425505741711329 0 0 0 0 53.743926713211025 0.45915983114363812 0 0.45915983114363812 -1.8936187402566604 0 0 0 0 53.934061363501428 0.77052197483438656 0 0.77052197483438656 -2.2746389455979927 0 0 0 0 55.217962804887541 0.78646117237860114 0 0.78646117237860114 -2.7036379615791151 0 0 0 0 53.886463957357172 1.8780625339062726 0 1.8780625339062726 -1.9793035638890144 0 0 0 0 53.244170506585732 2.2728599855480818 0 2.2728599855480818 -2.2201796041123392 0 0 0 0 53.188969266088847 3.5158426144217536 0 3.5158426144217536 -1.5590226113903669 0 0 0 0 50.449409300072659 2.9871599124536297 0 2.9871599124536297 -1.1610664659268188 0 0 0 0 51.855901942067618 2.5020344355064603 0 2.5020344355064603 -1.0449497765687672 0 0 0 0 51.951037889958961 1.7229525019372494 0 1.7229525019372494 -1.4553887860616421 0 0 0 0 49.712064048664956 2.0783030965378231 0 2.0783030965378231 -0.3990761175281885 0 0 0 0 49.780428530843409 2.2935789757816294 0 2.2935789757816294 -0.48215186131642368 0 0 0 0 51.37631666190908 1.5590527277404933 0 1.5590527277404933 -0.84052213234814377 0 0 0 0 50.965082162761199 1.2627449509210107 0 1.2627449509210107 -0.0010760713247707963 0 0 0 0 52.148101766386901 0.74199595110394678 0 0.74199595110394678 -0.00019578578237237963 0 0 0 0 52.763576927059809 0.71473272258823317 0 0.71473272258823317 -1.2238282326582051 0 0 0 0 52.712848833137521 1.2525206360035916 0 1.2525206360035916 -1.1649613125642229 0 0 0 0 52.664549716175074 0.0071845901614149034 0 0.0071845901614149034 -0.0015718449152065065 0 0 0 0 52.455139753475947 0.49474564479307753 0 0.49474564479307753 -1.0822158417257888 0 0 0 0 52.467228098967055 -0.48456669433044797 0 -0.48456669433044797 -1.1117192686791872 0 0 0 0 52.230109026823243 -0.70232199568664044 0 -0.70232199568664044 -0.00028185976785058387 0 0 0 0 52.762681123727667 -1.2104525944707569 0 -1.2104525944707569 -1.1677930480430572 0 0 0 0 52.841590314875198 -0.65757024502576922 0 -0.65757024502576922 -1.2157509740374954 0 0 0 0 53.703465004987329 -0.39608262916216042 0 -0.39608262916216042 -1.9323709728431571 0 0 0 0 53.968386061986372 -1.7731161623398073 0 -1.7731161623398073 -2.0008146881629205 0 0 0 0 54.093004080245123 -0.65843701922504994 0 -0.65843701922504994 -2.2866386502442859 0 0 0 0 55.19123449182274 -0.6448350132116325 0 -0.6448350132116325 -2.7335672624485885 0 0 0 0 53.293103807207615 -3.4468424034897556 0 -3.4468424034897556 -1.5945207363153586 0 0 0 0 50.526728596472253 -2.9521397866984067 0 -2.9521397866984067 -1.1925971094036374 0 0 0 0 53.334998976728414 -2.1933990832054588 0 -2.1933990832054588 -2.2727105862846271 0 0 0 0 52.014223638667801 -1.7029649455331108 0 -1.7029649455331108 -1.4876779864130232 0 0 0 0 51.839957773953856 -2.4887038473638139 0 -2.4887038473638139 -1.0612525869846077 0 0 0 0 49.718960944418043 -2.0825649982084897 0 -2.0825649982084897 -0.39956703063571308 0 0 0 0 51.397955970403004 -1.5706084370178464 0 -1.5706084370178464 -0.88491120007123869 0 0 0 0 50.956294095951861 -1.2650324775742094 0 -1.2650324775742094 -0.0010175955347553089 0 0 0 0 49.7932065392596 -2.2975453676603608 0 -2.2975453676603608 -0.48754918734720798 0 0 0 0 47.158878060385199 -2.417056879293618 0 -2.417056879293618 0.19126860757885078 0 0 0 0 49.144436962903207 -1.5197732623288562 0 -1.5197732623288562 0.00027693899188645281 0 0 0 0 94.317756120770326 -3.2983069715107889 0 -3.2983069715107889 0.38917898071441304 0 0 0 0 49.586035860431963 -2.6283248368878702 0 -2.6283248368878702 0.010693844236968175 0 0 0 0 92.023572888631378 -2.2482998411626642 0 -2.2482998411626642 0.00098512763104767085 0 0 0 0 92.91282379967619 -3.1722204771840468 0 -3.1722204771840468 0.77534816225267544 0 0 0 0 93.410459570251504 -2.6503989062241042 0 -2.6503989062241042 0.00065940065947584967 0 0 0 0 93.148447747281878 -3.1034032246656231 0 -3.1034032246656231 0.73888968931782784 0 0 0 0 93.144463845189534 -3.084770839931716 0 -3.084770839931716 0.71217795886733848 0 0 0 0 91.036268111797099 -3.3373337203413018 0 -3.3373337203413018 1.6644968905460171 0 0 0 0 92.781450161394361 -4.1334210881253854 0 -4.1334210881253854 0.98933845081697136 0 0 0 0 92.758827582973993 -3.9385007509864645 0 -3.9385007509864645 1.8299328915612225 0 0 0 0 89.537979276780305 -4.4191762599827742 0 -4.4191762599827742 2.4122185681398447 0 0 0 0 47.712255400807059 -3.1876805067331651 0 -3.1876805067331651 0.044701863621820159 0 0 0 0 95.42451080161409 -3.6930397756868176 0 -3.6930397756868176 0.5801926385330809 0 0 0 0 96.128193916617533 -4.9303793612460289 0 -4.9303793612460289 0.85235782943838867 0 0 0 0 48.064096958308781 -4.4189977122035442 0 -4.4189977122035442 -0.30855552755479065 0 0 0 0 50.442924776492546 -3.731429309557321 0 -3.731429309557321 -0.27256616330837247 0 0 0 0 51.609915002093771 -5.2291701205722116 0 -5.2291701205722116 -0.60937076903562737 0 0 0 0 97.056525022802191 -6.9143100837888802 0 -6.9143100837888802 0.96604387318784468 0 0 0 0 48.528262511401067 -6.0844313085770825 0 -6.0844313085770825 -0.59839752576974803 0 0 0 0 92.2455563594892 -5.279233766635663 0 -5.279233766635663 2.4658164654606454 0 0 0 0 92.257190436384036 -5.78750630221852 0 -5.78750630221852 1.2135037292608111 0 0 0 0 87.54928148920186 -6.066587269545626 0 -6.066587269545626 3.1325866729895093 0 0 0 0 91.133805769200478 -6.9462424834156558 0 -6.9462424834156558 3.0019848724683253 0 0 0 0 84.190903206400606 -7.9549089753552717 0 -7.9549089753552717 4.0929149598344789 0 0 0 0 91.205460033423691 -8.1032988736822595 0 -8.1032988736822595 1.5241805628883007 0 0 0 0 89.206455094999171 -11.238440894782411 0 -11.238440894782411 2.0753027678459173 0 0 0 0 89.36724693348134 -8.8508148844689725 0 -8.8508148844689725 3.4477923339613987 0 0 0 0 49.312134393127366 -8.0727880983991351 0 -8.0727880983991351 -0.83767550637329968 0 0 0 0 53.354314157719728 -7.1200085793886032 0 -7.1200085793886032 -0.9958737017641841 0 0 0 0 98.624268786254731 -9.6213406148563489 0 -9.6213406148563489 0.98315471168678847 0 0 0 0 56.225837259110733 -9.441994187748147 0 -9.441994187748147 -1.4380221767498487 0 0 0 0 55.996399867467744 -6.0519001815971816 0 -6.0519001815971816 -2.4047120959435579 0 0 0 0 57.648241734141351 -5.8352243494022726 0 -5.8352243494022726 -2.6889710613144073 0 0 0 0 53.476704062165311 -5.1229392389282484 0 -5.1229392389282484 -2.1540795979704104 0 0 0 0 57.666741250709343 -3.0447860523460539 0 -3.0447860523460539 -2.9471619686477855 0 0 0 0 60.514884227128874 -3.6961223678479884 0 -3.6961223678479884 -3.1163267907516969 0 0 0 0 60.521341999292929 -0.61662041905837395 0 -0.61662041905837395 -2.9720115046483979 0 0 0 0 59.511453686886561 -1.2038171286818038 0 -1.2038171286818038 -3.3134229830083544 0 0 0 0 57.911295889427123 -0.76876851358837084 0 -0.76876851358837084 -3.2826294537776279 0 0 0 0 57.872909729953363 -3.1574447575649405 0 -3.1574447575649405 -3.1413411748949924 0 0 0 0 57.18318254697256 -0.93765259729239592 0 -0.93765259729239592 -3.2385694439737529 0 0 0 0 55.70252953334375 -0.73071202988225847 0 -0.73071202988225847 -2.9797533517637538 0 0 0 0 55.695628217292651 -2.4693255503575031 0 -2.4693255503575031 -2.6733353744296906 0 0 0 0 51.63680129091496 -4.0444524022336941 0 -4.0444524022336941 -1.7134424488907238 0 0 0 0 55.043358918578519 -4.6695558445224234 0 -4.6695558445224234 -2.1344791422491314 0 0 0 0 55.252284899376576 -2.70321022417134 0 -2.70321022417134 -2.7966882988334416 0 0 0 0 99.992343763144277 5.6749149737420082 0 5.6749149737420082 -1.9461423756842664 0 0 0 0 95.866798096961531 4.5283726386414109 0 4.5283726386414109 -1.8526428022294843 0 0 0 0 95.81474610662508 3.6120317249829492 0 3.6120317249829492 0.18598749931221659 0 0 0 0 100.01494203260913 3.2297683246059603 0 3.2297683246059603 -1.7601797730061195 0 0 0 0 96.584058258502722 2.4260852334967371 0 2.4260852334967371 -1.3905173134949758 0 0 0 0 96.829959402854172 0.56053752340271812 0 0.56053752340271812 -0.0013786458431452671 0 0 0 0 99.93399750812921 1.5238316099358367 0 1.5238316099358367 -1.1788285780489693 0 0 0 0 95.800326040910761 1.9930380189808177 0 1.9930380189808177 -0.14341887752787286 0 0 0 0 96.435394244688226 1.7880180038747659 0 1.7880180038747659 -0.24254822562386025 0 0 0 0 93.930414414837415 0.67485098328311544 0 0.67485098328311544 0.00095572606045516394 0 0 0 0 93.217074756684596 1.3449421383459088 0 1.3449421383459088 0.73253815948916523 0 0 0 0 91.861150705563944 0.2101287801959868 0 0.2101287801959868 0.00023799694670742451 0 0 0 0 91.200956137161072 1.1227948284297495 0 1.1227948284297495 1.0710166839505644 0 0 0 0 93.041426914452529 2.8513140133017498 0 2.8513140133017498 0.16687837748136369 0 0 0 0 92.91057017759772 1.7955113134269522 0 1.7955113134269522 1.257236579953213 0 0 0 0 91.390251110987066 4.9225880877891433 0 4.9225880877891433 0.26220727312678993 0 0 0 0 91.312516984658089 3.1815467322722735 0 3.1815467322722735 2.0377016499697183 0 0 0 0 89.672382684045317 2.4162996547576339 0 2.4162996547576339 1.6955362311900997 0 0 0 0 87.253460415108691 1.1114681236674322 0 1.1114681236674322 3.1217012931514119 0 0 0 0 87.292876934884987 -1.0014744218245544 0 -1.0014744218245544 3.6360142262272825 0 0 0 0 89.391789947523094 -0.92485526165352949 0 -0.92485526165352949 2.4508116114613667 0 0 0 0 89.335839952152256 0.26032336131608413 0 0.26032336131608413 2.1809855791455965 0 0 0 0 89.602563965508466 0.79752539727138416 0 0.79752539727138416 2.6731567304007036 0 0 0 0 91.131152005717695 0.38783387899712274 0 0.38783387899712274 1.3671161120831257 0 0 0 0 91.181582561810984 0.13502627290277186 0 0.13502627290277186 1.2266299965560117 0 0 0 0 90.721552193898262 -0.6199816501570008 0 -0.6199816501570008 0.001876996507131931 0 0 0 0 90.129945382052199 -1.3639472806943167 0 -1.3639472806943167 1.5541066766503184 0 0 0 0 90.794932843338941 -1.0827580202362601 0 -1.0827580202362601 1.3817938404026879 0 0 0 0 90.881610402325961 -1.5024822194620346 0 -1.5024822194620346 0.00045406660874675693 0 0 0 0 91.627810738555823 -2.4384193220196599 0 -2.4384193220196599 1.172459027214773 0 0 0 0 90.222532114317744 -2.0124776429725086 0 -2.0124776429725086 1.4926474963532546 0 0 0 0 90.888171037136772 -2.6699161358261212 0 -2.6699161358261212 2.0330158320691476 0 0 0 0 88.512914783272549 -1.1878855185160089 0 -1.1878855185160089 2.9251626576125807 0 0 0 0 88.671464837489609 -2.6117669608051788 0 -2.6117669608051788 2.7664768190517828 0 0 0 0 89.496299346889515 -3.1725777583987407 0 -3.1725777583987407 3.1356293821276262 0 0 0 0 86.298382518604598 -3.4175245609708877 0 -3.4175245609708877 3.8188228180774315 0 0 0 0 86.288767477336336 -0.99494096900090423 0 -0.99494096900090423 3.9281957929169629 0 0 0 0 87.308320226447165 -3.799845602687729 0 -3.799845602687729 3.938491032065321 0 0 0 0 82.989932495361472 -4.3480899384651703 0 -4.3480899384651703 4.7368403011501403 0 0 0 0 84.166516398537667 -4.2761811485194094 0 -4.2761811485194094 4.2765754449486 0 0 0 0 78.549033706375667 -5.099728224067742 0 -5.099728224067742 5.1293293320540307 0 0 0 0 78.537885324272111 0.21704945920630081 0 0.21704945920630081 3.9720761405344094 0 0 0 0 82.930637183803626 -0.65649909656831662 0 -0.65649909656831662 4.5095543878035178 0 0 0 0 80.231776107301869 -1.0860903147706498 0 -1.0860903147706498 4.9125677989465162 0 0 0 0 79.227557227293971 2.7769080967570305 0 2.7769080967570305 3.6871391650385745 0 0 0 0 83.692006324613715 2.3275970306208729 0 2.3275970306208729 4.2005668666407647 0 0 0 0 80.256974757776973 3.4194525697020159 0 3.4194525697020159 4.0860696637752696 0 0 0 0 84.256188929804367 2.1988152882428187 0 2.1988152882428187 3.8571045531673871 0 0 0 0 84.199498243109986 -1.0598522733268694 0 -1.0598522733268694 4.5570930662791058 0 0 0 0 87.169763814616573 1.5453923427534537 0 1.5453923427534537 3.6385432151563699 0 0 0 0 87.287102219890102 4.157009146523829 0 4.157009146523829 2.3146432640558809 0 0 0 0 88.976135560961268 7.6545386631547618 0 7.6545386631547618 0.49719277564937858 0 0 0 0 88.810755547685687 4.8804614344092823 0 4.8804614344092823 2.6484193177844713 0 0 0 0 83.781181511464396 6.2138651844526986 0 6.2138651844526986 2.877123274806296 0 0 0 0 85.378446256338691 6.6899930122338782 0 6.6899930122338782 2.8968670080369501 0 0 0 0 79.096547650046432 8.227590368559115 0 8.227590368559115 3.1843551786119653 0 0 0 0 85.348036739585424 10.781994624085648 0 10.781994624085648 0.89658621686352391 0 0 0 0 92.903814662764717 8.8763514593011212 0 8.8763514593011212 0.61917314791171862 0 0 0 0 90.21038820201619 12.270194384969612 0 12.270194384969612 1.0005066641470419 0 0 0 0 90.078726718332177 15.86111218912338 0 15.86111218912338 -2.894337638132332 0 0 0 0 99.990654745113716 12.861066098367552 0 12.861066098367552 -2.7841115270652712 0 0 0 0 92.903033344349353 11.037622831341674 0 11.037622831341674 -2.5410462069243982 0 0 0 0 99.998731977883779 8.799168141149794 0 8.799168141149794 -2.3005924283155874 0 0 0 0 94.652913898582767 5.989428404981874 0 5.989428404981874 0.41030108237504581 0 0 0 0 94.706467023366727 7.3910393182264205 0 7.3910393182264205 -2.1242455275748631 0 0 0 0 50.03437639724774 12.627576367045911 0 12.627576367045911 4.9008764300934669 0 0 0 0 60.2633758756904 17.771082137457757 0 17.771082137457757 4.9588884924745287 0 0 0 0 66.766256103754102 9.7201175343226272 0 9.7201175343226272 0.41201837054207502 0 0 0 0 80.872994883314618 30.094868761037194 0 30.094868761037194 9.9177769849490556 0 0 0 0 99.928260999988353 25.928018397378143 0 25.928018397378143 -0.80378840443571087 0 0 0 0 85.11503548612211 22.143847573288639 0 22.143847573288639 -1.5893978053202544 0 0 0 0 100.00881239029098 18.487179171619147 0 18.487179171619147 -2.9914144953224864 0 0 0 0 69.436244023341288 13.422774465989908 0 13.422774465989908 4.1848301862565487 0 0 0 0 86.557741431157282 16.682874016813845 0 16.682874016813845 2.0127970890221594 0 0 0 0 79.205823274119155 13.972256627785224 0 13.972256627785224 2.2960628783335526 0 0 0 0 80.362281100548216 7.7250492289559789 0 7.7250492289559789 2.1811556610245022 0 0 0 0 74.408368291778402 9.355272397703251 0 9.355272397703251 2.4330989258520037 0 0 0 0 69.832309299493659 5.9484659622654421 0 5.9484659622654421 0.85598625570905673 0 0 0 0 73.788157231401271 5.3546710111380698 0 5.3546710111380698 -4.2913412532119617 0 0 0 0 74.648685389728996 11.457852344693539 0 11.457852344693539 -1.3364711072391042 0 0 0 0 65.683574985915754 8.5273914381758651 0 8.5273914381758651 -0.66823555361955145 0 0 0 0 67.823891210530519 4.5656786833959524 0 4.5656786833959524 -2.1456706266059804 0 0 0 0 69.129590726217629 5.7305597989568122 0 5.7305597989568122 -1.9641621797870641 0 0 0 0 70.094562053049856 2.842938535365902 0 2.842938535365902 -3.0571136840002193 0 0 0 0 68.650137809453156 1.7778071278224981 0 1.7778071278224981 -2.4135643824156605 0 0 0 0 73.720813375137652 1.8181819043540317 0 1.8181819043540317 -4.8271287648313175 0 0 0 0 75.509244815097588 2.7501359827129592 0 2.7501359827129592 0.46707561813588772 0 0 0 0 69.746843621480707 4.1756650193464342 0 4.1756650193464342 0.11529375908029404 0 0 0 0 75.617225322187267 4.5284464023282602 0 4.5284464023282602 2.8541783053595706 0 0 0 0 75.426447722757203 -1.0824428943244586 0 -1.0824428943244586 3.5086974874630847 0 0 0 0 75.55908450587583 0.99925316712144108 0 0.99925316712144108 0.4751924429539689 0 0 0 0 69.902737724853296 -0.0050510087092436873 0 -0.0050510087092436873 0.3227663755232793 0 0 0 0 79.866764587305113 -3.8175221717346886 0 -3.8175221717346886 3.2130926116944067 0 0 0 0 74.021060245158225 -5.2407641359469093 0 -5.2407641359469093 3.4955093130741126 0 0 0 0 70.761001499643669 -0.8470650196205245 0 -0.8470650196205245 1.2479285435565126 0 0 0 0 74.156187553532448 -1.5569878445274474 0 -1.5569878445274474 -5.01888841331085 0 0 0 0 70.488227344348672 0.50265406103328358 0 0.50265406103328358 -3.5105731888898708 0 0 0 0 68.433974909808342 -0.89937853351268382 0 -0.89937853351268382 -2.509444206655425 0 0 0 0 70.303354743934847 -2.3639597977522704 0 -2.3639597977522704 -3.4271484457740709 0 0 0 0 64.891871872190592 -2.7005504571385104 0 -2.7005504571385104 -3.4234834196013297 0 0 0 0 66.77481891991988 0.1713324953551334 0 0.1713324953551334 -3.5137738733951256 0 0 0 0 67.939839663498418 -0.53902579575010945 0 -0.53902579575010945 -4.3158002545101137 0 0 0 0 64.56450225382082 -1.0547099148551515 0 -1.0547099148551515 -4.288399793038991 0 0 0 0 64.491230175661826 -1.0067655410959855 0 -1.0067655410959855 -4.2202232579532399 0 0 0 0 62.250533540901927 -1.5322326458939264 0 -1.5322326458939264 -4.2272241176840595 0 0 0 0 64.915008947134027 -0.24326712558776165 0 -0.24326712558776165 -4.6995133111681602 0 0 0 0 64.308410712514501 0.23604334650967207 0 0.23604334650967207 -4.6854410383003993 0 0 0 0 66.545420626406099 0.25373223670622025 0 0.25373223670622025 -4.7168767487716305 0 0 0 0 65.531126920673159 0.29592013981028431 0 0.29592013981028431 -4.6661492919919265 0 0 0 0 64.768875141953117 0.77449430467335389 0 0.77449430467335389 -4.0835963295140782 0 0 0 0 66.178738503967452 1.2719781352447324 0 1.2719781352447324 -4.090850738448589 0 0 0 0 65.676211388832343 0.84910079613042844 0 0.84910079613042844 -4.1036742341478254 0 0 0 0 68.28793510201632 1.3116054937032824 0 1.3116054937032824 -4.1031008844082102 0 0 0 0 66.518159997933992 2.5455858243635023 0 2.5455858243635023 -3.0592910718137203 0 0 0 0 64.165403090956602 5.2574232796550859 0 5.2574232796550859 -1.9805212220366439 0 0 0 0 67.097535568603746 3.0389037162790684 0 3.0389037162790684 -3.1144695602989936 0 0 0 0 64.151827683904145 5.503461755496863 0 5.503461755496863 -1.0062565435045259 0 0 0 0 60.505568022989365 4.7695217897401792 0 4.7695217897401792 -1.111036761338702 0 0 0 0 64.31237707024593 2.6116828548097271 0 2.6116828548097271 -3.1179412184165916 0 0 0 0 63.78327751299588 2.3298811534633486 0 2.3298811534633486 -2.4744299638083818 0 0 0 0 62.064714902883281 1.7918406643396518 0 1.7918406643396518 -2.4879377157676905 0 0 0 0 64.077769470441126 0.34653676677602058 0 0.34653676677602058 -3.4947456298604989 0 0 0 0 60.168679262170372 0.45258172954927123 0 0.45258172954927123 -1.1367547505972799 0 0 0 0 58.302582085182053 3.4719354672980529 0 3.4719354672980529 0.47926274384579715 0 0 0 0 56.472751379309102 2.6364384989724829 0 2.6364384989724829 0.35375667930337262 0 0 0 0 55.953383625611394 1.8142318747017268 0 1.8142318747017268 2.7570214212103012 0 0 0 0 50.006503629198789 0.056718567227234146 0 0.056718567227234146 2.5891719074231108 0 0 0 0 50.002346713632619 3.8210237319507319 0 3.8210237319507319 2.9831506039577445 0 0 0 0 56.34167603538441 6.4826542911563063 0 6.4826542911563063 3.328458903231267 0 0 0 0 50.000962778328415 7.5403598550826212 0 7.5403598550826212 3.5099571236710472 0 0 0 0 58.651755700565218 8.5140172134154124 0 8.5140172134154124 0.23359769798398244 0 0 0 0 59.742266867862114 11.51399911429534 0 11.51399911429534 4.4154608513544682 0 0 0 0 63.725032389680337 -5.6338565526831745 0 -5.6338565526831745 -0.06204990292685586 0 0 0 0 68.76427042062312 -6.1274037891082465 0 -6.1274037891082465 8.6797146244919254 0 0 0 0 66.043048717329611 -1.4088865694815986 0 -1.4088865694815986 5.7172902877667804 0 0 0 0 71.697933064774361 -7.1185342011517179 0 -7.1185342011517179 -0.12409980585370953 0 0 0 0 64.376709193474085 -1.6203341523348374 0 -1.6203341523348374 5.4211185653165179 0 0 0 0 67.850570834857081 0.048096268007875892 0 0.048096268007875892 0.006079603274199632 0 0 0 0 68.78157920249987 -2.36216011924401 0 -2.36216011924401 -0.7077453354225347 0 0 0 0 63.775125476383437 -2.2707695166629156 0 -2.2707695166629156 -0.35387266771126774 0 0 0 0 63.160193743166268 -3.9800404400218699 0 -3.9800404400218699 -2.1589138996335708 0 0 0 0 65.513170615415191 -1.2881295671608703 0 -1.2881295671608703 -1.4608625046804682 0 0 0 0 62.34819832396937 -0.62384202743348371 0 -0.62384202743348371 -1.5963390400992741 0 0 0 0 62.164315318246068 -1.4023874007859081 0 -1.4023874007859081 -2.6123437207909244 0 0 0 0 60.57868551756485 -3.0440084400079046 0 -3.0440084400079046 -2.3856733714618681 0 0 0 0 65.941769993358236 -2.9212579050457892 0 -2.9212579050457892 -1.7807327079264099 0 0 0 0 67.314232340580816 -7.3609157171854083 0 -7.3609157171854083 -2.2356794280689063 0 0 0 0 58.716142150729809 -7.2978426370897722 0 -7.2978426370897722 -1.8956568300958661 0 0 0 0 61.505069603719491 -6.8980019783614601 0 -6.8980019783614601 -2.988600886237073 0 0 0 0 50.88874134190354 -10.167219492877175 0 -10.167219492877175 -0.72951958827127683 0 0 0 0 101.77748268380716 -13.088444362053098 0 -13.088444362053098 0.55531359149867043 0 0 0 0 109.66112427401595 -15.707873985068188 0 -15.707873985068188 -0.56865808988997224 0 0 0 0 60.630206971070891 -12.58978615131382 0 -12.58978615131382 -1.4180919650597712 0 0 0 0 54.830562137007973 -10.859483967241552 0 -10.859483967241552 0.62558222096210048 0 0 0 0 78.44032182958108 -9.6718017238144611 0 -9.6718017238144611 5.4865923601719624 0 0 0 0 87.247753118170067 -11.725057573795262 0 -11.725057573795262 3.2771753482067911 0 0 0 0 85.667629276228013 -16.089851859131713 0 -16.089851859131713 2.9254879254113604 0 0 0 0 71.313455813743644 -6.6528371175303329 0 -6.6528371175303329 6.048691730653065 0 0 0 0 75.739825114045061 -6.8466083154433983 0 -6.8466083154433983 -3.1202210870285461 0 0 0 0 85.382818858820997 -25.514609373413002 0 -25.514609373413002 4.0961765486430286 0 0 0 0 69.670697377028489 -6.2887904721479728 0 -6.2887904721479728 -2.7262928569865021 0 0 0 0 63.061572878718295 -14.443250042909865 0 -14.443250042909865 2.0480882743215139 0 0 0 0 67.215487311473623 -4.4991640200540184 0 -4.4991640200540184 -1.5601105435142728 0 0 0 0 61.063187176349842 -15.001076467662578 0 -15.001076467662578 2.6761421824581166 0 0 0 0 54.594876808944662 -9.5616746067844396 0 -9.5616746067844396 0.75163347184443197 0 0 0 0 109.18975361788955 -14.800855269413661 0 -14.800855269413661 0.99162422811352968 0 0 0 0 83.402241027723903 -25.514281496095236 0 -25.514281496095236 5.3522843649162359 0 0 0 0 83.638234029885666 -14.73370286207064 0 -14.73370286207064 4.3657197735844502 0 0 0 0 101.55926164650208 -10.438274818582453 0 -10.438274818582453 2.3836897997070317 0 0 0 0 50.77963082325104 -7.4393369845138642 0 -7.4393369845138642 -0.026122340950552214 0 0 0 0 86.264568002478882 -7.7211840370329803 0 -7.7211840370329803 4.0086531864444996 0 0 0 0 65.660798881056138 -3.3644434264232514 0 -3.3644434264232514 -3.6047627364446733 0 0 0 0 60.344186206921336 -6.1959686614165488 0 -6.1959686614165488 -2.4748231014702022 0 0 0 0 61.875355210228292 -10.605109627265159 0 -10.605109627265159 -0.98761313161209419 0 0 0 0 56.387824392951529 -6.6570555957870763 0 -6.6570555957870763 -0.38110485415603357 0 0 0 0 60.781774010332356 -3.848100073218979 0 -3.848100073218979 -3.4930154212345736 0 0 0 0 59.032827731904717 -2.652850768699512 0 -2.652850768699512 -2.1514071296607717 0 0 0 0 55.451989724456837 -1.6587185961801172 0 -1.6587185961801172 0.023618644182452186 0 0 0 0 56.239006767350304 -2.8270578648373945 0 -2.8270578648373945 -2.0915568745392639 0 0 0 0 60.054741416923662 0.046139772854805194 0 0.046139772854805194 -3.2479770831014623 0 0 0 0 97.319025255101906 -4.9303693334210337 0 -4.9303693334210337 3.4537401289884784 0 0 0 0 48.659512627550953 -4.0940157443734533 0 -4.0940157443734533 0.5236310568982141 0 0 0 0 48.800803073992711 -0.0064784997640296993 0 -0.0064784997640296993 0.21837114653754774 0 0 0 0 97.601606147985649 -0.0053707393359463396 0 -0.0053707393359463396 3.6149298648759896 0 0 0 0 87.189579579455312 -2.5975380063743252 0 -2.5975380063743252 4.0924284489010994 0 0 0 0 87.194775890932505 -2.0429887016280484 0 -2.0429887016280484 7.6406029812544283 0 0 0 0 77.688617212710611 -2.1760461644325271 0 -2.1760461644325271 10.197719519262362 0 0 0 0 77.662351624331905 -4.2944095148378656 0 -4.2944095148378656 8.1515043693826374 0 0 0 0 86.342726107470142 -6.2714127685338381 0 -6.2714127685338381 7.4126463899996153 0 0 0 0 74.641283828650742 -3.2115684635700497 0 -3.2115684635700497 8.224577765842028 0 0 0 0 73.826680486906525 -7.9179983128292015 0 -7.9179983128292015 8.941589829050665 0 0 0 0 84.627257207627935 -10.690489342630979 0 -10.690489342630979 6.4086356279452961 0 0 0 0 69.010895735564077 0.10996330713472879 0 0.10996330713472879 5.9987591730715124 0 0 0 0 68.1636282112662 -2.1595542215754993 0 -2.1595542215754993 9.3026701786398842 0 0 0 0 68.463251186264984 -5.4453756985029527 0 -5.4453756985029527 7.8346079674329081 0 0 0 0 70.857506784559064 -3.9284370621838578 0 -3.9284370621838578 10.471048395435821 0 0 0 0 71.030339921695145 -0.28877602058649376 0 -0.28877602058649376 10.507075094123035 0 0 0 0 70.370607524157663 -1.2073713196866787 0 -1.2073713196866787 11.764943983318247 0 0 0 0 72.888877278329801 -1.39719089152827 0 -1.39719089152827 10.938406046559759 0 0 0 0 72.903373976682133 -0.23206547923498633 0 -0.23206547923498633 12.046526098064543 0 0 0 0 71.226257028456317 -0.0090927307301758454 0 -0.0090927307301758454 12.348340556980176 0 0 0 0 72.879989533228354 0.21740521832837967 0 0.21740521832837967 12.059097795799488 0 0 0 0 72.880242200959728 1.4136061850956929 0 1.4136061850956929 10.942838978758932 0 0 0 0 70.353682341777812 1.1768508856610989 0 1.1768508856610989 11.793346341490448 0 0 0 0 71.005975200944931 0.29899114875679533 0 0.29899114875679533 10.519483584574289 0 0 0 0 70.905321056077781 3.8998699913729706 0 3.8998699913729706 10.459972281200974 0 0 0 0 68.329393413897151 5.4190618514004099 0 5.4190618514004099 8.0231106963442258 0 0 0 0 69.246381154242499 -0.015496772639948198 0 -0.015496772639948198 6.0019198551248625 0 0 0 0 68.131431895331616 2.0958597612623144 0 2.0958597612623144 9.4187485431506861 0 0 0 0 73.821904202131208 7.9746273473033291 0 7.9746273473033291 8.976426412043903 0 0 0 0 84.646325893590983 10.582446214004831 0 10.582446214004831 6.383292179407313 0 0 0 0 74.724540714305704 3.1806138434751041 0 3.1806138434751041 8.3554376507492201 0 0 0 0 86.277456196786488 6.1414567513103213 0 6.1414567513103213 7.4328823988926338 0 0 0 0 77.700061823075757 4.2702193074349193 0 4.2702193074349193 8.136441342139058 0 0 0 0 77.715262447493842 2.1808959047938394 0 2.1808959047938394 10.218059150928024 0 0 0 0 78.642372378748519 0.0061315199619595973 0 0.0061315199619595973 10.647452480333563 0 0 0 0 87.193404678367187 2.0307812440454072 0 2.0307812440454072 7.6321764256532347 0 0 0 0 78.642357846391747 -0.0057678697221064112 0 -0.0057678697221064112 8.13294993389135 0 0 0 0 87.188728812262525 2.5696986176108041 0 2.5696986176108041 4.1124550039534427 0 0 0 0 48.715971141113641 4.098155515920693 0 4.098155515920693 0.35521132929710397 0 0 0 0 97.431942282227055 4.9245059259963551 0 4.9245059259963551 3.4577147315452557 0 0 0 0 60.425619283301671 -0.12481658763047054 0 -0.12481658763047054 -3.2566057970203577 0 0 0 0 55.742202552817275 1.7730543746682939 0 1.7730543746682939 -0.047369817557665783 0 0 0 0 56.110075295058266 2.4421398120060465 0 2.4421398120060465 -2.174607255243771 0 0 0 0 59.232003699587949 2.4574058368249858 0 2.4574058368249858 -2.3010862842544562 0 0 0 0 61.020630197154503 3.6770584841147729 0 3.6770584841147729 -3.5338674210013767 0 0 0 0 56.774104446754166 6.5568853100221522 0 6.5568853100221522 -0.41382845560498893 0 0 0 0 60.375837381945871 6.231477996792858 0 6.231477996792858 -2.4850617881177524 0 0 0 0 62.073751405752205 10.57599208369481 0 10.57599208369481 -1.0350514807800639 0 0 0 0 65.664421525935779 3.2210540359943165 0 3.2210540359943165 -3.6899693641529581 0 0 0 0 86.218278064023224 7.7693584148753922 0 7.7693584148753922 3.9963664365281204 0 0 0 0 50.793279530091922 7.2815419780849835 0 7.2815419780849835 -0.080589486528593213 0 0 0 0 101.58655906018362 10.525869476456016 0 10.525869476456016 2.416031662418721 0 0 0 0 83.536068693862717 14.730035892918998 0 14.730035892918998 4.4057425891636957 0 0 0 0 83.284608701733077 25.549244402027096 0 25.549244402027096 5.3751540050486293 0 0 0 0 109.12269698396335 14.802398509678083 0 14.802398509678083 1.0307575075163831 0 0 0 0 54.561348491981633 9.544257105682302 0 9.544257105682302 0.7267020900520631 0 0 0 0 61.031960970886416 15.000529620567193 0 15.000529620567193 2.6875770025243115 0 0 0 0 67.276953326961916 4.5049707300042341 0 4.5049707300042341 -1.7484075448318572 0 0 0 0 63.113923626819428 14.517668732491064 0 14.517668732491064 2.1209502088320384 0 0 0 0 69.789402463616739 6.2804347109525409 0 6.2804347109525409 -2.6964184373695783 0 0 0 0 85.071775611223075 25.469614707144828 0 25.469614707144828 4.2419004176640769 0 0 0 0 76.08382979582791 6.2208733336214737 0 6.2208733336214737 -3.4968150896637127 0 0 0 0 71.564256992887749 7.3605864351110188 0 7.3605864351110188 6.1138213234929975 0 0 0 0 87.630570271350507 12.882417757480205 0 12.882417757480205 3.6981843987719949 0 0 0 0 86.457032976727987 16.22422262035829 0 16.22422262035829 2.9772676286105728 0 0 0 0 77.911624483246896 7.3312708367604991 0 7.3312708367604991 4.8359605589514079 0 0 0 0 54.855798569235503 10.900433954369099 0 10.900433954369099 0.66354807177915109 0 0 0 0 60.164467522521136 12.715832827704221 0 12.715832827704221 -1.3766429189638756 0 0 0 0 109.71159713847101 15.576766242174291 0 15.576766242174291 -0.61222417964254561 0 0 0 0 101.38843506614148 12.865244087343012 0 12.865244087343012 0.43029816012675504 0 0 0 0 50.694217533070969 10.220332373616348 0 10.220332373616348 -0.62237426235698745 0 0 0 0 61.328914118463103 7.0488873125075884 0 7.0488873125075884 -2.9572942476341177 0 0 0 0 58.829215958885129 7.3983296785145694 0 7.3983296785145694 -1.9006975631302372 0 0 0 0 67.291073372590631 7.348114765152002 0 7.348114765152002 -2.2175016131870269 0 0 0 0 66.090854651055906 3.0880639504008971 0 3.0880639504008971 -1.7341894762910832 0 0 0 0 60.670517636857426 3.2454286208858827 0 3.2454286208858827 -2.3667327834886809 0 0 0 0 62.081211651805461 1.6098964844682848 0 1.6098964844682848 -2.558193902680669 0 0 0 0 65.520885479325443 1.4322738187980006 0 1.4322738187980006 -1.4591213073659612 0 0 0 0 62.608585289096141 0.72642908980459442 0 0.72642908980459442 -1.629697169228407 0 0 0 0 62.946542240301483 4.1709620601688142 0 4.1709620601688142 -2.096802969566995 0 0 0 0 63.753164672651167 2.2205703938996284 0 2.2205703938996284 -0.34503841397596147 0 0 0 0 63.535362019866739 -0.012572524171772174 0 -0.012572524171772174 0.011588665283974202 0 0 0 0 64.430242071943781 1.5953333236442813 0 1.5953333236442813 5.5106369160641702 0 0 0 0 67.785960414270335 -0.041486890095140457 0 -0.041486890095140457 0.023177330567948413 0 0 0 0 68.740901862519195 2.3079016850599419 0 2.3079016850599419 -0.69007682795192227 0 0 0 0 71.735226250397091 7.1196030144607763 0 7.1196030144607763 -0.075270588209716549 0 0 0 0 66.162871769492995 1.4415917686508986 0 1.4415917686508986 5.9219728701179841 0 0 0 0 68.706404322935441 6.2870176061897345 0 6.2870176061897345 8.9375883083592029 0 0 0 0 63.757348694352004 5.5903230607011336 0 5.5903230607011336 -0.037635294104860995 0 0 0 0 59.670645159308265 -11.513771575341966 0 -11.513771575341966 4.4023753772510075 0 0 0 0 58.557712754468753 -8.3842471713895144 0 -8.3842471713895144 0.20876705454363353 0 0 0 0 50.001226230519592 -7.3785906609937122 0 -7.3785906609937122 3.440263220412723 0 0 0 0 56.221985142399944 -6.4313501855409587 0 -6.4313501855409587 3.300545011958643 0 0 0 0 50.002228796087977 -3.5717977402552603 0 -3.5717977402552603 2.9725353825399248 0 0 0 0 55.92889244837022 -1.808374102520022 0 -1.808374102520022 2.7699107132204626 0 0 0 0 56.37238450234068 -2.412701570260801 0 -2.412701570260801 0.32320855722123643 0 0 0 0 58.266003520569569 -3.2616898395277452 0 -3.2616898395277452 0.49935586382261876 0 0 0 0 60.112345366169507 -0.298931243811148 0 -0.298931243811148 -1.1112113607960821 0 0 0 0 62.076914645915565 -1.6050433573103129 0 -1.6050433573103129 -2.4804141181108008 0 0 0 0 64.019077412485217 -0.22108533253977042 0 -0.22108533253977042 -3.4927684988572483 0 0 0 0 63.610910269304327 -2.1595130480958429 0 -2.1595130480958429 -2.4797134341614662 0 0 0 0 64.236865481669895 -2.5271307264059226 0 -2.5271307264059226 -3.1520354758529647 0 0 0 0 60.328886162256822 -4.6056609622656968 0 -4.6056609622656968 -1.1128233992540604 0 0 0 0 63.979371235884742 -5.3974602556231552 0 -5.3974602556231552 -0.97532372581585902 0 0 0 0 64.039473715536872 -5.1908545989585679 0 -5.1908545989585679 -2.0087474888398571 0 0 0 0 66.935865955518068 -2.9537356968990172 0 -2.9537356968990172 -3.1508899797756063 0 0 0 0 66.44474619200912 -2.5371207547935715 0 -2.5371207547935715 -3.0921782384524472 0 0 0 0 68.161117041218347 -1.2683653226093479 0 -1.2683653226093479 -4.1488764981323563 0 0 0 0 65.61579617458483 -0.80927127814140332 0 -0.80927127814140332 -4.14441939865746 0 0 0 0 66.060891068481965 -1.2082569141366302 0 -1.2082569141366302 -4.1148725902247829 0 0 0 0 64.758800147732245 -0.67958323589446223 0 -0.67958323589446223 -4.1163664516183598 0 0 0 0 65.438608894213189 -0.2478802836133096 0 -0.2478802836133096 -4.6566962498140025 0 0 0 0 66.358756593038038 -0.34038425904957226 0 -0.34038425904957226 -4.7536146649925994 0 0 0 0 64.918801459519955 0.22007051833085756 0 0.22007051833085756 -4.7463368750267581 0 0 0 0 64.370695276305923 -0.25234643938251899 0 -0.25234643938251899 -4.6926738656482723 0 0 0 0 62.221521482477499 1.3607508970140723 0 1.3607508970140723 -4.307803115487344 0 0 0 0 64.37241652144553 0.7805747751392218 0 0.7805747751392218 -4.3026096707967501 0 0 0 0 64.654938469727654 1.0299390526681997 0 1.0299390526681997 -4.3280341577852548 0 0 0 0 66.73672742864261 -0.19419181000349139 0 -0.19419181000349139 -3.5402893740939381 0 0 0 0 67.766296212227985 0.49916279477469283 0 0.49916279477469283 -4.3566362378299104 0 0 0 0 64.953842749250668 2.6002286040845055 0 2.6002286040845055 -3.4295872747015137 0 0 0 0 70.284262016941625 2.3149669724762396 0 2.3149669724762396 -3.4776895754634882 0 0 0 0 68.41583722569851 0.90271261494637889 0 0.90271261494637889 -2.3763079822519768 0 0 0 0 70.376778131544825 -0.54295530464472486 0 -0.54295530464472486 -3.5286985421432036 0 0 0 0 74.260553368647606 1.2865146322537488 0 1.2865146322537488 -4.7526159645039501 0 0 0 0 70.224161130986658 2.9467355144859146 0 2.9467355144859146 2.7402447974102566 0 0 0 0 79.638501796312653 6.3052165315655841 0 6.3052165315655841 2.7048924293482948 0 0 0 0 73.96163991713297 2.2729281396203351 0 2.2729281396203351 4.3462655936972263 0 0 0 0 77.056302191563191 0.76143959117843296 0 0.76143959117843296 0.98481473992140955 0 0 0 0 70.135990947465302 -0.40845464210155558 0 -0.40845464210155558 0.97336029474104402 0 0 0 0 73.38682954471858 -1.6564748663954796 0 -1.6564748663954796 3.6173313027065248 0 0 0 0 77.051555147453655 -3.9876768870442869 0 -3.9876768870442869 0.67868069814049647 0 0 0 0 70.051256908678283 -3.4238986876488311 0 -3.4238986876488311 0.68300235565533685 0 0 0 0 73.760996962916806 -1.8375761912247999 0 -1.8375761912247999 -4.9510354850681608 0 0 0 0 68.675057832621803 -1.7616057017881492 0 -1.7616057017881492 -2.4755177425340804 0 0 0 0 70.042813687222861 -2.8016218265854196 0 -2.8016218265854196 -3.1065390653930671 0 0 0 0 68.9576381804942 -5.6754528975665224 0 -5.6754528975665224 -1.9806109451654419 0 0 0 0 67.795347347514337 -4.5939509614812701 0 -4.5939509614812701 -2.0846036398399161 0 0 0 0 65.636438912247286 -8.5213068654555908 0 -8.5213068654555908 -0.76587762178784402 0 0 0 0 74.66417110047712 -11.197561148261252 0 -11.197561148261252 -1.5317552435756898 0 0 0 0 73.899070293527757 -5.3965943344416196 0 -5.3965943344416196 -4.1692072796798332 0 0 0 0 69.518450523562251 -7.3885821782985666 0 -7.3885821782985666 1.7470509329048713 0 0 0 0 79.533451280377108 -9.8377587640881945 0 -9.8377587640881945 1.6491665827600765 0 0 0 0 74.272862927787287 -5.7148175724500812 0 -5.7148175724500812 3.1882899279265251 0 0 0 0 77.548669833418217 -11.527533757993037 0 -11.527533757993037 2.3194975331610621 0 0 0 0 86.831566701391239 -17.443698278086735 0 -17.443698278086735 2.3523609597095057 0 0 0 0 69.325345716519905 -13.700729711518314 0 -13.700729711518314 3.7238714735537055 0 0 0 0 100.00511869027241 -17.951257889144024 0 -17.951257889144024 -2.9938403915596647 0 0 0 0 85.11359629067033 -21.877206893533671 0 -21.877206893533671 -1.4568748140144643 0 0 0 0 99.930357145269454 -25.694713858732047 0 -25.694713858732047 -0.64733530995877708 0 0 0 0 80.488058003933475 -30.096363878376668 0 -30.096363878376668 9.9916637920878557 0 0 0 0 66.722193987142873 -9.7785108501015152 0 -9.7785108501015152 0.44577408107491845 0 0 0 0 60.259097492074147 -17.774546474992384 0 -17.774546474992384 4.9958318960439305 0 0 0 0 50.033872077534667 -12.609633570340639 0 -12.609633570340639 4.8912315012798446 0 0 0 0 95.361621818271033 -7.6461427003220086 0 -7.6461427003220086 -2.3435179005902329 0 0 0 0 94.239962589297647 -5.477602700071377 0 -5.477602700071377 -0.37312170388160548 0 0 0 0 99.995355291581518 -8.8247135229472118 0 -8.8247135229472118 -2.5175465643137755 0 0 0 0 99.994979260296404 -13.037103173273326 0 -13.037103173273326 -3.1483622923316017 0 0 0 0 93.296680040447882 -10.919650453775541 0 -10.919650453775541 -2.7924178175199068 0 0 0 0 91.805904960325506 -16.225040361052706 0 -16.225040361052706 -3.0494098728835946 0 0 0 0 88.718892017403846 -11.200424668158909 0 -11.200424668158909 -0.25778643413486702 0 0 0 0 93.275357926900995 -10.66613624535043 0 -10.66613624535043 -0.20690985544671125 0 0 0 0 86.517843963792984 -12.265327124542999 0 -12.265327124542999 2.1059954012738253 0 0 0 0 80.692492057797267 -7.4439133477940951 0 -7.4439133477940951 2.828166671077732 0 0 0 0 81.835102407980457 -6.3389861962537513 0 -6.3389861962537513 3.1830205661645299 0 0 0 0 87.368201929243241 -7.5067023473220997 0 -7.5067023473220997 2.8258003274969434 0 0 0 0 83.098422164471344 -4.1139917765607912 0 -4.1139917765607912 3.3200343128902308 0 0 0 0 88.062159316696807 -7.3129466601013489 0 -7.3129466601013489 1.0528882519885996 0 0 0 0 91.647225172269827 -6.8564103892724564 0 -6.8564103892724564 1.0344870817729896 0 0 0 0 88.289017956427074 -3.9347566663874214 0 -3.9347566663874214 1.9956553464049431 0 0 0 0 87.958625827438482 -3.8176019807092914 0 -3.8176019807092914 3.3157908001744589 0 0 0 0 85.212816445284716 -1.4915696555908691 0 -1.4915696555908691 3.3935860250758925 0 0 0 0 86.338465530969529 -0.22671822503395211 0 -0.22671822503395211 4.3973998562950083 0 0 0 0 81.265250121120744 -0.59496563388285195 0 -0.59496563388285195 4.4041791719602994 0 0 0 0 84.127556074004247 -2.9715536174149446 0 -2.9715536174149446 4.1917998606423401 0 0 0 0 77.814263697579008 -3.1404033707092847 0 -3.1404033707092847 4.1945659907464332 0 0 0 0 80.352145574002861 -1.197081017290597 0 -1.197081017290597 3.6178991107810052 0 0 0 0 83.822857256083125 1.7127243275251853 0 1.7127243275251853 4.7813633301690048 0 0 0 0 77.466652094478832 1.0187121240055279 0 1.0187121240055279 4.8067849781127174 0 0 0 0 81.64285186472307 3.8991711225306123 0 3.8991711225306123 4.2616504830588369 0 0 0 0 80.410744544105228 4.9185901134859584 0 4.9185901134859584 4.632019827877965 0 0 0 0 86.303344077871543 6.1648724883001487 0 6.1648724883001487 4.6485989699641088 0 0 0 0 82.670127443942079 2.7535688328453571 0 2.7535688328453571 4.3934327914642202 0 0 0 0 84.89879660016959 1.1631497035964347 0 1.1631497035964347 3.8302579913202113 0 0 0 0 87.071017072606537 3.2560224314435331 0 3.2560224314435331 4.400648094975506 0 0 0 0 87.244094111050572 3.4580435059973387 0 3.4580435059973387 3.2993773401728159 0 0 0 0 89.750075579243003 3.7203842424208955 0 3.7203842424208955 3.2968895844690209 0 0 0 0 88.410080880324585 1.4421554452003011 0 1.4421554452003011 3.8333889442984046 0 0 0 0 88.093948141776082 2.0479118557333251 0 2.0479118557333251 2.6836459762880018 0 0 0 0 90.116607533393108 2.1455758100366404 0 2.1455758100366404 2.6875328850534559 0 0 0 0 90.457428349623115 2.2513380749740231 0 2.2513380749740231 1.3548557560889742 0 0 0 0 91.537268117316216 2.4649782574600221 0 2.4649782574600221 1.3753174952883582 0 0 0 0 90.866413103927698 1.1727588885251536 0 1.1727588885251536 1.646452890707178 0 0 0 0 90.950956017489716 1.5528857836217684 0 1.5528857836217684 0.0013292052394424836 0 0 0 0 89.32698586672177 1.1499983511269662 0 1.1499983511269662 1.6479226886421765 0 0 0 0 90.779301049739615 0.63249404772847073 0 0.63249404772847073 0.0010881006683087485 0 0 0 0 91.329884923422469 -0.28089462659091158 0 -0.28089462659091158 1.508406208918087 0 0 0 0 89.770627775326602 -0.11987465387827431 0 -0.11987465387827431 1.5150442808318292 0 0 0 0 89.884344294694984 0.33503671142862373 0 0.33503671142862373 2.7852905570045521 0 0 0 0 87.385343183371333 0.2501952797757242 0 0.2501952797757242 2.7861586386247073 0 0 0 0 88.893499881341995 -1.2497101972913645 0 -1.2497101972913645 3.3906342012686528 0 0 0 0 88.921176632585457 -1.598577011715588 0 -1.598577011715588 2.1026933219378323 0 0 0 0 91.278922147539106 -3.7022876374816081 0 -3.7022876374816081 1.9750743327218119 0 0 0 0 92.570031331106975 -3.0091896035337906 0 -3.0091896035337906 0.61449561095422967 0 0 0 0 93.770993666775325 -2.8527979282521536 0 -2.8527979282521536 0.55920950462674446 0 0 0 0 91.138276533748467 -1.4933663704338815 0 -1.4933663704338815 2.1001879537538577 0 0 0 0 91.927085493340428 -1.1520573631577082 0 -1.1520573631577082 0.90638180688646708 0 0 0 0 91.867888652033116 -0.20111924531955891 0 -0.20111924531955891 0.0011237483985171819 0 0 0 0 93.033496505436005 -1.5103432816249347 0 -1.5103432816249347 0.93253804524959627 0 0 0 0 94.14100068110497 -0.71843811554833092 0 -0.71843811554833092 0.00024748410720167903 0 0 0 0 96.114616503245998 -1.7269752011588744 0 -1.7269752011588744 -0.30076355635212376 0 0 0 0 95.754932808999456 -1.9629084009775968 0 -1.9629084009775968 -0.20898763037016355 0 0 0 0 99.934721091562778 -1.5685345571922851 0 -1.5685345571922851 -1.2116440023408102 0 0 0 0 96.74150925217748 -0.57718102060730736 0 -0.57718102060730736 -0.0011392361258077644 0 0 0 0 96.462381058836399 -2.4679770794503968 0 -2.4679770794503968 -1.4048762733139224 0 0 0 0 100.01310659977366 -3.4512800450563095 0 -3.4512800450563095 -1.7775188609395085 0 0 0 0 95.449639780411417 -5.1139436745523579 0 -5.1139436745523579 -0.49970755458742611 0 0 0 0 99.994928066014609 -5.7624153931591477 0 -5.7624153931591477 -2.1158642869272599 0 0 0 0 96.034351740026182 -4.3644580063138951 0 -4.3644580063138951 -1.8896697969175651 0 0 0 0 55.092020258873163 2.811551810709529 0 2.811551810709529 -2.766591967611876 0 0 0 0 55.094534908106951 4.7280591968579886 0 4.7280591968579886 -2.152486494342952 0 0 0 0 51.608895546512485 4.0933963773125175 0 4.0933963773125175 -1.7224884815440413 0 0 0 0 55.647681861059709 2.5625852377218319 0 2.5625852377218319 -2.6643264808189535 0 0 0 0 55.649313368352409 0.87264047847437309 0 0.87264047847437309 -2.973292034088221 0 0 0 0 57.189644271581187 1.0960680966618617 0 1.0960680966618617 -3.2271029038836119 0 0 0 0 57.831641840338222 3.3085053805311309 0 3.3085053805311309 -3.1023118613867426 0 0 0 0 57.800820124642925 0.93620312596759769 0 0.93620312596759769 -3.2464124997029402 0 0 0 0 59.505967777993192 1.3993646993695532 0 1.3993646993695532 -3.2799950312272106 0 0 0 0 60.392819278635677 0.82010855354765044 0 0.82010855354765044 -2.9080143106790861 0 0 0 0 60.547217476352813 3.9155119899816997 0 3.9155119899816997 -3.1320157028857971 0 0 0 0 57.530182267993268 3.230815706496136 0 3.230815706496136 -2.9069997452413632 0 0 0 0 57.56450130023503 5.9913336001242934 0 5.9913336001242934 -2.6035597726640596 0 0 0 0 53.309675014372374 5.2129829655420012 0 5.2129829655420012 -2.1186181656870966 0 0 0 0 55.824594686848968 6.2814970636285787 0 6.2814970636285787 -2.3285804574527091 0 0 0 0 56.000045386607212 9.4428918189064284 0 9.4428918189064284 -1.3673597824780082 0 0 0 0 99.393693107842736 9.7789732009718069 0 9.7789732009718069 0.30818040360746224 0 0 0 0 53.328494587289242 7.1934256193057085 0 7.1934256193057085 -1.029723520090096 0 0 0 0 49.696846553921311 8.0469902152065735 0 8.0469902152065735 -0.82036905582701358 0 0 0 0 86.202027295295011 9.6295603962249015 0 9.6295603962249015 4.4045698353580409 0 0 0 0 91.38814335851248 12.174436099914711 0 12.174436099914711 1.664833359884744 0 0 0 0 88.622721393638813 7.8871526023440008 0 7.8871526023440008 2.8637533790174707 0 0 0 0 92.398388959276872 7.5919102148377151 0 7.5919102148377151 1.3418776687021197 0 0 0 0 91.617041593366594 8.8592647183015849 0 8.8592647183015849 2.647643882216002 0 0 0 0 87.505702445658585 5.5633801324306091 0 5.5633801324306091 3.2189439731374065 0 0 0 0 92.782656779898616 5.9943494476911967 0 5.9943494476911967 1.1064254810289977 0 0 0 0 92.233224596519449 4.7402047774770057 0 4.7402047774770057 1.8198232295351549 0 0 0 0 89.773453566863736 5.9125029509908522 0 5.9125029509908522 3.2347258139537018 0 0 0 0 48.382322633675813 6.1479619571345232 0 6.1479619571345232 -0.58819698911739948 0 0 0 0 96.764645267351625 6.8828903303742575 0 6.8828903303742575 0.80081072484287308 0 0 0 0 51.608895546512485 5.2331152518042527 0 5.2331152518042527 -0.60734731021702482 0 0 0 0 48.148231207105596 4.4761587041094515 0 4.4761587041094515 -0.32785066356768633 0 0 0 0 50.425467938837755 3.759068591410756 0 3.759068591410756 -0.25890523494531337 0 0 0 0 96.296462414211419 4.9487083568973809 0 4.9487083568973809 0.73188780398184861 0 0 0 0 95.183415086662308 3.7632619750197516 0 3.7632619750197516 0.61315312767429875 0 0 0 0 47.591707543331154 3.2143749845445173 0 3.2143749845445173 0.045986321180604639 0 0 0 0 90.597918889201651 3.3087633842977389 0 3.3087633842977389 1.9226937901808219 0 0 0 0 93.074060869587811 3.8465844784051209 0 3.8465844784051209 0.86362117276199779 0 0 0 0 92.409073317568982 4.8848995571005593 0 4.8848995571005593 1.8720246181561493 0 0 0 0 91.523189528226339 3.4333082059025224 0 3.4333082059025224 1.9389080819137465 0 0 0 0 92.982857006225686 3.0895842050011346 0 3.0895842050011346 0.75570087784117312 0 0 0 0 92.939766582931725 2.9770864785112501 0 2.9770864785112501 0.69626335312156407 0 0 0 0 93.316989666020504 2.6786949911489981 0 2.6786949911489981 0.001016571915210371 0 0 0 0 92.874679723202917 3.1457962333617884 0 3.1457962333617884 0.75017427848085949 0 0 0 0 92.140556255300453 2.3145119877612115 0 2.3145119877612115 0.0002962922781693262 0 0 0 0 49.568521498273299 2.6215571392503194 0 2.6215571392503194 -0.01065105147777512 0 0 0 0 94.275374926895893 3.3524367736961289 0 3.3524367736961289 0.39011487613362633 0 0 0 0 47.137687463447946 2.4330290037480617 0 2.4330290037480617 0.17700678296127142 0 0 0 0 49.12666786449654 1.5269425408131425 0 1.5269425408131425 0.00019930778291474293 0 0 0 0 49.771037199914133 2.3168338488245008 0 2.3168338488245008 -0.49339251756352498 0 0 0 0 50.92277004745165 1.2746853909269633 0 1.2746853909269633 -0.0010062828109031804 0 0 0 0 51.382275653486317 1.5813689018034751 0 1.5813689018034751 -0.90238686117805345 0 0 0 0 49.692781194140991 2.0922331497707347 0 2.0922331497707347 -0.39947637589646678 0 0 0 0 51.817154024547563 2.5348028507833611 0 2.5348028507833611 -1.0770322311890337 0 0 0 0 51.987277958616005 1.7303375207600342 0 1.7303375207600342 -1.4834043209070038 0 0 0 0 53.322948795729623 2.2419290850998697 0 2.2419290850998697 -2.2617333032973108 0 0 0 0 53.252370133628801 3.4979726536709421 0 3.4979726536709421 -1.5826537434015404 0 0 0 0 50.497423692530823 2.9883118525882688 0 2.9883118525882688 -1.1894380797243302 0 0 0 0 55.247181826617187 0.77737916247741412 0 0.77737916247741412 -2.7290666083365864 0 0 0 0 54.026426524591784 0.75460668331114467 0 0.75460668331114467 -2.31449053883314 0 0 0 0 53.935187281777303 1.8453267698516447 0 1.8453267698516447 -2.0086297077336712 0 0 0 0 53.777559210674099 0.47399943491112917 0 0.47399943491112917 -1.9403114321354138 0 0 0 0 52.794078731966465 0.70163113263852794 0 0.70163113263852794 -1.2501193851855867 0 0 0 0 52.755044146206274 1.2418775718608521 0 1.2418775718608521 -1.1730353295976501 0 0 0 0 52.192138822757443 0.71322456841397464 0 0.71322456841397464 -0.00026742982942189381 0 0 0 0 52.665913620543847 0.012370035580633059 0 0.012370035580633059 -0.0015737802452222686 0 0 0 0 52.464257670054394 0.50018742435560171 0 0.50018742435560171 -1.1248334820487107 0 0 0 0 52.457185759807771 -0.49798840505542508 0 -0.49798840505542508 -1.1476365878206942 0 0 0 0 52.194019743283661 -0.73092717027566834 0 -0.73092717027566834 -0.00023059266639854047 0 0 0 0 52.725982495800054 -1.2095753336966473 0 -1.2095753336966473 -1.2261975637019455 0 0 0 0 52.978404062006575 -0.62466862174276838 0 -0.62466862174276838 -1.2317763473057051 0 0 0 0 49.781122982659099 -2.2955307715246285 0 -2.2955307715246285 -0.51697763111677775 0 0 0 0 51.007093238415791 -1.2449336828047901 0 -1.2449336828047901 -0.0010769110711411898 0 0 0 0 51.407329887138076 -1.5954046133658615 0 -1.5954046133658615 -0.90731826053531117 0 0 0 0 49.768230457099889 -2.081265098594939 0 -2.081265098594939 -0.4289606136819144 0 0 0 0 51.973717712319441 -2.4828364593481895 0 -2.4828364593481895 -1.1155828161448116 0 0 0 0 52.147585907481513 -1.6560950020878649 0 -1.6560950020878649 -1.5442502151592972 0 0 0 0 53.372796042968503 -2.1543212219354477 0 -2.1543212219354477 -2.3004900757228444 0 0 0 0 50.550537931938266 -2.9643172779533873 0 -2.9643172779533873 -1.2332158400577211 0 0 0 0 53.370372169216786 -3.450983428122874 0 -3.450983428122874 -1.598566947602114 0 0 0 0 53.742270602171324 -0.38119251344254651 0 -0.38119251344254651 -1.9584165652133139 0 0 0 0 54.097618141030352 -1.7202546172135997 0 -1.7202546172135997 -2.0422091338657058 0 0 0 0 55.26132936484494 -0.64539344899330464 0 -0.64539344899330464 -2.7270984391364324 0 0 0 0 54.044407179012296 -0.6285627182313529 0 -0.6285627182313529 -2.3365568014051279 0 0 0 0 55.70527967123212 -0.7424314158185199 0 -0.7424314158185199 -2.9886265245084918 0 0 0 0 57.191990488031649 -0.94673058250192321 0 -0.94673058250192321 -3.2342486300849833 0 0 0 0 55.710722323492156 -2.4493664218216096 0 -2.4493664218216096 -2.6841589650676729 0 0 0 0 51.65157122253072 -4.0488706454767334 0 -4.0488706454767334 -1.7359900596745428 0 0 0 0 55.111037440093035 -4.6575561604987916 0 -4.6575561604987916 -2.176927463302575 0 0 0 0 55.250718396713523 -2.6788845265613133 0 -2.6788845265613133 -2.7967131535933563 0 0 0 0 57.669377744213804 -3.045236875522308 0 -3.045236875522308 -2.9310830170033269 0 0 0 0 57.685950520309575 -5.8078981965510987 0 -5.8078981965510987 -2.6547293998051611 0 0 0 0 53.543353196294106 -5.0730752182942895 0 -5.0730752182942895 -2.1673008263985052 0 0 0 0 56.004188961708792 -6.0495624176133429 0 -6.0495624176133429 -2.3898577243250685 0 0 0 0 60.511640854221355 -3.7002252081285354 0 -3.7002252081285354 -3.0957995346138367 0 0 0 0 60.521848892725302 -0.62346711680084221 0 -0.62346711680084221 -2.9585648482081055 0 0 0 0 59.506726469817323 -1.2106062496647039 0 -1.2106062496647039 -3.2981585369799014 0 0 0 0 57.913909136072903 -0.77383657185298782 0 -0.77383657185298782 -3.2732453965382531 0 0 0 0 57.873749100554846 -3.1558754500865431 0 -3.1558754500865431 -3.125300790451373 0 0 0 0 91.55324438385469 -8.6306512403419191 0 -8.6306512403419191 2.7444325005515626 0 0 0 0 92.088268567401201 -7.6582623877447569 0 -7.6582623877447569 1.3359245750451016 0 0 0 0 85.756488962060871 -9.3750721832564814 0 -9.3750721832564814 4.4572067716502541 0 0 0 0 88.406084884222537 -7.6993423371967147 0 -7.6993423371967147 2.9191049509610258 0 0 0 0 91.047506526755569 -12.127018113608544 0 -12.127018113608544 1.6650729946205267 0 0 0 0 56.234437272974105 -9.3499229012441845 0 -9.3499229012441845 -1.3763391583488653 0 0 0 0 49.704681121451245 -8.0107561703451182 0 -8.0107561703451182 -0.86625701287858625 0 0 0 0 53.369671362193458 -7.1793366492661788 0 -7.1793366492661788 -1.0439505964341929 0 0 0 0 99.409362242902489 -9.7058280975460605 0 -9.7058280975460605 0.44516570230171482 0 0 0 0 96.754830478693975 -6.9116419924130588 0 -6.9116419924130588 0.7862001901750979 0 0 0 0 48.377415239346988 -6.1455382307633677 0 -6.1455382307633677 -0.58748311951445231 0 0 0 0 51.655497243404852 -5.2266804996975207 0 -5.2266804996975207 -0.60915628926818677 0 0 0 0 92.098323999895911 -4.7472667831201489 0 -4.7472667831201489 1.8358770024369804 0 0 0 0 92.75938353593483 -6.0007010601547419 0 -6.0007010601547419 1.0650335900073777 0 0 0 0 87.020056881199025 -5.5065934531770697 0 -5.5065934531770697 3.2776283977759686 0 0 0 0 89.801153704144554 -5.8420869172653109 0 -5.8420869172653109 3.2882221181647466 0 0 0 0 90.611929191967761 -3.3287045257131451 0 -3.3287045257131451 1.9412834210561378 0 0 0 0 92.435860125678118 -4.9037211549623114 0 -4.9037211549623114 1.8685115529294591 0 0 0 0 93.124570026935885 -3.8403076807047363 0 -3.8403076807047363 0.89007805565851683 0 0 0 0 91.469180421814144 -3.432956657798476 0 -3.432956657798476 1.9539562286027836 0 0 0 0 48.164517522437222 -4.4705321347078666 0 -4.4705321347078666 -0.34010436136973521 0 0 0 0 50.518797334410237 -3.74142780983248 0 -3.74142780983248 -0.279818515467956 0 0 0 0 96.329035044874445 -5.1136040112563688 0 -5.1136040112563688 0.71604005862698461 0 0 0 0 95.206955456770402 -3.8031278813659699 0 -3.8031278813659699 0.63815306718797471 0 0 0 0 47.603477728385201 -3.2145969663040939 0 -3.2145969663040939 0.022969617706351864 0 0 0 0 49.587947366734568 -2.6354499845393264 0 -2.6354499845393264 -0.02122509461630262 0 0 0 0 94.269724175676203 -3.3550165138591881 0 -3.3550165138591881 0.39707626764852932 0 0 0 0 47.134862087838201 -2.4444498878308378 0 -2.4444498878308378 0.16760424006497063 0 0 0 0 49.145980359654232 -1.5225687268311323 0 -1.5225687268311323 0.00024829024852437791 0 0 0 0 92.937225800091483 -2.9896960187428059 0 -2.9896960187428059 0.70365834500271962 0 0 0 0 92.976767383890547 -3.0916479095464107 0 -3.0916479095464107 0.76309883122246358 0 0 0 0 93.307751209435082 -2.6759712873888648 0 -2.6759712873888648 0.00095878094958726495 0 0 0 0 92.857863091697709 -3.1506981079641254 0 -3.1506981079641254 0.76501382013066976 0 0 0 0 92.106121461368957 -2.3029999519293649 0 -2.3029999519293649 0.00036023912183618875 0 0 0 0 91.539829138683444 -2.4774527714301819 0 -2.4774527714301819 1.3920105206832489 0 0 0 0 90.406365029699373 -2.250302790989573 0 -2.250302790989573 1.3778730057915198 0 0 0 0 89.322826429134238 -1.1539293619841193 0 -1.1539293619841193 1.6478850201936222 0 0 0 0 90.860115183277685 -1.1821786623242265 0 -1.1821786623242265 1.6447505346940563 0 0 0 0 90.942542631137258 -1.552898844680437 0 -1.552898844680437 0.0012846699733182752 0 0 0 0 90.771788239718262 -0.63427041444970644 0 -0.63427041444970644 0.001152811511683763 0 0 0 0 91.332884248444316 0.27983241939264986 0 0.27983241939264986 1.4773729273790204 0 0 0 0 89.825683998313934 0.11531147853057638 0 0.11531147853057638 1.4738508197037232 0 0 0 0 89.905015072176184 -0.32366234608503386 0 -0.32366234608503386 2.7516032112764086 0 0 0 0 88.946185444317507 1.273704572198195 0 1.273704572198195 3.3795834140600354 0 0 0 0 87.472034383868959 -0.26609726084011331 0 -0.26609726084011331 2.7644122583735173 0 0 0 0 88.398283723092391 -1.3753364753104225 0 -1.3753364753104225 3.8219578382845052 0 0 0 0 88.005663860093136 -2.0384054250174493 0 -2.0384054250174493 2.7042880551095934 0 0 0 0 89.699564501215491 -3.719446683213977 0 -3.719446683213977 3.3310618995379446 0 0 0 0 90.104103511884432 -2.1418603380448538 0 -2.1418603380448538 2.7035792441309741 0 0 0 0 96.507808067401129 2.4499832180905718 0 2.4499832180905718 -1.4226158844533621 0 0 0 0 99.934664964439335 1.5479720022332148 0 1.5479720022332148 -1.226757975063872 0 0 0 0 96.782508863957446 0.58471876034973125 0 0.58471876034973125 -0.0011083583453713446 0 0 0 0 95.807872821279034 1.9338997964938571 0 1.9338997964938571 -0.23648499081364815 0 0 0 0 96.15549462151148 1.6705079490160744 0 1.6705079490160744 -0.30267307926540643 0 0 0 0 94.222101348513206 0.74146427836960005 0 0.74146427836960005 0.00025543634011784681 0 0 0 0 93.04090311556115 1.4707880271316702 0 1.4707880271316702 0.89313018272013456 0 0 0 0 91.93383066489514 0.21986058339135087 0 0.21986058339135087 0.0010533504514391777 0 0 0 0 92.104232322699318 1.1294539963110273 0 1.1294539963110273 0.86006873193979838 0 0 0 0 91.26047465015904 1.4777629858382533 0 1.4777629858382533 2.0436386273271405 0 0 0 0 89.022786910992181 1.5665848362405801 0 1.5665848362405801 2.0472134925698073 0 0 0 0 91.43664267224608 3.6926086433235894 0 3.6926086433235894 1.9226859588386489 0 0 0 0 92.700329450995241 2.9218574036428024 0 2.9218574036428024 0.54375803732737071 0 0 0 0 93.897968878881329 2.7989166021812655 0 2.7989166021812655 0.50336316907911094 0 0 0 0 95.581515173569414 5.0904442807712647 0 5.0904442807712647 -0.49251589133867957 0 0 0 0 96.062193336679229 4.3571462347142198 0 4.3571462347142198 -1.886598074223512 0 0 0 0 99.994877424396464 5.8636527442265507 0 5.8636527442265507 -2.0979015967108054 0 0 0 0 100.01322912234627 3.3585504232155912 0 3.3585504232155912 -1.7744983695157621 0 0 0 0 99.995174337851722 8.8165396310247548 0 8.8165396310247548 -2.5136111121430265 0 0 0 0 95.370107513947232 7.6401729896611741 0 7.6401729896611741 -2.3257350590885775 0 0 0 0 94.233523433145365 5.4880316755251179 0 5.4880316755251179 -0.4291229944751167 0 0 0 0 88.297690152407768 7.3310932816872691 0 7.3310932816872691 1.0101098808735409 0 0 0 0 91.723522626296699 6.9301296301625559 0 6.9301296301625559 0.98921099475350061 0 0 0 0 88.49964711469363 3.9057446700226732 0 3.9057446700226732 1.9553934746256401 0 0 0 0 87.946470271791213 3.9278226379622048 0 3.9278226379622048 3.2979481818684144 0 0 0 0 83.097271700469605 4.2280122835754845 0 4.2280122835754845 3.3039773738085474 0 0 0 0 81.79269539718257 6.4354172053722243 0 6.4354172053722243 3.1035244920948117 0 0 0 0 80.509188129381073 7.6730222132221453 0 7.6730222132221453 2.7641248589211846 0 0 0 0 86.653552476817708 12.538880503405458 0 12.538880503405458 2.1078722841076662 0 0 0 0 87.406666994624175 7.7154809749545699 0 7.7154809749545699 2.7591387107008871 0 0 0 0 93.258252614750972 11.008333273232729 0 11.008333273232729 -0.36137989503742363 0 0 0 0 88.825685869146582 11.513685068717164 0 11.513685068717164 -0.39911668780429377 0 0 0 0 92.118496612190029 16.322831773499004 0 16.322831773499004 -3.1519093340639639 0 0 0 0 99.995051560816592 13.2205965747848 0 13.2205965747848 -3.2819661188225053 0 0 0 0 93.50650916593861 10.882565085883886 0 10.882565085883886 -2.8232436044016405 0 0 0 0 82.536035146517406 -2.663877308447824 0 -2.663877308447824 4.4115552163801004 0 0 0 0 87.035589746463302 -3.4595632254067366 0 -3.4595632254067366 3.3316098221553325 0 0 0 0 84.894728970772121 -1.1389574641561635 0 -1.1389574641561635 3.825981647736822 0 0 0 0 87.025866307405522 -3.1551175954676811 0 -3.1551175954676811 4.4142668342594726 0 0 0 0 86.338724271569731 0.28357854741349642 0 0.28357854741349642 4.3732371480770222 0 0 0 0 85.265990698204178 1.4955971131252341 0 1.4955971131252341 3.3804785400400719 0 0 0 0 81.333788553534077 0.7033707561856497 0 0.7033707561856497 4.3663188609763939 0 0 0 0 84.131225339786511 3.0667856822937218 0 3.0667856822937218 4.1746473009622598 0 0 0 0 77.688562316603338 3.3304904696109814 0 3.3304904696109814 4.1660807714522923 0 0 0 0 80.257284946617233 1.1747862634449395 0 1.1747862634449395 3.5906168241099548 0 0 0 0 81.352234158020906 -3.8154723428913342 0 -3.8154723428913342 4.277710035082678 0 0 0 0 77.578774313552913 -0.67711375497111126 0 -0.67711375497111126 4.7816494573862585 0 0 0 0 83.757057640159587 -1.4955795004633945 0 -1.4955795004633945 4.7995835112001668 0 0 0 0 86.16849996983467 -5.8842710412521129 0 -5.8842710412521129 4.6937046478988247 0 0 0 0 80.232133817974045 -4.6712040932010392 0 -4.6712040932010392 4.7237357465161605 0 0 0 0 79.321716971815704 -6.1039896693585671 0 -6.1039896693585671 2.5207280808625638 0 0 0 0 70.137238407080986 -2.721660546034316 0 -2.721660546034316 2.6491494243356426 0 0 0 0 70.185759630326402 0.47883757137697175 0 0.47883757137697175 0.92978377722393846 0 0 0 0 74.166994863423497 -2.130037000653088 0 -2.130037000653088 4.2903460485227694 0 0 0 0 76.942947168082469 -0.64661912122991261 0 -0.64661912122991261 0.92937664022113964 0 0 0 0 73.344072214693142 1.7779900153085302 0 1.7779900153085302 3.5610669179269996 0 0 0 0 77.071848876685408 3.9205589461560599 0 3.9205589461560599 0.60298530418965424 0 0 0 0 69.977106740173554 3.454188509004426 0 3.454188509004426 0.62301049899996608 0 0 0 0 73.729157589871193 1.9027855912024243 0 1.9027855912024243 -4.9314780193450884 0 0 0 0 70.120887176688029 2.9070330259840862 0 2.9070330259840862 -3.0628382915132057 0 0 0 0 68.66218355184094 1.775496969587163 0 1.775496969587163 -2.4657390096725424 0 0 0 0 68.43502758376826 -0.91788317643289474 0 -0.91788317643289474 -2.380138986426068 0 0 0 0 70.391391403362775 0.57043572695962552 0 0.57043572695962552 -3.527193947326158 0 0 0 0 70.219376768519055 -2.2228089777742097 0 -2.2228089777742097 -3.4944802269987374 0 0 0 0 74.227397831403778 -1.4063533433786621 0 -1.4063533433786621 -4.7602779728521343 0 0 0 0 99.929840290418269 25.777223722733734 0 25.777223722733734 -0.66156147943229715 0 0 0 0 85.320103470806316 21.969592888181509 0 21.969592888181509 -1.4916071155682933 0 0 0 0 100.00548153692921 18.109030170544234 0 18.109030170544234 -3.0770085356156174 0 0 0 0 69.256332870227197 13.580191543389031 0 13.580191543389031 3.5687545248090364 0 0 0 0 86.79050324651655 17.671945203981583 0 17.671945203981583 2.5004096512061302 0 0 0 0 77.45897707917743 11.601785127696987 0 11.601785127696987 2.2537364843190337 0 0 0 0 73.994656449475769 5.8689910686798878 0 5.8689910686798878 3.1323330399900495 0 0 0 0 79.531077558737707 9.8496556070085983 0 9.8496556070085983 1.575218869668267 0 0 0 0 69.330142048843072 7.4949988356401986 0 7.4949988356401986 1.7127416967160731 0 0 0 0 73.93296172227781 5.3702465389298437 0 5.3702465389298437 -4.1790210375940626 0 0 0 0 69.139572082791062 5.8754038325370583 0 5.8754038325370583 -1.8982293918001441 0 0 0 0 67.770025397642826 4.5790491680217924 0 4.5790491680217924 -2.0895105187970326 0 0 0 0 65.646531779478778 8.4882280331096656 0 8.4882280331096656 -0.79368422233417935 0 0 0 0 74.617604355956246 11.018872438477135 0 11.018872438477135 -1.5873684446683605 0 0 0 0 66.801614634876273 9.7865214650497201 0 9.7865214650497201 0.40671792757507585 0 0 0 0 60.180438103769575 17.792919204281208 0 17.792919204281208 5.0175765365812754 0 0 0 0 50.034262053018665 12.684662829845468 0 12.684662829845468 4.9472398384678202 0 0 0 0 80.51126836071694 30.138152411297469 0 30.138152411297469 10.035153073162551 0 0 0 0 50.000669880765486 7.6750770597599649 0 7.6750770597599649 3.5555489596735943 0 0 0 0 56.26946277064576 6.5343389578183571 0 6.5343389578183571 3.3419504307280365 0 0 0 0 59.621272613260658 11.56024528482927 0 11.56024528482927 4.4504839872422082 0 0 0 0 58.639659604477629 8.664797776037318 0 8.664797776037318 0.25607652921352159 0 0 0 0 60.334625346317011 4.892055851290884 0 4.892055851290884 -1.0218804207272327 0 0 0 0 64.065586728100754 5.6481390234861593 0 5.6481390234861593 -0.90226617067503501 0 0 0 0 64.013179797117004 5.3321067009855119 0 5.3321067009855119 -1.9409606970873103 0 0 0 0 67.092927923161994 3.1040988196149399 0 3.1040988196149399 -3.0713987898508108 0 0 0 0 64.248835307669196 2.6368502618371039 0 2.6368502618371039 -3.0861589289528402 0 0 0 0 63.628374772478821 2.2736272829097359 0 2.2736272829097359 -2.3979832771144327 0 0 0 0 63.988359585847661 0.22972268629770576 0 0.22972268629770576 -3.420838219648239 0 0 0 0 61.79563883481552 1.6808744555582005 0 1.6808744555582005 -2.4581371280865838 0 0 0 0 60.062396989621561 0.27937010823666619 0 0.27937010823666619 -1.0298411706003945 0 0 0 0 58.092640972093875 3.4262928357545075 0 3.4262928357545075 0.5450001768904511 0 0 0 0 56.356910207901763 2.6140901938754255 0 2.6140901938754255 0.43822139729858689 0 0 0 0 55.831366035348765 1.7905985704500056 0 1.7905985704500056 2.7520212596418494 0 0 0 0 50.002583804751978 3.6891104566920827 0 3.6891104566920827 2.93998332264005 0 0 0 0 64.696020922355274 -1.0151301662597225 0 -1.0151301662597225 -4.3610985832393228 0 0 0 0 64.968600221974668 -2.5990844912626252 0 -2.5990844912626252 -3.4628188856941584 0 0 0 0 67.715761795885328 -0.42656276595053999 0 -0.42656276595053999 -4.3572303798750438 0 0 0 0 66.759147656745654 0.18649060245626736 0 0.18649060245626736 -3.5471672683579629 0 0 0 0 68.226227930089806 1.3517672376535503 0 1.3517672376535503 -4.0983923270317231 0 0 0 0 66.457987231206516 2.577601613152054 0 2.577601613152054 -3.0698086731499328 0 0 0 0 65.64745376580197 0.80973803979001069 0 0.80973803979001069 -4.1483265095934261 0 0 0 0 66.086656546278107 1.2299020941224477 0 1.2299020941224477 -4.1090445432956546 0 0 0 0 64.721604523139376 0.71278961638097749 0 0.71278961638097749 -4.111091454384769 0 0 0 0 65.43859100804093 0.24981286363294375 0 0.24981286363294375 -4.6432433538975415 0 0 0 0 64.957331545535112 -0.20042936219217866 0 -0.20042936219217866 -4.7419039691843885 0 0 0 0 64.416091075757436 0.26125305720738812 0 0.26125305720738812 -4.7167912041932878 0 0 0 0 66.367280117156895 0.35230785148201127 0 0.35230785148201127 -4.7331145467332743 0 0 0 0 64.431640487908624 -0.79244752121348361 0 -0.79244752121348361 -4.31790010352743 0 0 0 0 62.448274774427432 -1.3262286813761763 0 -1.3262286813761763 -4.3190172993659282 0 0 0 0 60.437811451556968 0.13214460840098408 0 0.13214460840098408 -3.339580599329663 0 0 0 0 56.186139992453917 -2.4403486900280389 0 -2.4403486900280389 -2.1847599877489436 0 0 0 0 55.702035141651123 -1.7266282389828929 0 -1.7266282389828929 0.045170465773569646 0 0 0 0 59.08180660172161 -2.3544035062793673 0 -2.3544035062793673 -2.2468828825073572 0 0 0 0 60.931649495163072 -3.6036476928552794 0 -3.6036476928552794 -3.5391084490336207 0 0 0 0 56.50662018960918 -6.5930603178526539 0 -6.5930603178526539 -0.42237012887991554 0 0 0 0 62.097003694069713 -10.590670562797703 0 -10.590670562797703 -1.0602055505391039 0 0 0 0 60.31048776043383 -6.1149989623321677 0 -6.1149989623321677 -2.4800019721723068 0 0 0 0 65.647397351047175 -3.1983964339841005 0 -3.1983964339841005 -3.7024845950088228 0 0 0 0 83.036160703732776 -14.500238915653513 0 -14.500238915653513 4.4731020551801759 0 0 0 0 101.47057068469751 -10.415191651722033 0 -10.415191651722033 2.5581565688979389 0 0 0 0 50.735285342348902 -7.1978527082116379 0 -7.1978527082116379 -0.091572751952364584 0 0 0 0 85.655210161990226 -7.7209148090484359 0 -7.7209148090484359 4.0854445901663698 0 0 0 0 97.286273781104384 -4.9529847949893844 0 -4.9529847949893844 3.5978239385603388 0 0 0 0 48.643136890552114 -3.7163835242556047 0 -3.7163835242556047 0.43007293043137551 0 0 0 0 86.771141075787227 -2.623489148876077 0 -2.623489148876077 4.1690008671417846 0 0 0 0 86.73749153075596 -1.9454916236587696 0 -1.9454916236587696 7.8143545653581494 0 0 0 0 77.194453538228572 -2.0491143887062817 0 -2.0491143887062817 10.348732313426098 0 0 0 0 77.190231994104579 -4.1956259454328855 0 -4.1956259454328855 8.3264756451693227 0 0 0 0 71.22625697045271 0.0033748337330393452 0 0.0033748337330393452 12.400743379363709 0 0 0 0 72.58958327453297 -0.15222327629662757 0 -0.15222327629662757 12.125914292825792 0 0 0 0 72.58959663058863 -1.3527569263276087 0 -1.3527569263276087 11.059689380595565 0 0 0 0 70.350012756669116 -1.0571149421921693 0 -1.0571149421921693 11.827501346368136 0 0 0 0 70.640767319324368 -0.13043573307341294 0 -0.13043573307341294 10.620629139638764 0 0 0 0 70.64072698301274 -3.7560788048934528 0 -3.7560788048934528 10.498801324983246 0 0 0 0 67.970960375482264 -5.1543143639735156 0 -5.1543143639735156 7.965996309476056 0 0 0 0 69.256759055545444 0.092377361114700296 0 0.092377361114700296 5.9137889833527923 0 0 0 0 67.998686439219455 -1.9298102694269068 0 -1.9298102694269068 9.4337452246020792 0 0 0 0 85.77208150577917 -6.0040213655222363 0 -6.0040213655222363 7.6242081783896403 0 0 0 0 74.417513639166145 -2.9801433771368107 0 -2.9801433771368107 8.3453395930561527 0 0 0 0 73.253173972185778 -7.7902082795977119 0 -7.7902082795977119 9.0853195160875231 0 0 0 0 84.439499731189017 -10.476235994516404 0 -10.476235994516404 6.4037094216090509 0 0 0 0 68.672939176535237 -6.1590725658878549 0 -6.1590725658878549 8.8558446122180925 0 0 0 0 66.308367351815264 -1.1313237915839092 0 -1.1313237915839092 5.7995503550196226 0 0 0 0 71.598540150929296 -7.2949422529731036 0 -7.2949422529731036 -0.014883557028849026 0 0 0 0 63.69923535104499 -5.6317240874580818 0 -5.6317240874580818 -0.007441778514425899 0 0 0 0 64.442257126065442 -1.3622170289665145 0 -1.3622170289665145 5.4899073779066505 0 0 0 0 68.59792977963366 -2.5734482013375319 0 -2.5734482013375319 -0.67162301507106059 0 0 0 0 63.76089878624407 -2.2822324968831076 0 -2.2822324968831076 -0.33581150753553041 0 0 0 0 62.345477894711848 -0.63358035479625796 0 -0.63358035479625796 -1.5654526184713351 0 0 0 0 65.523785578470608 -1.2796442307687339 0 -1.2796442307687339 -1.4377556538222109 0 0 0 0 63.147412344606906 -3.9852767749233382 0 -3.9852767749233382 -2.1387271938639438 0 0 0 0 62.160101068747004 -1.4139479985049976 0 -1.4139479985049976 -2.591880207199706 0 0 0 0 67.277086179505318 -7.3377911112770198 0 -7.3377911112770198 -2.2129288712455115 0 0 0 0 58.685988223770664 -7.2812856392023377 0 -7.2812856392023377 -1.8708156985839892 0 0 0 0 65.916110204112158 -2.921246966283956 0 -2.921246966283956 -1.7555718827551703 0 0 0 0 60.578007902321929 -3.0506101441057396 0 -3.0506101441057396 -2.3676631228835072 0 0 0 0 61.50951422275115 -6.8807293788773878 0 -6.8807293788773878 -2.9845947116837825 0 0 0 0 50.681563916908885 -10.145657425219056 0 -10.145657425219056 -0.68357635094606906 0 0 0 0 54.870498839088555 -10.835519925059515 0 -10.835519925059515 0.62119299198003253 0 0 0 0 60.609633845678445 -12.580355499530802 0 -12.580355499530802 -1.4250135945210136 0 0 0 0 109.74099767817688 -15.498889535785679 0 -15.498889535785679 -0.56186452726389136 0 0 0 0 101.36312783381774 -12.761557447002845 0 -12.761557447002845 0.49026537091405231 0 0 0 0 86.040853868498971 -16.083560255941752 0 -16.083560255941752 3.0413613426762955 0 0 0 0 77.573539635809766 -7.1058059975061623 0 -7.1058059975061623 4.946911268167014 0 0 0 0 87.37833014814214 -12.873908681193871 0 -12.873908681193871 3.7617977358301307 0 0 0 0 71.455906879088388 -6.997892944246602 0 -6.997892944246602 5.6934399947524579 0 0 0 0 85.127110049362159 -25.406515044921353 0 -25.406515044921353 4.2367720832507407 0 0 0 0 75.986638965050588 -6.3871896890050692 0 -6.3871896890050692 -3.507960627994807 0 0 0 0 67.275365600849739 -4.5713160297575879 0 -4.5713160297575879 -1.7539803139974057 0 0 0 0 69.756188389382487 -6.2974452993692465 0 -6.2974452993692465 -2.7275396663197622 0 0 0 0 63.103846634375202 -14.497847174397902 0 -14.497847174397902 2.1183860416253704 0 0 0 0 54.606879560434209 -9.5446727802531015 0 -9.5446727802531015 0.7090043272699984 0 0 0 0 83.293844522152654 -25.491880808138234 0 -25.491880808138234 5.3603501488456224 0 0 0 0 109.21375912086842 -14.667787211783246 0 -14.667787211783246 1.088622742839837 0 0 0 0 61.046724215852805 -14.953123654662926 0 -14.953123654662926 2.6801750744228139 0 0 0 0 
</DataArray>
<DataArray type="Float64" Name="displacement_divergence" format="ascii">
0.98748192407875801 0.96829524254071209 0.95197163643471072 0.96184873105749302 0.95641964084810671 0.93954037533681023 0.91725658028217005 0.93975097981808942 0.92187833066604286 0.93249668588812018 0.94134642898012078 0.91254310003739647 0.93290310473665816 0.91555680323328759 0.95949241238392768 0.93959123748454887 0.98070039916639962 0.98262570201982902 0.91728902887487107 0.92789288324413233 0.92182365299928315 0.90931492012458681 0.91736212179936738 0.90720154825167365 0.92438027483766516 0.92363255846274628 0.91582852491949385 0.903533007879879 0.92094885684514949 0.90783772235606741 0.91711326881964561 0.91616795777899451 0.92650476431851081 0.91469936612558655 0.92890328648378861 0.9146226244981015 0.90193957465485464 0.90317348015167809 0.88746123153019341 0.90704195285013323 0.88099550527534087 0.84350847171830734 0.8773849646605234 0.82717203656045846 0.85075747465827889 0.87594546139528295 0.82836655633378165 0.8373776334191626 0.87786381417557269 0.88824960780907114 0.97751115842546765 0.92500402083927258 0.95036668588664353 0.89412655929891094 0.91322503288504664 0.89413970977680723 0.86112146348186658 0.88031113893197455 0.86525397354037048 0.82152692362014645 0.91067720682110664 0.93324147188107265 0.97320205378216496 0.90265339218254781 0.86872200597149951 0.9712487569508923 0.88517000840651761 0.73423466238149993 0.99184310988680269 0.83076705633829029 0.9080135821286206 1.3423463624181884 1.3031134252982755 1.0989499817334867 1.3133030130954606 1.346046569090334 1.2994277613047651 0.73278591731075471 0.69434993292744096 0.70710069008562959 0.76398110444671186 0.81114424770878735 0.82383661839309308 0.7825048072684434 0.79086956038096923 0.69809170062130976 0.75991995129493928 0.83429268511667443 0.70237898358580575 0.75766348939095585 0.71754185100988499 0.78108272980555904 0.69263062122473873 1.3392644639083684 1.3192938679968249 1.3382552716755989 0.68889808778576667 1.3253495235537323 1.342213903169897 1.2689672227252253 1.2848613030166958 1.2317878916757248 1.2335885979954668 1.2665077805606326 1.2707513191052864 1.2093495686669644 1.2062514757425655 1.2358353969861531 1.1954114119339945 1.204862536868055 1.1622054232617485 1.2434684404122891 1.217486721539472 1.2130021440798942 1.211650696897099 1.2285011354193593 1.1771443614459938 1.1891852043215725 1.1699047226021686 1.0520404714499598 1.0618169594190487 1.1748675645132307 1.1391118068071977 1.0718395889824244 1.1890890399171954 1.2802181422277801 1.1782303835909531 1.2633302052224691 1.2832728512244129 1.2430664617187206 1.2236312254817281 1.1862098327422232 0.93509695725155983 0.82392878180432549 0.90900776380195791 0.82876971255411946 0.75670238512752463 0.77375579993313193 0.75507660597307125 0.81287902431767911 0.81121860651886846 0.82177605365209583 0.84708809388960382 0.83632108460235421 0.89038381141454326 0.87614034078371028 0.85511734781547455 0.86520038301620672 0.94558318654807261 1.0132998087970329 0.90984328602693676 0.98170650421653627 0.98039482414809154 1.0088082915586447 1.14358368845349 1.0819275112405426 1.1152953207335765 1.1386009354976496 1.1515447278832482 1.1251663446886591 1.2239151004076394 1.1588262341787203 1.2430041477227955 0.89920236916588614 1.0144347866729544 0.87622524465800167 1.0405093119248652 0.88664227046834321 1.1017494406540744 1.1058795031025905 1.27445505699183 1.3138047907099366 1.3035622982443016 1.3433309356203917 0.89508913149033387 0.72739663967440804 0.77641687173613683 0.89295826746423224 0.90810879397112976 0.84492781729557775 1.1777257426220147 1.1091771326202722 1.0890089739324611 1.0237581157508335 1.0061017441735887 1.1664937847479397 1.1634037482145383 1.2845661785956761 1.1382072635826064 1.2994740715744915 1.2740206180432181 0.72293334973924583 0.71580192795352526 0.77490301123549454 0.69750110864165016 0.68013659102739277 1.2684092769988748 1.2702794268419841 1.2160876074929734 1.2797414453672327 1.2165917867628202 1.1894139481917929 1.1491735559186471 1.1239078405606049 1.0911377813013055 1.0928996485175309 1.1466913479275933 1.0706192307716065 1.097611079535896 1.0232885472806337 1.091781143232639 1.0470951669649295 1.0574275280199037 0.99807278228321983 1.0580137493556006 1.0530976051415193 1.078371626928385 0.88444867805716654 0.94350415507405272 0.9318538405142438 0.91757580600549282 0.92897999848544532 0.99523684667520684 1.0912436000782393 0.97028143010215573 1.0462591835518669 0.9587326872457046 1.0190569593749599 0.97975792779532334 0.93486268560979346 0.94765489335821662 0.90680836119008146 0.92672703943241241 0.94609570830844258 0.91957624915550606 0.93773798057656488 0.96014944675286107 0.96957563758920851 0.95500881565043849 1.0028822301795404 0.955042708066697 0.99204847993599032 0.98294426730297679 0.9470008473953101 0.94729236070484557 0.93867334316320783 0.93852956250019282 0.93404897887078564 0.93696419532830111 0.91987123342414623 1.0370061594590874 1.0331884483580689 1.0502864968661683 1.0381432078693638 1.0204798180494676 1.0325989330939696 0.98576685668291675 1.0162190433099771 1.0099129820779467 0.98625975862273529 0.98596553339053972 1.0107158905912188 1.0192801218287288 1.042958119612091 1.0307949738880327 1.030957750411466 1.0532595574251973 1.0274584782350031 1.0271101766057578 1.044596543341108 1.0318977615136919 1.0325167868167542 1.0354218806428832 1.0393514274764688 1.0361273086000169 1.049153344587483 1.0339716614178451 0.98668262974137277 1.0212457678088758 1.0105309130450957 1.0155741037393851 0.98638787827564678 1.0102608954066357 1.0191055300083423 0.98611314703824793 0.94700293335928076 0.98289427803790175 0.94706935101484724 0.99193459409337836 0.92024558016262414 0.93688171961928879 0.93411118970910989 0.93887337436599705 0.93856641804056873 0.92700765002343133 0.9377078861221132 0.94588760474535194 0.91950197844920201 0.95513914528857746 0.96004703440147177 0.96980551746055954 0.95511082861507957 1.0034071722636835 1.0200108846611624 0.98022568895989992 0.95859729971262664 0.9471137282494988 0.93470694165644841 0.9068186816219137 0.94135790641668837 0.88283818166235062 0.92729640596311935 0.91281757862845103 0.92815039267442723 0.9694891777350807 1.0471688091191116 0.99607423497941472 1.0957563016472185 1.0718337554304844 1.0991854134565395 1.0264524892838975 1.0943915856412314 1.1479711487275432 1.1509866098928907 1.1239606140775642 1.0925733287129897 1.0946313711011675 1.0788922620599759 1.0544555236316002 1.060445856857259 0.99846717684048492 1.0581775955265875 1.0491119320108639 0.98046201387459997 0.94014155294732038 0.96000733605937316 0.98254762259603012 0.95193540945007715 0.96828580757011029 0.98755168930080228 0.95656907163382898 0.9619284601906436 0.93931370140897874 0.93949612916173775 0.91861388702510649 0.92271972821111614 0.93208305291933868 0.94167806757550931 0.916524583841139 0.93350218634627835 0.91367918915235402 0.90375161708260143 0.90928891161112269 0.91842601558984449 0.91516825531297852 0.92275720695909169 0.92498268117800853 0.92408212558366998 0.9072342919040538 0.91684052058702514 0.92176726683741617 0.9088206446893472 0.92800269765770593 0.91715179610671005 0.9292118686920593 0.9143807744088509 0.91437941656541399 0.92631928729017154 0.90117205336681983 0.90216963270253281 0.91246811258512528 0.87726772796511632 0.88443091843486243 0.83678363038429704 0.82509961464806469 0.87440191571607173 0.85144343906248354 0.82914696392332499 0.87892573191254453 0.84343044421552293 0.88113293482971722 0.88756591309389166 0.90808307029772917 0.89601745483945883 0.89473328336610658 0.91459174865470139 0.86658304786270779 0.88275313264375677 0.82280902828658442 0.86244622956448869 0.93522987810676395 0.9121089486616325 0.87184389080199864 0.97206543218048436 0.90361987137425015 0.97698139549568219 0.95063214980957855 0.92582221495791872 1.0987050565468257 1.3044452873632999 1.3435654894859237 0.90790771868263553 0.9912447259555256 0.83525637680802012 0.97017397894968505 0.7362107420959787 0.88570538520179443 0.81501886152452707 0.82543436761572742 0.76841467217630532 0.70688295555202696 0.6949681597818923 0.73312214282489907 1.300306788645925 1.3135644116784908 1.3433085709286112 1.3407489673809907 1.3247314685407507 0.68893684610306283 0.75976320433233535 0.69862137380561051 0.78471403627546921 0.78935145210220248 0.76034276948829749 0.7022550410037649 0.83079857198999463 0.77516569558232384 0.72008930043200192 0.69137299140221653 1.3395530831091762 1.3184906140630586 1.3375241259632165 1.2293677690517855 1.2652209009304973 1.2724807881797664 1.2055220492156358 1.2054201383541705 1.1604661884643579 1.2043099127193191 1.1924593934842806 1.2365708775526902 1.2172995525736259 1.2137055762487832 1.2417577553103769 1.2314507430936892 1.2836966843521609 1.2691773785224048 1.2436976373783999 1.279661320166094 1.2629114228079923 1.1878906252330126 1.2238887170365884 1.2261769509837501 1.191535543742311 1.2116604768116106 1.1806384902314619 1.1756368965805568 1.136530161172248 1.1742081009364331 1.0519135107324404 1.059709946351808 1.1934026987723152 1.0702183980399904 1.1777070679709836 1.2831545543843323 1.2732596497350717 0.77443985045115027 0.71760339005096307 0.71573833258920516 0.69797827758790443 0.67856650438131239 0.68073833867077271 1.2684250561734438 1.2200255968706533 1.2810461622146938 1.2150371856774009 1.191039431949102 1.163860242922059 1.2832207457086378 1.3015710582502373 1.136409706412677 1.1703293743496479 1.0031844350726455 1.0233279627530578 1.0909246618412589 1.1842423001202209 1.109122887159401 0.83926914189752977 0.90524928466376964 0.88593117201639582 0.77362147544396664 0.72619604027016593 0.89478995407463979 1.3388880904008389 1.3021932230607971 1.3131075353591857 1.2747865871761592 1.106930205615783 1.1018137784600288 0.88754525392640127 0.88003953803470236 1.039429514462092 1.0150701696460114 0.90273221188923403 1.2411207228922287 1.1573872621090231 1.2177548415723249 1.1201343907759105 1.1457751717819571 1.1376284120448799 1.1095121673727875 1.0829489978562186 1.1361352866764445 1.0077276538409039 0.98366287368898142 0.98038348441060463 1.0121653601286154 0.91282008028356165 0.94835378872186848 0.87886336731972858 0.85813855993714716 0.93755372497469835 0.82865861594492984 0.8276827031595716 0.91035892835573373 0.75009654908635737 0.7746629838990593 0.76297859153697967 0.81328555179994655 0.81537415015817927 0.82135551507476112 0.83827283324889756 0.84949900074746498 0.8357459758543635 0.84939087329027829 0.83823081179718395 0.8214702868326843 0.81525458785519422 0.81365293337278732 0.7635250411024137 0.75248301009367302 0.77550180438482086 0.82798330614175075 0.91029618072998397 0.83079978365054696 0.93710338595679221 0.85836503165214872 0.87933321598421865 0.89289824859082167 0.94825581104020396 0.86775307780283306 0.91301183816216158 0.98142364940821281 1.0088965701377235 1.1433802697256279 1.1138966547051914 1.0787093607962914 1.1386183483066692 1.1497352555230651 1.1272055198229851 1.1578155118765627 1.2207739984994428 1.2394890432356565 0.902146445005511 1.0142538008712656 1.0400259072260229 0.87941811283026528 0.88659762706781653 1.1015345449147989 1.1057610116406753 1.2743907594682167 1.3105709156425978 1.3046974767130277 1.3418596805249381 0.89313676028887268 0.72587014706164288 0.77678078316380994 0.91328754670122547 0.89434300605338457 0.82747585042198135 1.1103869328202931 1.1757564920711412 1.0909937295882848 1.0181873322626847 1.0014368654142776 1.1674323974165779 1.1385703679150996 1.3014714351880727 1.2871333034952992 1.1660756970673722 1.1904603549824957 1.2812352834391907 1.219577762397356 1.2169947854146874 1.268162525173502 1.2709390137030143 0.69940878988007771 0.67809137744838233 0.68050825034567164 0.71659955662187336 0.72084844639611123 0.77643992631294756 1.2743942680049407 1.2814604107311844 1.1753295961802477 1.0688297890186467 1.1904506030871755 1.0594952835725577 1.1739760632318141 1.1339118611912393 1.175307187687842 1.1800226801074705 1.191930010556097 1.2105261782725587 1.2226239367028562 1.2216966001163378 1.1843212552600539 1.2600809502013817 1.2406145245339406 1.2756995195148493 1.2670513590711323 1.280244810861721 1.2294275355185471 1.2389203695651438 1.2128486739222779 1.2156382528879848 1.2321028385609107 1.2034492916898627 1.1935604282131533 1.158274367339803 1.2013961370129755 1.2065380862388497 1.2639287610909735 1.2681931994879623 1.2304851094909826 1.3361314488295672 1.3207905848689327 1.3369615917880318 0.69507937404143616 0.72964405928396825 0.82343394225661148 0.783079055108301 0.78041116931484533 0.71109351242206431 0.77004160847424952 0.77730235845594176 0.70734259264333799 0.68809961477848902 1.3239908018017543 1.3387254924365943 1.3395405447065771 1.3142148741534878 1.2974112258091863 0.73132415856901145 0.69729863013848081 0.71265501456467395 0.81182617863137208 0.77461152855713744 0.79868167366579301 0.89183927661100848 0.73049217190073557 0.97011278298712866 0.83656721476656282 0.99283021835310836 0.9047972179602114 1.3433593613643551 1.3050985877623602 1.0985020715762883 0.93018103917681072 0.9386684088541587 0.97477808727267456 0.96846616967964338 0.90504262222928 0.88756495087441845 0.88461105583268973 0.93068448071454157 0.88623839365066459 0.83520658728874897 0.85018122974145172 0.90194002256740424 0.86418456477361816 0.89115047568685724 0.92681712254042825 0.90284673302831653 0.91274416627612753 0.88606402470360179 0.90735865387264458 0.85669429293081223 0.88319355934646582 0.82008829688325635 0.83970044684783873 0.88604220586252358 0.82273437072591316 0.85904502347781675 0.85042764371982915 0.90951943047835737 0.8706356023540609 0.88729054591489775 0.91471665167582206 0.90543471451223412 0.93046965163712236 0.92243469824623092 0.90777594118064053 0.92804140418446379 0.91812284105711917 0.92912585612604737 0.92512865994635241 0.90952285222728746 0.90974908555364287 0.90780389150407792 0.92838291132340078 0.91285672056157985 0.92669634851699512 0.90171501821995936 0.92284134082610514 0.91023869954522874 0.93253996480261092 0.93184526942061263 0.94330203171402049 0.93238464487501693 0.92833467300226791 0.91869012400431427 0.93966034550686151 0.94141248165212266 0.95813852946894229 0.95545945178629466 0.98723077089221845 0.96740370016051436 0.95057504785522473 0.9823558773883434 0.94949932225823963 0.97879063779087405 0.94144681943108388 1.0465085658252249 1.05884096827528 0.99772814129937037 1.0596671076048167 1.0535204266852845 1.0792508273539503 1.0945865995790343 1.0910881524987965 1.124519454935319 1.1496960993591301 1.1483040354693401 1.0924636504550365 1.099218830551417 1.0238211369737051 1.0699202845879234 1.0926537120825881 0.99701873511450234 1.045975421343984 0.97752954996188479 0.90606597130653421 0.93052976718397618 0.91486474772656323 0.93740266627979019 0.94264685475582366 0.90724646418795651 0.93889082260927448 0.94053047826054725 0.9300817938081769 0.95588251289116877 0.97565455992194172 1.0200309647259105 0.95640761087075621 1.0033312540778461 0.97028350218193216 0.95796568214336686 0.95275387729023253 0.92520612679382697 0.93937682042350135 0.94281097935724667 0.93462097610140205 0.93738557884066842 0.936360299360529 0.9331800623793608 0.93624854001683866 0.921408525475785 0.99115740893591431 0.94665489803029224 0.94629388492818145 0.98253734344558574 0.9855528936470096 1.0184352752928152 1.0095977758461676 0.98586609636489286 1.0148024358671741 1.0100774727541828 1.0212243098486464 1.0333943278045417 0.98615971225613086 1.0503623043656112 1.0342387197151699 1.0385311514808735 1.0367449555707724 1.030879186935614 1.0316401763321696 1.0438374278585552 1.053286796805976 1.0267884837601091 1.0261909834397416 1.0438757830123462 1.0299956986419636 1.0349325542940122 0.98528290703084842 1.0201203265468932 1.0100002325320534 0.98678539686836286 1.0171626979234931 1.0120667138464443 1.0214461193449096 0.98634644183760689 1.0354361044322931 1.0356770807391595 1.0411081801432909 1.0506846185141705 1.0341570075521436 1.0543330629344734 1.0791548371589299 1.0605312671684932 0.99831162325712175 1.0586821995358127 1.0490801048623997 1.0947658945442105 1.1006244224100872 1.0275210473979148 1.0722866247476703 1.1483168263921513 1.1512656808903441 1.1241713586567474 1.0928132747906918 1.0949689662020676 0.94297676884406634 0.93424193142446343 0.9021369573371073 0.91325189835183862 0.92712579521376004 1.097161962292506 0.97676848217145162 1.0465144153151875 0.99854527945204041 0.97541030668868978 0.9557986423966488 1.0209268190827308 0.93934201002332884 0.93824417125941972 0.90297685278975148 0.93089375822309184 0.92553212613023772 0.94304371678607213 0.94014648082594376 0.93423136650416649 0.95648826322134972 1.0047795763788476 0.97045075103501777 0.95845108523958333 0.95252894692183065 0.99133444544236582 0.94666800443324894 0.94604932655806406 0.98292457299804925 0.93640884145094105 0.9373986621511311 0.93308709990384231 0.93622876911828046 0.92106481700490694 0.92931839659366677 0.91784238035491261 0.90970711449327757 0.92504865717971707 0.90943827301110747 0.90772941051230671 0.92810257175823496 0.91299534818017625 0.92656618283452352 0.9232576885837751 0.90236446642242418 0.92220241561376914 0.90709951915202958 0.93030626400753558 0.92807682756015386 0.95085192182947442 0.98707906989375349 0.96781400505611792 0.95571387830465881 0.95852821542246236 0.94222356784853412 0.93934033298280839 0.91934884015346041 0.92964301054639331 0.93304113277486267 0.91070000403561924 0.93359328631084759 0.93244087488323057 0.94401332047961062 0.95088999282231046 0.94175595262455636 0.97896975827685673 0.98238730752830428 0.97481563225708689 0.93044372454858992 0.93804400438669722 0.89307800033281315 0.92712733621050225 0.90455040589319224 0.91244418453659515 0.86401249074278197 0.84896219889277413 0.8327331298830204 0.88761424760925289 0.90165805705324698 0.92896872719713541 0.88426569181342352 0.88966587278125775 0.96713085441994096 0.90683265561536919 0.86947590362897609 0.90367199568618573 0.88720710618508991 0.91440133141664881 0.90711961419646781 0.88646469238244141 0.85700107414510385 0.88305872640748739 0.81854643088055723 0.83847901770727118 0.85629944193103336 0.82360423770939006 0.88556641151359605 0.90862204617733566 0.84955869564489928 0.81842445052678192 0.72786387831416643 0.71115543407550608 0.78457340911946361 0.77872323808303623 0.76905139132619704 0.77674834180874963 0.70600117239173554 0.68797679570526171 1.3411609777034963 1.3239288908433722 1.3210977719468477 1.33728394912073 1.3344979308304059 0.69467119858551551 0.99268278810985955 0.83828496355238125 0.96928473001313797 0.72825087395036092 0.89290912897722652 0.79712713563496795 0.7712698948946588 0.81106296428405722 0.71042883745559227 0.6975394068468368 1.3448268538198209 1.3136102975769137 1.2970569511428953 0.73030235911287789 1.3441666512490205 1.3039602928070175 1.0996300378297288 0.90546421433879132 1.0711243768087824 1.1922282640274766 1.2814351320100581 1.1779147226738205 1.1862548985117964 1.2632664111485146 1.2414443820005925 1.280430582666223 1.2232535275743264 1.2246078299072856 1.2113504273239866 1.186750034134578 1.1806511163804232 1.1727528229796846 1.1359026321040087 1.1716677458998137 1.058851342547843 1.2066984467823216 1.2301156267256101 1.2671706283202058 1.2642396077677527 1.2825567120611634 1.2677635711611279 1.2299825451241744 1.2395522400596497 1.2122102613750907 1.2159069530828668 1.2043085515270149 1.1939859974312814 1.2326833114084736 1.2022748076876237 1.1625851495012303 1.1419646170445448 1.0800276000940978 1.1149441121484909 1.1366984743842872 1.1478508209225862 1.1216850012145851 1.2207359628706125 1.1566097157652295 1.2388982551207646 0.87509262758913031 1.0402872725359575 1.0128742518079314 0.89740654752156979 1.0088409771966478 0.98146419641967086 0.90940141942928987 0.94551846096113912 0.87543185851654659 0.85516707639274014 0.83627000349816505 0.84715497567358966 0.83649286011184021 0.82177514103037419 0.81261396458962964 0.81139528307995856 0.75936956684958179 0.75170548038897989 0.77432431663821577 0.93396289684168565 0.82762853232222233 0.82338493488273223 0.90843209152797633 0.77528783788753508 0.72107917706834801 0.71583656593900391 1.2738358714506106 0.69932164503972183 0.67926306764562594 1.2685017455741712 1.2156005055248111 1.2817205984929692 1.2201737030148598 1.191364417230947 1.3012831461651992 1.1363034505037348 1.283210766427143 1.1642068955887683 1.1704983902213486 0.99995975131925618 1.1098338366213714 1.1836924050231474 1.0917913315091321 1.0185339320473181 0.89082215211174898 0.82520450903976761 0.91140127883972022 0.77149346873840818 0.89363882132613026 0.72478678337055646 1.310427705737045 1.3405729744612533 1.3044446535200138 1.1063176777540813 0.88654194670998299 1.1030238186370815 1.274537985805511 
</DataArray>
</CellData>
</Piece>
</UnstructuredGrid>
</VTKFile>
