<?xml version="1.0"?>
<VTKFile type="UnstructuredGrid" version="0.1" byte_order="LittleEndian">
<UnstructuredGrid>
<Piece NumberOfPoints="3186" NumberOfCells="1062">
<Points>
<DataArray type="Float64" NumberOfComponents="3" format="ascii">
0 0 0 0.14285714285686729 0 0 0.10402057578810379 0.10402057578810379 0 0 0 0 0.10402057578810379 0.10402057578810379 0 0 0.14285714285686729 0 0.14285714285686729 0 0 0.10402057578810379 0.10402057578810379 0 0.21622614199724011 0.1170905489967794 0 0.10402057578810379 0.10402057578810379 0 0.12873413335214179 0.22892000827465461 0 0.21622614199724011 0.1170905489967794 0 0.10402057578810379 0.10402057578810379 0 0 0.14285714285686729 0 0.12873413335214179 0.22892000827465461 0 0 0.14285714285686729 0 0 0.28571428571359381 0 0.12873413335214179 0.22892000827465461 0 0.093737460955887239 0.36334567880837831 0 0 0.28571428571359381 0 0 0.42857142857032021 0 0.093737460955887239 0.36334567880837831 0 0 0.28571428571359381 0 0.12873413335214179 0.22892000827465461 0 0.093737460955887239 0.36334567880837831 0 0.12873413335214179 0.22892000827465461 0 0.21341038379882901 0.37169997079090128 0 0.12873413335214179 0.22892000827465461 0 0.28183877965613813 0.2453094238274868 0 0.21622614199724011 0.1170905489967794 0 0.12873413335214179 0.22892000827465461 0 0.21341038379882901 0.37169997079090128 0 0.28183877965613813 0.2453094238274868 0 0.21341038379882901 0.37169997079090128 0 0.28183877965613813 0.2453094238274868 0 0.35714458040172548 0.37949340689832922 0 0.28183877965613813 0.2453094238274868 0 0.35714458040172548 0.37949340689832922 0 0.42857142856968189 0.24782843958009351 0 0.28183877965613813 0.2453094238274868 0 0.35419193461659548 0.1242932860904311 0 0.42857142856968189 0.24782843958009351 0 0.28183877965613813 0.2453094238274868 0 0.35419193461659548 0.1242932860904311 0 0.21622614199724011 0.1170905489967794 0 0.35419193461659548 0.1242932860904311 0 0.28571428571359381 0 0 0.21622614199724011 0.1170905489967794 0 0.35419193461659548 0.1242932860904311 0 0.28571428571359381 0 0 0.42857142857032021 0 0 0.14285714285686729 0 0 0.28571428571359381 0 0 0.21622614199724011 0.1170905489967794 0 0.091975849439628388 0.63906079561326345 0 0.21183497469564019 0.63320029487793694 0 0.12868163055416221 0.76697400229767487 0 0 0.71428571428496201 0 0.091975849439628388 0.63906079561326345 0 0.12868163055416221 0.76697400229767487 0 0.091975849439628388 0.63906079561326345 0 0 0.57142857142744297 0 0.12654278762846541 0.50182270069242174 0 0 0.71428571428496201 0 0.091975849439628388 0.63906079561326345 0 0 0.57142857142744297 0 0.091975849439628388 0.63906079561326345 0 0.12654278762846541 0.50182270069242174 0 0.21183497469564019 0.63320029487793694 0 0 0.57142857142744297 0 0.12654278762846541 0.50182270069242174 0 0 0.42857142857032021 0 0.093737460955887239 0.36334567880837831 0 0.12654278762846541 0.50182270069242174 0 0 0.42857142857032021 0 0.093737460955887239 0.36334567880837831 0 0.21341038379882901 0.37169997079090128 0 0.12654278762846541 0.50182270069242174 0 0.21341038379882901 0.37169997079090128 0 0.12654278762846541 0.50182270069242174 0 0.28571428571288859 0.50512834069527579 0 0.35714458040172548 0.37949340689832922 0 0.28571428571288859 0.50512834069527579 0 0.42857911129460902 0.5051327763182708 0 0.21341038379882901 0.37169997079090128 0 0.35714458040172548 0.37949340689832922 0 0.28571428571288859 0.50512834069527579 0 0.28571428571288859 0.50512834069527579 0 0.35657912408519199 0.6297632267709089 0 0.42857911129460902 0.5051327763182708 0 0.12654278762846541 0.50182270069242174 0 0.28571428571288859 0.50512834069527579 0 0.21183497469564019 0.63320029487793694 0 0.28571428571288859 0.50512834069527579 0 0.21183497469564019 0.63320029487793694 0 0.35657912408519199 0.6297632267709089 0 0.35657912408519199 0.6297632267709089 0 0.42876602422768972 0.75267652020288756 0 0.28454251053718921 0.75357332720455328 0 0.21183497469564019 0.63320029487793694 0 0.35657912408519199 0.6297632267709089 0 0.28454251053718921 0.75357332720455328 0 0.21183497469564019 0.63320029487793694 0 0.28454251053718921 0.75357332720455328 0 0.12868163055416221 0.76697400229767487 0 0.50003783804313584 0.62886810132652948 0 0.57146100403685018 0.75258289532342593 0 0.42876602422768972 0.75267652020288756 0 0.35657912408519199 0.6297632267709089 0 0.50003783804313584 0.62886810132652948 0 0.42876602422768972 0.75267652020288756 0 0.35657912408519199 0.6297632267709089 0 0.50003783804313584 0.62886810132652948 0 0.42857911129460902 0.5051327763182708 0 0.50003783804313584 0.62886810132652948 0 0.42857911129460902 0.5051327763182708 0 0.57143682973041188 0.50513310862866234 0 0.35714458040172548 0.37949340689832922 0 0.42857911129460902 0.5051327763182708 0 0.50000265683637624 0.3797679478844822 0 0.42857911129460902 0.5051327763182708 0 0.50000265683637624 0.3797679478844822 0 0.57143682973041188 0.50513310862866234 0 0.6428589620457259 0.38113747419351418 0 0.71689882325258081 0.50562151542895928 0 0.57143682973041188 0.50513310862866234 0 0.50000265683637624 0.3797679478844822 0 0.6428589620457259 0.38113747419351418 0 0.57143682973041188 0.50513310862866234 0 0.6428589620457259 0.38113747419351418 0 0.71689882325258081 0.50562151542895928 0 0.78571428571267199 0.38141042586853341 0 0.71689882325258081 0.50562151542895928 0 0.57143682973041188 0.50513310862866234 0 0.6428688546313952 0.62885301731806609 0 0.50003783804313584 0.62886810132652948 0 0.57143682973041188 0.50513310862866234 0 0.6428688546313952 0.62885301731806609 0 0.71689882325258081 0.50562151542895928 0 0.6428688546313952 0.62885301731806609 0 0.7865654166374938 0.63474444568669874 0 0.6428688546313952 0.62885301731806609 0 0.7865654166374938 0.63474444568669874 0 0.71537080136980369 0.7565812122385458 0 0.50003783804313584 0.62886810132652948 0 0.6428688546313952 0.62885301731806609 0 0.57146100403685018 0.75258289532342593 0 0.6428688546313952 0.62885301731806609 0 0.57146100403685018 0.75258289532342593 0 0.71537080136980369 0.7565812122385458 0 0.49927531931040692 0.1259400136946118 0 0.42857142857032021 0 0 0.57142857142744297 0 0 0.35419193461659548 0.1242932860904311 0 0.49927531931040692 0.1259400136946118 0 0.42857142857032021 0 0 0.35419193461659548 0.1242932860904311 0 0.49927531931040692 0.1259400136946118 0 0.42857142856968189 0.24782843958009351 0 0.35714458040172548 0.37949340689832922 0 0.50000265683637624 0.3797679478844822 0 0.42857142856968189 0.24782843958009351 0 0.50000265683637624 0.3797679478844822 0 0.42857142856968189 0.24782843958009351 0 0.57134283277699616 0.25528695228377429 0 0.49927531931040692 0.1259400136946118 0 0.42857142856968189 0.24782843958009351 0 0.57134283277699616 0.25528695228377429 0 0.57134283277699616 0.25528695228377429 0 0.71335089116972128 0.25578338314493299 0 0.64223892332544308 0.130274960827549 0 0.6428589620457259 0.38113747419351418 0 0.57134283277699616 0.25528695228377429 0 0.71335089116972128 0.25578338314493299 0 0.50000265683637624 0.3797679478844822 0 0.6428589620457259 0.38113747419351418 0 0.57134283277699616 0.25528695228377429 0 0.6428589620457259 0.38113747419351418 0 0.71335089116972128 0.25578338314493299 0 0.78571428571267199 0.38141042586853341 0 0.71335089116972128 0.25578338314493299 0 0.64223892332544308 0.130274960827549 0 0.78018926648548503 0.12559094919453551 0 0.49927531931040692 0.1259400136946118 0 0.57134283277699616 0.25528695228377429 0 0.64223892332544308 0.130274960827549 0 0.64223892332544308 0.130274960827549 0 0.57142857142744297 0 0 0.71428571428496201 0 0 0.49927531931040692 0.1259400136946118 0 0.64223892332544308 0.130274960827549 0 0.57142857142744297 0 0 0.64223892332544308 0.130274960827549 0 0.71428571428496201 0 0 0.78018926648548503 0.12559094919453551 0 0.71428571428496201 0 0 0.78018926648548503 0.12559094919453551 0 0.85714285714248095 0 0 0.78018926648548503 0.12559094919453551 0 0.89542131320406015 0.10457868679576519 0 0.86802342313663505 0.2373869704637242 0 0.89542131320406015 0.10457868679576519 0 1 0.14285714285686729 0 0.86802342313663505 0.2373869704637242 0 0.89542131320406015 0.10457868679576519 0 0.85714285714248095 0 0 1 0 0 0.78018926648548503 0.12559094919453551 0 0.89542131320406015 0.10457868679576519 0 0.85714285714248095 0 0 0.89542131320406015 0.10457868679576519 0 1 0 0 1 0.14285714285686729 0 1 0.14285714285686729 0 1.1045786867956009 0.1045786867955263 0 1.11654878083672 0.2171580770020253 0 1 0 0 1 0.14285714285686729 0 1.1045786867956009 0.1045786867955263 0 1 0 0 1.1045786867956009 0.1045786867955263 0 1.142857142857143 0 0 1.120408926261548 0.35723491808527941 0 1 0.28571428571359381 0 1 0.42857142857032021 0 1.120408926261548 0.35723491808527941 0 1.11654878083672 0.2171580770020253 0 1 0.28571428571359381 0 1 0.14285714285686729 0 1.11654878083672 0.2171580770020253 0 1 0.28571428571359381 0 1 0.14285714285686729 0 1 0.28571428571359381 0 0.86802342313663505 0.2373869704637242 0 1 0.28571428571359381 0 0.90513725992141869 0.36710674629889062 0 1 0.42857142857032021 0 1 0.28571428571359381 0 0.90513725992141869 0.36710674629889062 0 0.86802342313663505 0.2373869704637242 0 0.90513725992141869 0.36710674629889062 0 0.86802342313663505 0.2373869704637242 0 0.78571428571267199 0.38141042586853341 0 0.71335089116972128 0.25578338314493299 0 0.78018926648548503 0.12559094919453551 0 0.86802342313663505 0.2373869704637242 0 0.71335089116972128 0.25578338314493299 0 0.86802342313663505 0.2373869704637242 0 0.78571428571267199 0.38141042586853341 0 0.71689882325258081 0.50562151542895928 0 0.78571428571267199 0.38141042586853341 0 0.87194859075778619 0.50245062087828152 0 0.71689882325258081 0.50562151542895928 0 0.87194859075778619 0.50245062087828152 0 0.7865654166374938 0.63474444568669874 0 0.90513725992141869 0.36710674629889062 0 0.87194859075778619 0.50245062087828152 0 1 0.42857142857032021 0 0.90513725992141869 0.36710674629889062 0 0.78571428571267199 0.38141042586853341 0 0.87194859075778619 0.50245062087828152 0 0.7865654166374938 0.63474444568669874 0 0.87061467893647215 0.77259634013423817 0 0.71537080136980369 0.7565812122385458 0 0.87194859075778619 0.50245062087828152 0 0.90582573726635052 0.63910113848232464 0 1 0.57142857142744297 0 0.87194859075778619 0.50245062087828152 0 0.7865654166374938 0.63474444568669874 0 0.90582573726635052 0.63910113848232464 0 0.90582573726635052 0.63910113848232464 0 1 0.71428571428496201 0 0.87061467893647215 0.77259634013423817 0 0.7865654166374938 0.63474444568669874 0 0.90582573726635052 0.63910113848232464 0 0.87061467893647215 0.77259634013423817 0 0.90582573726635052 0.63910113848232464 0 1 0.71428571428496201 0 1 0.57142857142744297 0 1 0.57142857142744297 0 1.1230850406616231 0.64211163998861642 0 1.1231105411754949 0.50105200202130007 0 1 0.71428571428496201 0 1 0.57142857142744297 0 1.1230850406616231 0.64211163998861642 0 1 0.71428571428496201 0 1.1230850406616231 0.64211163998861642 0 1.1205280434883049 0.78018926648583675 0 0.87194859075778619 0.50245062087828152 0 1 0.57142857142744297 0 1 0.42857142857032021 0 1 0.57142857142744297 0 1 0.42857142857032021 0 1.1231105411754949 0.50105200202130007 0 1.120408926261548 0.35723491808527941 0 1 0.42857142857032021 0 1.1231105411754949 0.50105200202130007 0 1.120408926261548 0.35723491808527941 0 1.1231105411754949 0.50105200202130007 0 1.242992467502205 0.4277245950738956 0 1.1231105411754949 0.50105200202130007 0 1.242992467502205 0.4277245950738956 0 1.247229121683481 0.57147965461975947 0 1.242992467502205 0.4277245950738956 0 1.247229121683481 0.57147965461975947 0 1.369122867196076 0.49769215192747729 0 1.1230850406616231 0.64211163998861642 0 1.246702098928647 0.71318645322081164 0 1.1205280434883049 0.78018926648583675 0 1.1230850406616231 0.64211163998861642 0 1.1231105411754949 0.50105200202130007 0 1.247229121683481 0.57147965461975947 0 1.1230850406616231 0.64211163998861642 0 1.247229121683481 0.57147965461975947 0 1.246702098928647 0.71318645322081164 0 1.247229121683481 0.57147965461975947 0 1.246702098928647 0.71318645322081164 0 1.3707808136040489 0.64248101537579216 0 1.246702098928647 0.71318645322081164 0 1.3707808136040489 0.64248101537579216 0 1.369080439626563 0.78389141510404459 0 1.247229121683481 0.57147965461975947 0 1.3707808136040489 0.64248101537579216 0 1.369122867196076 0.49769215192747729 0 1.3707808136040489 0.64248101537579216 0 1.49447102461245 0.57098124216803303 0 1.4948716593059641 0.71428571428344279 0 1.3707808136040489 0.64248101537579216 0 1.49447102461245 0.57098124216803303 0 1.369122867196076 0.49769215192747729 0 1.3707808136040489 0.64248101537579216 0 1.4948716593059641 0.71428571428344279 0 1.369080439626563 0.78389141510404459 0 1.242992467502205 0.4277245950738956 0 1.369122867196076 0.49769215192747729 0 1.365913983939659 0.35404229584497132 0 1.49447102461245 0.57098124216803303 0 1.369122867196076 0.49769215192747729 0 1.493210541712801 0.42593700932760992 0 1.369122867196076 0.49769215192747729 0 1.493210541712801 0.42593700932760992 0 1.365913983939659 0.35404229584497132 0 1.493210541712801 0.42593700932760992 0 1.365913983939659 0.35404229584497132 0 1.4945915486603041 0.278046120036475 0 1.365913983939659 0.35404229584497132 0 1.362797304713371 0.2085843731968661 0 1.239801768054871 0.28318912013054159 0 1.362797304713371 0.2085843731968661 0 1.4945915486603041 0.278046120036475 0 1.4981772993068541 0.1265427876282571 0 1.365913983939659 0.35404229584497132 0 1.362797304713371 0.2085843731968661 0 1.4945915486603041 0.278046120036475 0 1.4981772993068541 0.1265427876282571 0 1.4285714285714279 0 0 1.357142857142857 0.088385776599927718 0 1.4981772993068541 0.1265427876282571 0 1.4285714285714279 0 0 1.571428571428571 0 0 1.4285714285714279 0 0 1.357142857142857 0.088385776599927718 0 1.2857142857142849 0 0 1.362797304713371 0.2085843731968661 0 1.357142857142857 0.088385776599927718 0 1.230484398416066 0.12817051038898539 0 1.362797304713371 0.2085843731968661 0 1.4981772993068541 0.1265427876282571 0 1.357142857142857 0.088385776599927718 0 1.230484398416066 0.12817051038898539 0 1.2857142857142849 0 0 1.142857142857143 0 0 1.357142857142857 0.088385776599927718 0 1.230484398416066 0.12817051038898539 0 1.2857142857142849 0 0 1.1045786867956009 0.1045786867955263 0 1.230484398416066 0.12817051038898539 0 1.142857142857143 0 0 1.1045786867956009 0.1045786867955263 0 1.11654878083672 0.2171580770020253 0 1.230484398416066 0.12817051038898539 0 1.11654878083672 0.2171580770020253 0 1.230484398416066 0.12817051038898539 0 1.239801768054871 0.28318912013054159 0 1.120408926261548 0.35723491808527941 0 1.242992467502205 0.4277245950738956 0 1.239801768054871 0.28318912013054159 0 1.120408926261548 0.35723491808527941 0 1.11654878083672 0.2171580770020253 0 1.239801768054871 0.28318912013054159 0 1.242992467502205 0.4277245950738956 0 1.365913983939659 0.35404229584497132 0 1.239801768054871 0.28318912013054159 0 1.362797304713371 0.2085843731968661 0 1.230484398416066 0.12817051038898539 0 1.239801768054871 0.28318912013054159 0 1.2843187895246739 1.251849118408489 0 1.356519680644851 1.1297688427831769 0 1.217136293327606 1.122039968907099 0 1.2843187895246739 1.251849118408489 0 1.1309902448456099 1.235084640813384 0 1.217136293327606 1.122039968907099 0 1.1309902448456099 1.235084640813384 0 1.217136293327606 1.122039968907099 0 1.1045786867955529 1.1045786867955529 0 1.2843187895246739 1.251849118408489 0 1.1309902448456099 1.235084640813384 0 1.214285714285708 1.381410425868262 0 1.1309902448456099 1.235084640813384 0 1.214285714285708 1.381410425868262 0 1.0966122299857239 1.357142857142857 0 1.214285714285708 1.381410425868262 0 1.1265427876294609 1.501822700692834 0 1.285714285714282 1.505128340694609 0 1.214285714285708 1.381410425868262 0 1.0966122299857239 1.357142857142857 0 1.1265427876294609 1.501822700692834 0 1.214285714285708 1.381410425868262 0 1.3557237634480139 1.380474745153186 0 1.285714285714282 1.505128340694609 0 1.2843187895246739 1.251849118408489 0 1.214285714285708 1.381410425868262 0 1.3557237634480139 1.380474745153186 0 1.3557237634480139 1.380474745153186 0 1.285714285714282 1.505128340694609 0 1.42857911129607 1.505132776317748 0 1.3557237634480139 1.380474745153186 0 1.4999999999999949 1.3814104258682569 0 1.42857911129607 1.505132776317748 0 1.3557237634480139 1.380474745153186 0 1.4999999999999949 1.3814104258682569 0 1.426914538806672 1.255395578508163 0 1.4999999999999949 1.3814104258682569 0 1.426914538806672 1.255395578508163 0 1.571152652531757 1.256105255633247 0 1.2843187895246739 1.251849118408489 0 1.3557237634480139 1.380474745153186 0 1.426914538806672 1.255395578508163 0 1.2843187895246739 1.251849118408489 0 1.426914538806672 1.255395578508163 0 1.356519680644851 1.1297688427831769 0 1.426914538806672 1.255395578508163 0 1.499999999999998 1.1271398115696349 0 1.571152652531757 1.256105255633247 0 1.426914538806672 1.255395578508163 0 1.356519680644851 1.1297688427831769 0 1.499999999999998 1.1271398115696349 0 1.499999999999998 1.1271398115696349 0 1.4285714285714279 1 0 1.571428571428571 1 0 1.356519680644851 1.1297688427831769 0 1.499999999999998 1.1271398115696349 0 1.4285714285714279 1 0 1.4285714285714279 1 0 1.497549379121643 0.87194859075748521 0 1.571428571428571 1 0 1.4285714285714279 1 0 1.359152564409752 0.9044833397938371 0 1.2857142857142849 1 0 1.356519680644851 1.1297688427831769 0 1.4285714285714279 1 0 1.2857142857142849 1 0 1.4948716593059641 0.71428571428344279 0 1.497549379121643 0.87194859075748521 0 1.369080439626563 0.78389141510404459 0 1.497549379121643 0.87194859075748521 0 1.359152564409752 0.9044833397938371 0 1.369080439626563 0.78389141510404459 0 1.4285714285714279 1 0 1.497549379121643 0.87194859075748521 0 1.359152564409752 0.9044833397938371 0 1.359152564409752 0.9044833397938371 0 1.369080439626563 0.78389141510404459 0 1.2323719363650789 0.86814175826561835 0 1.246702098928647 0.71318645322081164 0 1.369080439626563 0.78389141510404459 0 1.2323719363650789 0.86814175826561835 0 1.359152564409752 0.9044833397938371 0 1.2323719363650789 0.86814175826561835 0 1.2857142857142849 1 0 1.2323719363650789 0.86814175826561835 0 1.142857142857143 1 0 1.104578686795793 0.89542131320410689 0 1.2323719363650789 0.86814175826561835 0 1.1205280434883049 0.78018926648583675 0 1.104578686795793 0.89542131320410689 0 1.246702098928647 0.71318645322081164 0 1.2323719363650789 0.86814175826561835 0 1.1205280434883049 0.78018926648583675 0 1.356519680644851 1.1297688427831769 0 1.2857142857142849 1 0 1.217136293327606 1.122039968907099 0 1.2323719363650789 0.86814175826561835 0 1.2857142857142849 1 0 1.142857142857143 1 0 1.142857142857143 1 0 1.217136293327606 1.122039968907099 0 1.1045786867955529 1.1045786867955529 0 1.2857142857142849 1 0 1.142857142857143 1 0 1.217136293327606 1.122039968907099 0 1.1045786867955529 1.1045786867955529 0 1 1 0 1 1.142857142857143 0 1.142857142857143 1 0 1.1045786867955529 1.1045786867955529 0 1 1 0 1.142857142857143 1 0 1 1 0 1.104578686795793 0.89542131320410689 0 1 1 0 0.89542131320410701 1.104578686795793 0 1 1.142857142857143 0 1 0.71428571428496201 0 1.1205280434883049 0.78018926648583675 0 1 0.85714285714248095 0 1 1 0 1.104578686795793 0.89542131320410689 0 1 0.85714285714248095 0 1.1205280434883049 0.78018926648583675 0 1.104578686795793 0.89542131320410689 0 1 0.85714285714248095 0 1 1 0 1 0.85714285714248095 0 0.89542131320417073 0.89542131320417073 0 1 0.71428571428496201 0 1 0.85714285714248095 0 0.87061467893647215 0.77259634013423817 0 1 0.85714285714248095 0 0.87061467893647215 0.77259634013423817 0 0.89542131320417073 0.89542131320417073 0 0.89542131320417073 0.89542131320417073 0 0.78149925341697946 0.88257916460195274 0 0.85714285714248095 1 0 0.87061467893647215 0.77259634013423817 0 0.89542131320417073 0.89542131320417073 0 0.78149925341697946 0.88257916460195274 0 0.87061467893647215 0.77259634013423817 0 0.78149925341697946 0.88257916460195274 0 0.71537080136980369 0.7565812122385458 0 0.89542131320410701 1.104578686795793 0 0.85714285714248095 1 0 0.78018926648585263 1.1205280434881351 0 1 1 0 0.89542131320410701 1.104578686795793 0 0.85714285714248095 1 0 1 1 0 0.89542131320417073 0.89542131320417073 0 0.85714285714248095 1 0 0.78149925341697946 0.88257916460195274 0 0.85714285714248095 1 0 0.71428571428496201 1 0 0.85714285714248095 1 0 0.78018926648585263 1.1205280434881351 0 0.71428571428496201 1 0 0.78018926648585263 1.1205280434881351 0 0.8681417582656602 1.2323719363648691 0 0.71318645322083074 1.246702098928443 0 0.8681417582656602 1.2323719363648691 0 0.78389141510410065 1.3690804396262211 0 0.71318645322083074 1.246702098928443 0 0.8681417582656602 1.2323719363648691 0 1 1.2857142857142849 0 0.90448333979397377 1.359152564409229 0 0.89542131320410701 1.104578686795793 0 0.78018926648585263 1.1205280434881351 0 0.8681417582656602 1.2323719363648691 0 0.89542131320410701 1.104578686795793 0 0.8681417582656602 1.2323719363648691 0 1 1.142857142857143 0 0.8681417582656602 1.2323719363648691 0 1 1.142857142857143 0 1 1.2857142857142849 0 1.1309902448456099 1.235084640813384 0 1 1.2857142857142849 0 1.0966122299857239 1.357142857142857 0 1.1309902448456099 1.235084640813384 0 1 1.142857142857143 0 1 1.2857142857142849 0 1.1309902448456099 1.235084640813384 0 1.1045786867955529 1.1045786867955529 0 1 1.142857142857143 0 1.0966122299857239 1.357142857142857 0 1 1.4285714285714279 0 1.1265427876294609 1.501822700692834 0 1 1.2857142857142849 0 1.0966122299857239 1.357142857142857 0 1 1.4285714285714279 0 1 1.2857142857142849 0 1 1.4285714285714279 0 0.90448333979397377 1.359152564409229 0 1 1.4285714285714279 0 0.87194859075750586 1.497549379121565 0 1 1.571428571428571 0 0.87194859075750586 1.497549379121565 0 0.90448333979397377 1.359152564409229 0 0.78389141510410065 1.3690804396262211 0 1 1.4285714285714279 0 0.87194859075750586 1.497549379121565 0 0.90448333979397377 1.359152564409229 0 0.8681417582656602 1.2323719363648691 0 0.90448333979397377 1.359152564409229 0 0.78389141510410065 1.3690804396262211 0 0.87194859075750586 1.497549379121565 0 0.78389141510410065 1.3690804396262211 0 0.71428571428344279 1.494871659305963 0 0.78389141510410065 1.3690804396262211 0 0.71428571428344279 1.494871659305963 0 0.64248101537579227 1.370780813604048 0 0.71428571428344279 1.494871659305963 0 0.5709812421680337 1.49447102461245 0 0.64248101537579227 1.370780813604048 0 0.5709812421680337 1.49447102461245 0 0.64248101537579227 1.370780813604048 0 0.49769215192747779 1.3691228671960749 0 0.64248101537579227 1.370780813604048 0 0.57147965461975991 1.2472291216834761 0 0.49769215192747779 1.3691228671960749 0 0.78389141510410065 1.3690804396262211 0 0.64248101537579227 1.370780813604048 0 0.71318645322083074 1.246702098928443 0 0.78018926648585263 1.1205280434881351 0 0.71318645322083074 1.246702098928443 0 0.64211163998861909 1.1230850406615951 0 0.71318645322083074 1.246702098928443 0 0.57147965461975991 1.2472291216834761 0 0.64211163998861909 1.1230850406615951 0 0.57147965461975991 1.2472291216834761 0 0.64211163998861909 1.1230850406615951 0 0.50105200202129974 1.1231105411754949 0 0.64248101537579227 1.370780813604048 0 0.71318645322083074 1.246702098928443 0 0.57147965461975991 1.2472291216834761 0 0.57147965461975991 1.2472291216834761 0 0.42772459507389549 1.2429924675022059 0 0.49769215192747779 1.3691228671960749 0 0.57147965461975991 1.2472291216834761 0 0.42772459507389549 1.2429924675022059 0 0.50105200202129974 1.1231105411754949 0 0.42772459507389549 1.2429924675022059 0 0.50105200202129974 1.1231105411754949 0 0.35723491808528002 1.1204089262615491 0 0.42772459507389549 1.2429924675022059 0 0.49769215192747779 1.3691228671960749 0 0.35404229584497188 1.365913983939661 0 0.42593700932761119 1.4932105417128021 0 0.49769215192747779 1.3691228671960749 0 0.35404229584497188 1.365913983939661 0 0.5709812421680337 1.49447102461245 0 0.42593700932761119 1.4932105417128021 0 0.49769215192747779 1.3691228671960749 0 0.57146100403685018 0.75258289532342593 0 0.71537080136980369 0.7565812122385458 0 0.64285714285588325 0.87628208517373918 0 0.57146100403685018 0.75258289532342593 0 0.64285714285588325 0.87628208517373918 0 0.49999999999885258 0.87628208517384021 0 0.78149925341697946 0.88257916460195274 0 0.71537080136980369 0.7565812122385458 0 0.64285714285588325 0.87628208517373918 0 0.78149925341697946 0.88257916460195274 0 0.64285714285588325 0.87628208517373918 0 0.71428571428496201 1 0 0.64285714285588325 0.87628208517373918 0 0.57142857142744297 1 0 0.49999999999885258 0.87628208517384021 0 0.64285714285588325 0.87628208517373918 0 0.57142857142744297 1 0 0.71428571428496201 1 0 0.78018926648585263 1.1205280434881351 0 0.71428571428496201 1 0 0.64211163998861909 1.1230850406615951 0 0.57142857142744297 1 0 0.71428571428496201 1 0 0.64211163998861909 1.1230850406615951 0 0.57142857142744297 1 0 0.64211163998861909 1.1230850406615951 0 0.50105200202129974 1.1231105411754949 0 0.57142857142744297 1 0 0.50105200202129974 1.1231105411754949 0 0.42857142857032021 1 0 0.50105200202129974 1.1231105411754949 0 0.42857142857032021 1 0 0.35723491808528002 1.1204089262615491 0 0.57142857142744297 1 0 0.42857142857032021 1 0 0.49999999999885258 0.87628208517384021 0 0.42857142857032021 1 0 0.49999999999885258 0.87628208517384021 0 0.35831043108656913 0.87695618430515165 0 0.49999999999885258 0.87628208517384021 0 0.42876602422768972 0.75267652020288756 0 0.35831043108656913 0.87695618430515165 0 0.57146100403685018 0.75258289532342593 0 0.49999999999885258 0.87628208517384021 0 0.42876602422768972 0.75267652020288756 0 0.28454251053718921 0.75357332720455328 0 0.22029060869521661 0.88080238224013152 0 0.12868163055416221 0.76697400229767487 0 0.28454251053718921 0.75357332720455328 0 0.35831043108656913 0.87695618430515165 0 0.22029060869521661 0.88080238224013152 0 0.42876602422768972 0.75267652020288756 0 0.28454251053718921 0.75357332720455328 0 0.35831043108656913 0.87695618430515165 0 0.35831043108656913 0.87695618430515165 0 0.22029060869521661 0.88080238224013152 0 0.28571428571359381 1 0 0.22029060869521661 0.88080238224013152 0 0.28571428571359381 1 0 0.14285714285686729 1 0 0.42857142857032021 1 0 0.35831043108656913 0.87695618430515165 0 0.28571428571359381 1 0 0.42857142857032021 1 0 0.28571428571359381 1 0 0.35723491808528002 1.1204089262615491 0 0.28571428571359381 1 0 0.35723491808528002 1.1204089262615491 0 0.21715807700202849 1.116548780836722 0 0.28571428571359381 1 0 0.21715807700202849 1.116548780836722 0 0.14285714285686729 1 0 0.21715807700202849 1.116548780836722 0 0.1045786867955263 1.1045786867956 0 0.14285714285686729 1 0 0.1045786867955263 1.1045786867956 0 0 1 0 0 1.142857142857143 0 0.1045786867955263 1.1045786867956 0 0 1 0 0.14285714285686729 1 0 0 1 0 0.14285714285686729 1 0 0.1045786867957653 0.89542131320405993 0 0.22029060869521661 0.88080238224013152 0 0.1045786867957653 0.89542131320405993 0 0.12868163055416221 0.76697400229767487 0 0.22029060869521661 0.88080238224013152 0 0.14285714285686729 1 0 0.1045786867957653 0.89542131320405993 0 0 1 0 0.1045786867957653 0.89542131320405993 0 0 0.85714285714248095 0 0.1045786867957653 0.89542131320405993 0 0 0.85714285714248095 0 0.12868163055416221 0.76697400229767487 0 0 0.71428571428496201 0 0 0.85714285714248095 0 0.12868163055416221 0.76697400229767487 0 0.2085843731968674 1.3627973047133739 0 0.27804612003647688 1.494591548660307 0 0.12654278762825799 1.4981772993068549 0 0.2085843731968674 1.3627973047133739 0 0.27804612003647688 1.494591548660307 0 0.35404229584497188 1.365913983939661 0 0.42593700932761119 1.4932105417128021 0 0.27804612003647688 1.494591548660307 0 0.35404229584497188 1.365913983939661 0 0.2085843731968674 1.3627973047133739 0 0.35404229584497188 1.365913983939661 0 0.2831891201305422 1.2398017680548721 0 0.42772459507389549 1.2429924675022059 0 0.35404229584497188 1.365913983939661 0 0.2831891201305422 1.2398017680548721 0 0.42772459507389549 1.2429924675022059 0 0.35723491808528002 1.1204089262615491 0 0.2831891201305422 1.2398017680548721 0 0.35723491808528002 1.1204089262615491 0 0.21715807700202849 1.116548780836722 0 0.2831891201305422 1.2398017680548721 0 0.21715807700202849 1.116548780836722 0 0.2831891201305422 1.2398017680548721 0 0.1281705103889863 1.2304843984160669 0 0.2085843731968674 1.3627973047133739 0 0.2831891201305422 1.2398017680548721 0 0.1281705103889863 1.2304843984160669 0 0.21715807700202849 1.116548780836722 0 0.1045786867955263 1.1045786867956 0 0.1281705103889863 1.2304843984160669 0 0.1045786867955263 1.1045786867956 0 0.1281705103889863 1.2304843984160669 0 0 1.142857142857143 0 0.1281705103889863 1.2304843984160669 0 0 1.2857142857142849 0 0.088385776599929494 1.357142857142857 0 0.1281705103889863 1.2304843984160669 0 0 1.142857142857143 0 0 1.2857142857142849 0 0 1.2857142857142849 0 0.088385776599929494 1.357142857142857 0 0 1.4285714285714279 0 0.2085843731968674 1.3627973047133739 0 0.088385776599929494 1.357142857142857 0 0.12654278762825799 1.4981772993068549 0 0.2085843731968674 1.3627973047133739 0 0.1281705103889863 1.2304843984160669 0 0.088385776599929494 1.357142857142857 0 0.12654278762825799 1.4981772993068549 0 0 1.4285714285714279 0 0 1.571428571428571 0 0.088385776599929494 1.357142857142857 0 0.12654278762825799 1.4981772993068549 0 0 1.4285714285714279 0 0.12654278762825799 1.4981772993068549 0 0 1.571428571428571 0 0.093464308857800493 1.636633879872754 0 0 1.571428571428571 0 0.093464308857800493 1.636633879872754 0 0 1.714285714285714 0 0.093464308857800493 1.636633879872754 0 0.21204462330902701 1.6281978226174341 0 0.12873413335171741 1.7710799917251949 0 0.12654278762825799 1.4981772993068549 0 0.093464308857800493 1.636633879872754 0 0.21204462330902701 1.6281978226174341 0 0.27804612003647688 1.494591548660307 0 0.12654278762825799 1.4981772993068549 0 0.21204462330902701 1.6281978226174341 0 0.21204462330902701 1.6281978226174341 0 0.35661818314176119 1.6201734641978449 0 0.2815234200304042 1.7546180202569051 0 0.27804612003647688 1.494591548660307 0 0.21204462330902701 1.6281978226174341 0 0.35661818314176119 1.6201734641978449 0 0.42593700932761119 1.4932105417128021 0 0.27804612003647688 1.494591548660307 0 0.35661818314176119 1.6201734641978449 0 0.2815234200304042 1.7546180202569051 0 0.35415439180319602 1.875698076300893 0 0.42857142856855118 1.752171560420507 0 0.2815234200304042 1.7546180202569051 0 0.21616732492381949 1.8828959187492971 0 0.35415439180319602 1.875698076300893 0 0.35661818314176119 1.6201734641978449 0 0.2815234200304042 1.7546180202569051 0 0.42857142856855118 1.752171560420507 0 0.21204462330902701 1.6281978226174341 0 0.2815234200304042 1.7546180202569051 0 0.12873413335171741 1.7710799917251949 0 0.2815234200304042 1.7546180202569051 0 0.12873413335171741 1.7710799917251949 0 0.21616732492381949 1.8828959187492971 0 0.12873413335171741 1.7710799917251949 0 0.1040205757871384 1.895979424212787 0 0.21616732492381949 1.8828959187492971 0 0.093464308857800493 1.636633879872754 0 0.12873413335171741 1.7710799917251949 0 0 1.714285714285714 0 0.12873413335171741 1.7710799917251949 0 0 1.714285714285714 0 0 1.857142857142857 0 0.12873413335171741 1.7710799917251949 0 0 1.857142857142857 0 0.1040205757871384 1.895979424212787 0 0 2 0 0.14285714285686729 2 0 0.1040205757871384 1.895979424212787 0 0 1.857142857142857 0 0 2 0 0.1040205757871384 1.895979424212787 0 0 2 0 0.14285714285686729 2 0 0.10402057578714501 2.104020575787219 0 0.14285714285686729 2 0 0.1040205757871384 1.895979424212787 0 0.21616732492381949 1.8828959187492971 0 0 2.1428571428571428 0 0.12873413335172121 2.2289200082748062 0 0 2.2857142857142851 0 0 2.1428571428571428 0 0.10402057578714501 2.104020575787219 0 0.12873413335172121 2.2289200082748062 0 0 2 0 0 2.1428571428571428 0 0.10402057578714501 2.104020575787219 0 0.10402057578714501 2.104020575787219 0 0.12873413335172121 2.2289200082748062 0 0.21616732492382371 2.1171040812507051 0 0.14285714285686729 2 0 0.10402057578714501 2.104020575787219 0 0.21616732492382371 2.1171040812507051 0 0.12873413335172121 2.2289200082748062 0 0.21616732492382371 2.1171040812507051 0 0.2815234200304122 2.2453819797430978 0 0.21616732492382371 2.1171040812507051 0 0.35415439180320291 2.1243019236991101 0 0.28571428571359381 2 0 0.21616732492382371 2.1171040812507051 0 0.35415439180320291 2.1243019236991101 0 0.2815234200304122 2.2453819797430978 0 0.35415439180320291 2.1243019236991101 0 0.2815234200304122 2.2453819797430978 0 0.42857142856855918 2.2478284395795001 0 0.14285714285686729 2 0 0.21616732492381949 1.8828959187492971 0 0.28571428571359381 2 0 0.14285714285686729 2 0 0.21616732492382371 2.1171040812507051 0 0.28571428571359381 2 0 0.35415439180320291 2.1243019236991101 0 0.28571428571359381 2 0 0.42857142857032021 2 0 0.28571428571359381 2 0 0.35415439180319602 1.875698076300893 0 0.42857142857032021 2 0 0.21616732492381949 1.8828959187492971 0 0.28571428571359381 2 0 0.35415439180319602 1.875698076300893 0 0.35415439180319602 1.875698076300893 0 0.42857142857032021 2 0 0.49927531931007929 1.874059986305624 0 0.42857142857032021 2 0 0.49927531931008179 2.1259400136943771 0 0.57142857142744297 2 0 0.42857142857032021 2 0 0.57142857142744297 2 0 0.49927531931007929 1.874059986305624 0 0.35415439180320291 2.1243019236991101 0 0.42857142856855918 2.2478284395795001 0 0.49927531931008179 2.1259400136943771 0 0.35415439180320291 2.1243019236991101 0 0.42857142857032021 2 0 0.49927531931008179 2.1259400136943771 0 0.42857142856855918 2.2478284395795001 0 0.49927531931008179 2.1259400136943771 0 0.57126208756432351 2.2553423194843969 0 0.49927531931008179 2.1259400136943771 0 0.64222861727828873 2.130282196703202 0 0.57126208756432351 2.2553423194843969 0 0.64222861727828873 2.130282196703202 0 0.57126208756432351 2.2553423194843969 0 0.7133104372685124 2.2558131098502412 0 0.49927531931008179 2.1259400136943771 0 0.64222861727828873 2.130282196703202 0 0.57142857142744297 2 0 0.64222861727828873 2.130282196703202 0 0.71428571428496201 2 0 0.78018926648515108 2.1255909491940099 0 0.64222861727828873 2.130282196703202 0 0.7133104372685124 2.2558131098502412 0 0.78018926648515108 2.1255909491940099 0 0.57142857142744297 2 0 0.71428571428496201 2 0 0.6422286172782864 1.869717803296798 0 0.57142857142744297 2 0 0.6422286172782864 1.869717803296798 0 0.49927531931007929 1.874059986305624 0 0.64222861727828873 2.130282196703202 0 0.57142857142744297 2 0 0.71428571428496201 2 0 0.71428571428496201 2 0 0.6422286172782864 1.869717803296798 0 0.78018926648514864 1.8744090508059901 0 0.6422286172782864 1.869717803296798 0 0.71331043726850674 1.744186890149759 0 0.78018926648514864 1.8744090508059901 0 0.6422286172782864 1.869717803296798 0 0.57126208756431718 1.7446576805156051 0 0.71331043726850674 1.744186890149759 0 0.6422286172782864 1.869717803296798 0 0.57126208756431718 1.7446576805156051 0 0.49927531931007929 1.874059986305624 0 0.57126208756431718 1.7446576805156051 0 0.71331043726850674 1.744186890149759 0 0.64269698385324503 1.618739532771452 0 0.71331043726850674 1.744186890149759 0 0.64269698385324503 1.618739532771452 0 0.78571428571188839 1.618589574132365 0 0.71428571428344279 1.494871659305963 0 0.64269698385324503 1.618739532771452 0 0.78571428571188839 1.618589574132365 0 0.71428571428344279 1.494871659305963 0 0.5709812421680337 1.49447102461245 0 0.64269698385324503 1.618739532771452 0 0.5709812421680337 1.49447102461245 0 0.64269698385324503 1.618739532771452 0 0.49948637524749079 1.619889960661181 0 0.57126208756431718 1.7446576805156051 0 0.64269698385324503 1.618739532771452 0 0.49948637524749079 1.619889960661181 0 0.5709812421680337 1.49447102461245 0 0.42593700932761119 1.4932105417128021 0 0.49948637524749079 1.619889960661181 0 0.42593700932761119 1.4932105417128021 0 0.35661818314176119 1.6201734641978449 0 0.49948637524749079 1.619889960661181 0 0.35661818314176119 1.6201734641978449 0 0.49948637524749079 1.619889960661181 0 0.42857142856855118 1.752171560420507 0 0.35415439180319602 1.875698076300893 0 0.42857142856855118 1.752171560420507 0 0.49927531931007929 1.874059986305624 0 0.57126208756431718 1.7446576805156051 0 0.42857142856855118 1.752171560420507 0 0.49927531931007929 1.874059986305624 0 0.57126208756431718 1.7446576805156051 0 0.49948637524749079 1.619889960661181 0 0.42857142856855118 1.752171560420507 0 0.28571428571359381 3 0 0.35723491808528102 2.87959107373845 0 0.42857142857032021 3 0 0.28571428571359381 3 0 0.35723491808528102 2.87959107373845 0 0.21715807700202869 2.883451219163276 0 0.35723491808528102 2.87959107373845 0 0.21715807700202869 2.883451219163276 0 0.28318912013054431 2.760198231945127 0 0.28571428571359381 3 0 0.21715807700202869 2.883451219163276 0 0.14285714285686729 3 0 0.21715807700202869 2.883451219163276 0 0.14285714285686729 3 0 0.10457868679552811 2.8954213132043991 0 0 3 0 0 2.8571428571428572 0 0.10457868679552811 2.8954213132043991 0 0.14285714285686729 3 0 0 3 0 0.10457868679552811 2.8954213132043991 0 0 2.8571428571428572 0 0.10457868679552811 2.8954213132043991 0 0.1281705103889878 2.7695156015839308 0 0.21715807700202869 2.883451219163276 0 0.10457868679552811 2.8954213132043991 0 0.1281705103889878 2.7695156015839308 0 0 2.8571428571428572 0 0.1281705103889878 2.7695156015839308 0 0 2.714285714285714 0 0.1281705103889878 2.7695156015839308 0 0 2.714285714285714 0 0.088385776599930521 2.6428571428571428 0 0 2.714285714285714 0 0.088385776599930521 2.6428571428571428 0 0 2.5714285714285712 0 0.1281705103889878 2.7695156015839308 0 0.088385776599930521 2.6428571428571428 0 0.20858437319687029 2.6372026952866259 0 0.21715807700202869 2.883451219163276 0 0.1281705103889878 2.7695156015839308 0 0.28318912013054431 2.760198231945127 0 0.1281705103889878 2.7695156015839308 0 0.20858437319687029 2.6372026952866259 0 0.28318912013054431 2.760198231945127 0 0.35723491808528102 2.87959107373845 0 0.28318912013054431 2.760198231945127 0 0.42772459507389821 2.7570075324977932 0 0.28318912013054431 2.760198231945127 0 0.35404229584497637 2.6340860160603379 0 0.42772459507389821 2.7570075324977932 0 0.20858437319687029 2.6372026952866259 0 0.28318912013054431 2.760198231945127 0 0.35404229584497637 2.6340860160603379 0 0.35404229584497637 2.6340860160603379 0 0.27804612003648221 2.5054084513396928 0 0.42593700932761791 2.506789458287197 0 0.27804612003648221 2.5054084513396928 0 0.35661818314176918 2.3798265358021551 0 0.42593700932761791 2.506789458287197 0 0.27804612003648221 2.5054084513396928 0 0.1265427876282616 2.5018227006931442 0 0.21204462330903229 2.3718021773825648 0 0.20858437319687029 2.6372026952866259 0 0.27804612003648221 2.5054084513396928 0 0.1265427876282616 2.5018227006931442 0 0.20858437319687029 2.6372026952866259 0 0.35404229584497637 2.6340860160603379 0 0.27804612003648221 2.5054084513396928 0 0.088385776599930521 2.6428571428571428 0 0.20858437319687029 2.6372026952866259 0 0.1265427876282616 2.5018227006931442 0 0.088385776599930521 2.6428571428571428 0 0 2.5714285714285712 0 0.1265427876282616 2.5018227006931442 0 0 2.5714285714285712 0 0.1265427876282616 2.5018227006931442 0 0 2.4285714285714279 0 0.1265427876282616 2.5018227006931442 0 0.093464308857803033 2.363366120127246 0 0.21204462330903229 2.3718021773825648 0 0.1265427876282616 2.5018227006931442 0 0.093464308857803033 2.363366120127246 0 0 2.4285714285714279 0 0.093464308857803033 2.363366120127246 0 0 2.4285714285714279 0 0 2.2857142857142851 0 0.12873413335172121 2.2289200082748062 0 0.093464308857803033 2.363366120127246 0 0 2.2857142857142851 0 0.12873413335172121 2.2289200082748062 0 0.093464308857803033 2.363366120127246 0 0.21204462330903229 2.3718021773825648 0 0.12873413335172121 2.2289200082748062 0 0.2815234200304122 2.2453819797430978 0 0.21204462330903229 2.3718021773825648 0 0.27804612003648221 2.5054084513396928 0 0.21204462330903229 2.3718021773825648 0 0.35661818314176918 2.3798265358021551 0 0.2815234200304122 2.2453819797430978 0 0.21204462330903229 2.3718021773825648 0 0.35661818314176918 2.3798265358021551 0 0.2815234200304122 2.2453819797430978 0 0.42857142856855918 2.2478284395795001 0 0.35661818314176918 2.3798265358021551 0 0.42857142856855918 2.2478284395795001 0 0.35661818314176918 2.3798265358021551 0 0.49948637524749862 2.3801100393388199 0 0.35661818314176918 2.3798265358021551 0 0.49948637524749862 2.3801100393388199 0 0.42593700932761791 2.506789458287197 0 0.42857142856855918 2.2478284395795001 0 0.49948637524749862 2.3801100393388199 0 0.57126208756432351 2.2553423194843969 0 0.49948637524749862 2.3801100393388199 0 0.57126208756432351 2.2553423194843969 0 0.64269698385325302 2.3812604672285489 0 0.57126208756432351 2.2553423194843969 0 0.7133104372685124 2.2558131098502412 0 0.64269698385325302 2.3812604672285489 0 0.7133104372685124 2.2558131098502412 0 0.64269698385325302 2.3812604672285489 0 0.78571428571189661 2.3814104258676352 0 0.64269698385325302 2.3812604672285489 0 0.714285714283452 2.5051283406940419 0 0.78571428571189661 2.3814104258676352 0 0.49948637524749862 2.3801100393388199 0 0.64269698385325302 2.3812604672285489 0 0.57098124216804058 2.5055289753875498 0 0.64269698385325302 2.3812604672285489 0 0.57098124216804058 2.5055289753875498 0 0.714285714283452 2.5051283406940419 0 0.714285714283452 2.5051283406940419 0 0.64248101537579549 2.6292191863959529 0 0.78389141510404725 2.630919560373445 0 0.57098124216804058 2.5055289753875498 0 0.49769215192748217 2.6308771328039229 0 0.64248101537579549 2.6292191863959529 0 0.57098124216804058 2.5055289753875498 0 0.714285714283452 2.5051283406940419 0 0.64248101537579549 2.6292191863959529 0 0.57098124216804058 2.5055289753875498 0 0.42593700932761791 2.506789458287197 0 0.49769215192748217 2.6308771328039229 0 0.49948637524749862 2.3801100393388199 0 0.57098124216804058 2.5055289753875498 0 0.42593700932761791 2.506789458287197 0 0.35404229584497637 2.6340860160603379 0 0.42593700932761791 2.506789458287197 0 0.49769215192748217 2.6308771328039229 0 0.35404229584497637 2.6340860160603379 0 0.42772459507389821 2.7570075324977932 0 0.49769215192748217 2.6308771328039229 0 0.42772459507389821 2.7570075324977932 0 0.57147965461976069 2.752770878316519 0 0.50105200202130085 2.8768894588245049 0 0.42772459507389821 2.7570075324977932 0 0.49769215192748217 2.6308771328039229 0 0.57147965461976069 2.752770878316519 0 0.49769215192748217 2.6308771328039229 0 0.64248101537579549 2.6292191863959529 0 0.57147965461976069 2.752770878316519 0 0.64248101537579549 2.6292191863959529 0 0.71318645322081142 2.7532979010713579 0 0.57147965461976069 2.752770878316519 0 0.64248101537579549 2.6292191863959529 0 0.71318645322081142 2.7532979010713579 0 0.78389141510404725 2.630919560373445 0 0.71318645322081142 2.7532979010713579 0 0.57147965461976069 2.752770878316519 0 0.64211163998861565 2.8769149593383769 0 0.57147965461976069 2.752770878316519 0 0.64211163998861565 2.8769149593383769 0 0.50105200202130085 2.8768894588245049 0 0.71318645322081142 2.7532979010713579 0 0.64211163998861565 2.8769149593383769 0 0.78018926648583442 2.8794719565116988 0 0.64211163998861565 2.8769149593383769 0 0.71428571428496201 3 0 0.78018926648583442 2.8794719565116988 0 0.64211163998861565 2.8769149593383769 0 0.71428571428496201 3 0 0.57142857142744297 3 0 0.64211163998861565 2.8769149593383769 0 0.57142857142744297 3 0 0.50105200202130085 2.8768894588245049 0 0.57142857142744297 3 0 0.50105200202130085 2.8768894588245049 0 0.42857142857032021 3 0 0.35723491808528102 2.87959107373845 0 0.42772459507389821 2.7570075324977932 0 0.50105200202130085 2.8768894588245049 0 0.35723491808528102 2.87959107373845 0 0.50105200202130085 2.8768894588245049 0 0.42857142857032021 3 0 1.1045786867955549 2.8954213132044448 0 1 3 0 1.142857142857143 3 0 1.1045786867955549 2.8954213132044448 0 1 2.8571428571428572 0 1 3 0 1.1045786867955549 2.8954213132044448 0 1 2.8571428571428572 0 1.1205280434878859 2.780189266486456 0 1 2.8571428571428572 0 1 3 0 0.89542131320410789 2.8954213132042099 0 1 3 0 0.85714285714248095 3 0 0.89542131320410789 2.8954213132042099 0 0.85714285714248095 3 0 0.78018926648583442 2.8794719565116988 0 0.89542131320410789 2.8954213132042099 0 0.71428571428496201 3 0 0.85714285714248095 3 0 0.78018926648583442 2.8794719565116988 0 1 2.8571428571428572 0 0.89542131320410789 2.8954213132042099 0 0.86814175826561968 2.7676280636349269 0 0.78018926648583442 2.8794719565116988 0 0.89542131320410789 2.8954213132042099 0 0.86814175826561968 2.7676280636349269 0 0.71318645322081142 2.7532979010713579 0 0.78018926648583442 2.8794719565116988 0 0.86814175826561968 2.7676280636349269 0 0.71318645322081142 2.7532979010713579 0 0.86814175826561968 2.7676280636349269 0 0.78389141510404725 2.630919560373445 0 0.86814175826561968 2.7676280636349269 0 0.78389141510404725 2.630919560373445 0 0.9044833397938421 2.6408474355902611 0 0.86814175826561968 2.7676280636349269 0 0.9044833397938421 2.6408474355902611 0 1 2.714285714285714 0 0.9044833397938421 2.6408474355902611 0 1 2.714285714285714 0 1 2.5714285714285712 0 1 2.8571428571428572 0 0.86814175826561968 2.7676280636349269 0 1 2.714285714285714 0 1 2.8571428571428572 0 1 2.714285714285714 0 1.1205280434878859 2.780189266486456 0 1 2.714285714285714 0 1.1231862696032711 2.6419363063191699 0 1 2.5714285714285712 0 1 2.714285714285714 0 1.1205280434878859 2.780189266486456 0 1.1231862696032711 2.6419363063191699 0 1.1231862696032711 2.6419363063191699 0 1.1237179148263481 2.4999999999999978 0 1 2.5714285714285712 0 1.1237179148263481 2.4999999999999978 0 1 2.5714285714285712 0 1 2.4285714285714279 0 1 2.5714285714285712 0 0.87194859075748876 2.5024506208783599 0 1 2.4285714285714279 0 0.78389141510404725 2.630919560373445 0 0.9044833397938421 2.6408474355902611 0 0.87194859075748876 2.5024506208783599 0 0.9044833397938421 2.6408474355902611 0 1 2.5714285714285712 0 0.87194859075748876 2.5024506208783599 0 0.714285714283452 2.5051283406940419 0 0.78389141510404725 2.630919560373445 0 0.87194859075748876 2.5024506208783599 0 0.714285714283452 2.5051283406940419 0 0.87194859075748876 2.5024506208783599 0 0.78571428571189661 2.3814104258676352 0 0.87194859075748876 2.5024506208783599 0 0.905136104095428 2.367107595633493 0 0.78571428571189661 2.3814104258676352 0 0.87194859075748876 2.5024506208783599 0 0.905136104095428 2.367107595633493 0 1 2.4285714285714279 0 0.7133104372685124 2.2558131098502412 0 0.78571428571189661 2.3814104258676352 0 0.86801764400775483 2.2373912171357588 0 0.905136104095428 2.367107595633493 0 0.78571428571189661 2.3814104258676352 0 0.86801764400775483 2.2373912171357588 0 0.905136104095428 2.367107595633493 0 1 2.2857142857142851 0 0.86801764400775483 2.2373912171357588 0 0.905136104095428 2.367107595633493 0 1 2.2857142857142851 0 1 2.4285714285714279 0 1.1237179148263481 2.4999999999999978 0 1 2.4285714285714279 0 1.124445554570056 2.3535499438421961 0 1 2.2857142857142851 0 1 2.4285714285714279 0 1.124445554570056 2.3535499438421961 0 1 2.2857142857142851 0 1.124445554570056 2.3535499438421961 0 1.1237179148263481 2.2142857142857149 0 1.124445554570056 2.3535499438421961 0 1.2437589323753271 2.2790339186609172 0 1.1237179148263481 2.2142857142857149 0 1.1237179148263481 2.4999999999999978 0 1.124445554570056 2.3535499438421961 0 1.247435829652694 2.4285714285714248 0 1.124445554570056 2.3535499438421961 0 1.247435829652694 2.4285714285714248 0 1.2437589323753271 2.2790339186609172 0 1.247435829652694 2.4285714285714248 0 1.2437589323753271 2.2790339186609172 0 1.367319104369215 2.3469268258187319 0 1.2437589323753271 2.2790339186609172 0 1.367319104369215 2.3469268258187319 0 1.3682878852476059 2.2035940021081579 0 1.4944588869160489 2.2778135148397252 0 1.367319104369215 2.3469268258187319 0 1.3682878852476059 2.2035940021081579 0 1.49336243329776 2.4259573724460979 0 1.367319104369215 2.3469268258187319 0 1.3698831109599341 2.4977991981870939 0 1.4944588869160489 2.2778135148397252 0 1.49336243329776 2.4259573724460979 0 1.367319104369215 2.3469268258187319 0 1.247435829652694 2.4285714285714248 0 1.367319104369215 2.3469268258187319 0 1.3698831109599341 2.4977991981870939 0 1.49336243329776 2.4259573724460979 0 1.3698831109599341 2.4977991981870939 0 1.4946221303562011 2.5709963746106008 0 1.3698831109599341 2.4977991981870939 0 1.4946221303562011 2.5709963746106008 0 1.370927204302999 2.6424647637622658 0 1.3698831109599341 2.4977991981870939 0 1.2473472221155171 2.5712750986722401 0 1.370927204302999 2.6424647637622658 0 1.247435829652694 2.4285714285714248 0 1.3698831109599341 2.4977991981870939 0 1.2473472221155171 2.5712750986722401 0 1.1237179148263481 2.4999999999999978 0 1.247435829652694 2.4285714285714248 0 1.2473472221155171 2.5712750986722401 0 1.1231862696032711 2.6419363063191699 0 1.1237179148263481 2.4999999999999978 0 1.2473472221155171 2.5712750986722401 0 1.1205280434878859 2.780189266486456 0 1.1231862696032711 2.6419363063191699 0 1.2467630522735731 2.713120429682879 0 1.1231862696032711 2.6419363063191699 0 1.2473472221155171 2.5712750986722401 0 1.2467630522735731 2.713120429682879 0 1.1205280434878859 2.780189266486456 0 1.2467630522735731 2.713120429682879 0 1.2323855807482531 2.8681303673999259 0 1.2467630522735731 2.713120429682879 0 1.3691149969664549 2.7838777025796868 0 1.2323855807482531 2.8681303673999259 0 1.2473472221155171 2.5712750986722401 0 1.2467630522735731 2.713120429682879 0 1.370927204302999 2.6424647637622658 0 1.2467630522735731 2.713120429682879 0 1.370927204302999 2.6424647637622658 0 1.3691149969664549 2.7838777025796868 0 1.370927204302999 2.6424647637622658 0 1.4948716593053959 2.7142857142857029 0 1.3691149969664549 2.7838777025796868 0 1.4946221303562011 2.5709963746106008 0 1.370927204302999 2.6424647637622658 0 1.4948716593053959 2.7142857142857029 0 1.4948716593053959 2.7142857142857029 0 1.3691149969664549 2.7838777025796868 0 1.49754937912118 2.871948590758397 0 1.3691149969664549 2.7838777025796868 0 1.3591560776536049 2.904481510101697 0 1.2323855807482531 2.8681303673999259 0 1.3691149969664549 2.7838777025796868 0 1.3591560776536049 2.904481510101697 0 1.49754937912118 2.871948590758397 0 1.3591560776536049 2.904481510101697 0 1.49754937912118 2.871948590758397 0 1.4285714285714279 3 0 1.49754937912118 2.871948590758397 0 1.4285714285714279 3 0 1.571428571428571 3 0 1.3591560776536049 2.904481510101697 0 1.4285714285714279 3 0 1.2857142857142849 3 0 1.3591560776536049 2.904481510101697 0 1.2857142857142849 3 0 1.2323855807482531 2.8681303673999259 0 1.2857142857142849 3 0 1.2323855807482531 2.8681303673999259 0 1.142857142857143 3 0 1.1045786867955549 2.8954213132044448 0 1.1205280434878859 2.780189266486456 0 1.2323855807482531 2.8681303673999259 0 1.1045786867955549 2.8954213132044448 0 1.2323855807482531 2.8681303673999259 0 1.142857142857143 3 0 1 1.714285714285714 0 1 1.857142857142857 0 0.86801764400775172 1.7626087828642401 0 1 1.857142857142857 0 1.1045786867955549 1.895421313204446 0 1.1286816305548799 1.7669740022979501 0 1 1.714285714285714 0 1.0919758494404179 1.6390607956138989 0 1.1286816305548799 1.7669740022979501 0 1 1.714285714285714 0 1 1.857142857142857 0 1.1286816305548799 1.7669740022979501 0 1.0919758494404179 1.6390607956138989 0 1 1.571428571428571 0 1.1265427876294609 1.501822700692834 0 1 1.4285714285714279 0 1 1.571428571428571 0 1.1265427876294609 1.501822700692834 0 1 1.714285714285714 0 1.0919758494404179 1.6390607956138989 0 1 1.571428571428571 0 1 1.714285714285714 0 1 1.571428571428571 0 0.90513610409542911 1.632892404366491 0 0.90513610409542911 1.632892404366491 0 0.78571428571188839 1.618589574132365 0 0.86801764400775172 1.7626087828642401 0 0.87194859075750586 1.497549379121565 0 1 1.571428571428571 0 0.90513610409542911 1.632892404366491 0 0.87194859075750586 1.497549379121565 0 0.90513610409542911 1.632892404366491 0 0.78571428571188839 1.618589574132365 0 0.87194859075750586 1.497549379121565 0 0.71428571428344279 1.494871659305963 0 0.78571428571188839 1.618589574132365 0 0.71331043726850674 1.744186890149759 0 0.78571428571188839 1.618589574132365 0 0.86801764400775172 1.7626087828642401 0 1 1.714285714285714 0 0.90513610409542911 1.632892404366491 0 0.86801764400775172 1.7626087828642401 0 1 1.857142857142857 0 0.86801764400775172 1.7626087828642401 0 0.89542131320410678 1.895421313204209 0 0.86801764400775172 1.7626087828642401 0 0.78018926648514864 1.8744090508059901 0 0.89542131320410678 1.895421313204209 0 0.71331043726850674 1.744186890149759 0 0.86801764400775172 1.7626087828642401 0 0.78018926648514864 1.8744090508059901 0 0.71428571428496201 2 0 0.78018926648514864 1.8744090508059901 0 0.85714285714248095 2 0 0.71428571428496201 2 0 0.85714285714248095 2 0 0.78018926648515108 2.1255909491940099 0 0.85714285714248095 2 0 0.8954213132041059 2.1045786867957932 0 1 2 0 0.78018926648514864 1.8744090508059901 0 0.85714285714248095 2 0 0.89542131320410678 1.895421313204209 0 0.85714285714248095 2 0 0.89542131320410678 1.895421313204209 0 1 2 0 0.7133104372685124 2.2558131098502412 0 0.78018926648515108 2.1255909491940099 0 0.86801764400775483 2.2373912171357588 0 0.78018926648515108 2.1255909491940099 0 0.8954213132041059 2.1045786867957932 0 0.86801764400775483 2.2373912171357588 0 0.85714285714248095 2 0 0.78018926648515108 2.1255909491940099 0 0.8954213132041059 2.1045786867957932 0 0.8954213132041059 2.1045786867957932 0 0.86801764400775483 2.2373912171357588 0 1 2.1428571428571428 0 1 2.2857142857142851 0 0.86801764400775483 2.2373912171357588 0 1 2.1428571428571428 0 0.8954213132041059 2.1045786867957932 0 1 2.1428571428571428 0 1 2 0 1 2.1428571428571428 0 1.1045786867955549 2.1045786867955538 0 1.1237179148263481 2.2142857142857149 0 1 2.1428571428571428 0 1.1045786867955549 2.1045786867955538 0 1 2 0 1 2.2857142857142851 0 1 2.1428571428571428 0 1.1237179148263481 2.2142857142857149 0 1 1.857142857142857 0 0.89542131320410678 1.895421313204209 0 1 2 0 1.1045786867955549 2.1045786867955538 0 1 2 0 1.142857142857143 2 0 1 2 0 1.1045786867955549 1.895421313204446 0 1.142857142857143 2 0 1 1.857142857142857 0 1 2 0 1.1045786867955549 1.895421313204446 0 1.1045786867955549 1.895421313204446 0 1.142857142857143 2 0 1.2202906086958949 1.8808023822399611 0 1.142857142857143 2 0 1.2857142857142849 2 0 1.2202906086958949 1.8808023822399611 0 1.142857142857143 2 0 1.2857142857142849 2 0 1.23134730558604 2.127275597339279 0 1.2857142857142849 2 0 1.2202906086958949 1.8808023822399611 0 1.3583104310875389 1.876956184304913 0 1.2437589323753271 2.2790339186609172 0 1.1237179148263481 2.2142857142857149 0 1.23134730558604 2.127275597339279 0 1.1045786867955549 2.1045786867955538 0 1.1237179148263481 2.2142857142857149 0 1.23134730558604 2.127275597339279 0 1.1045786867955549 2.1045786867955538 0 1.142857142857143 2 0 1.23134730558604 2.127275597339279 0 1.2857142857142849 2 0 1.23134730558604 2.127275597339279 0 1.357142857142857 2.0883857766009042 0 1.2437589323753271 2.2790339186609172 0 1.23134730558604 2.127275597339279 0 1.3682878852476059 2.2035940021081579 0 1.23134730558604 2.127275597339279 0 1.3682878852476059 2.2035940021081579 0 1.357142857142857 2.0883857766009042 0 1.357142857142857 2.0883857766009042 0 1.4981772993071649 2.1265427876294591 0 1.4285714285714279 2 0 1.3682878852476059 2.2035940021081579 0 1.357142857142857 2.0883857766009042 0 1.4981772993071649 2.1265427876294591 0 1.4944588869160489 2.2778135148397252 0 1.3682878852476059 2.2035940021081579 0 1.4981772993071649 2.1265427876294591 0 1.2857142857142849 2 0 1.3583104310875389 1.876956184304913 0 1.4285714285714279 2 0 1.2857142857142849 2 0 1.357142857142857 2.0883857766009042 0 1.4285714285714279 2 0 1.4981772993071649 2.1265427876294591 0 1.4285714285714279 2 0 1.571428571428571 2 0 1.4285714285714279 2 0 1.4999999999999989 1.876282085173651 0 1.571428571428571 2 0 1.3583104310875389 1.876956184304913 0 1.4285714285714279 2 0 1.4999999999999989 1.876282085173651 0 1.3583104310875389 1.876956184304913 0 1.4999999999999989 1.876282085173651 0 1.4287660242288751 1.752676520202513 0 1.4287660242288751 1.752676520202513 0 1.284542510538256 1.7535733272041241 0 1.35657912408646 1.6297632267705111 0 1.3583104310875389 1.876956184304913 0 1.4287660242288751 1.752676520202513 0 1.284542510538256 1.7535733272041241 0 1.2202906086958949 1.8808023822399611 0 1.3583104310875389 1.876956184304913 0 1.284542510538256 1.7535733272041241 0 1.284542510538256 1.7535733272041241 0 1.1286816305548799 1.7669740022979501 0 1.211834974696774 1.6332002948779361 0 1.2202906086958949 1.8808023822399611 0 1.284542510538256 1.7535733272041241 0 1.1286816305548799 1.7669740022979501 0 1.1045786867955549 1.895421313204446 0 1.2202906086958949 1.8808023822399611 0 1.1286816305548799 1.7669740022979501 0 1.0919758494404179 1.6390607956138989 0 1.1265427876294609 1.501822700692834 0 1.211834974696774 1.6332002948779361 0 1.1265427876294609 1.501822700692834 0 1.211834974696774 1.6332002948779361 0 1.285714285714282 1.505128340694609 0 1.0919758494404179 1.6390607956138989 0 1.1286816305548799 1.7669740022979501 0 1.211834974696774 1.6332002948779361 0 1.284542510538256 1.7535733272041241 0 1.211834974696774 1.6332002948779361 0 1.35657912408646 1.6297632267705111 0 1.211834974696774 1.6332002948779361 0 1.285714285714282 1.505128340694609 0 1.35657912408646 1.6297632267705111 0 1.285714285714282 1.505128340694609 0 1.35657912408646 1.6297632267705111 0 1.42857911129607 1.505132776317748 0 1.4287660242288751 1.752676520202513 0 1.35657912408646 1.6297632267705111 0 1.500037838044501 1.628868101326133 0 1.35657912408646 1.6297632267705111 0 1.42857911129607 1.505132776317748 0 1.500037838044501 1.628868101326133 0 1.42857911129607 1.505132776317748 0 1.5714368297319321 1.505133108628274 0 1.500037838044501 1.628868101326133 0 1.5714368297319321 1.505133108628274 0 1.500037838044501 1.628868101326133 0 1.642868854632821 1.6288530173177931 0 1.500037838044501 1.628868101326133 0 1.642868854632821 1.6288530173177931 0 1.571461004038144 1.7525828953231699 0 1.5714368297319321 1.505133108628274 0 1.642868854632821 1.6288530173177931 0 1.7164690164522749 1.505013992076764 0 1.642868854632821 1.6288530173177931 0 1.7164690164522749 1.505013992076764 0 1.7839870186351829 1.630825559243579 0 1.642868854632821 1.6288530173177931 0 1.7839870186351829 1.630825559243579 0 1.713372235145284 1.7531000633658289 0 1.7839870186351829 1.630825559243579 0 1.868181956188198 1.767586372373096 0 1.904493237859993 1.64083754547551 0 1.7839870186351829 1.630825559243579 0 1.871948590758401 1.50245062087882 0 1.904493237859993 1.64083754547551 0 1.7164690164522749 1.505013992076764 0 1.7839870186351829 1.630825559243579 0 1.871948590758401 1.50245062087882 0 1.868181956188198 1.767586372373096 0 1.713372235145284 1.7531000633658289 0 1.7801892664864549 1.879471956512115 0 1.868181956188198 1.767586372373096 0 1.7801892664864549 1.879471956512115 0 1.8954213132044451 1.8954213132044451 0 1.7839870186351829 1.630825559243579 0 1.868181956188198 1.767586372373096 0 1.713372235145284 1.7531000633658289 0 1.713372235145284 1.7531000633658289 0 1.6417894652306939 1.876906166729128 0 1.7801892664864549 1.879471956512115 0 1.713372235145284 1.7531000633658289 0 1.571461004038144 1.7525828953231699 0 1.6417894652306939 1.876906166729128 0 1.642868854632821 1.6288530173177931 0 1.713372235145284 1.7531000633658289 0 1.571461004038144 1.7525828953231699 0 1.4287660242288751 1.752676520202513 0 1.500037838044501 1.628868101326133 0 1.571461004038144 1.7525828953231699 0 1.4999999999999989 1.876282085173651 0 1.571461004038144 1.7525828953231699 0 1.6417894652306939 1.876906166729128 0 1.4999999999999989 1.876282085173651 0 1.4287660242288751 1.752676520202513 0 1.571461004038144 1.7525828953231699 0 1.4999999999999989 1.876282085173651 0 1.571428571428571 2 0 1.6417894652306939 1.876906166729128 0 1.571428571428571 2 0 1.6428571428571419 2.0966122299857219 0 1.714285714285714 2 0 1.571428571428571 2 0 1.6417894652306939 1.876906166729128 0 1.714285714285714 2 0 1.4944588869160489 2.2778135148397252 0 1.4981772993071649 2.1265427876294591 0 1.618589574131738 2.2142857142857051 0 1.4981772993071649 2.1265427876294591 0 1.571428571428571 2 0 1.6428571428571419 2.0966122299857219 0 1.4981772993071649 2.1265427876294591 0 1.6428571428571419 2.0966122299857219 0 1.618589574131738 2.2142857142857051 0 1.6428571428571419 2.0966122299857219 0 1.618589574131738 2.2142857142857051 0 1.764905672277584 2.1309733946265141 0 1.618589574131738 2.2142857142857051 0 1.764905672277584 2.1309733946265141 0 1.7480830732282899 2.2842008379910128 0 1.6428571428571419 2.0966122299857219 0 1.764905672277584 2.1309733946265141 0 1.714285714285714 2 0 1.764905672277584 2.1309733946265141 0 1.8779600310929021 2.2171362933276071 0 1.895421313204446 2.1045786867955552 0 1.764905672277584 2.1309733946265141 0 1.857142857142857 2 0 1.895421313204446 2.1045786867955552 0 1.764905672277584 2.1309733946265141 0 1.8779600310929021 2.2171362933276071 0 1.7480830732282899 2.2842008379910128 0 1.6417894652306939 1.876906166729128 0 1.7801892664864549 1.879471956512115 0 1.714285714285714 2 0 1.764905672277584 2.1309733946265141 0 1.714285714285714 2 0 1.857142857142857 2 0 1.7801892664864549 1.879471956512115 0 1.714285714285714 2 0 1.857142857142857 2 0 1.7801892664864549 1.879471956512115 0 1.857142857142857 2 0 1.8954213132044451 1.8954213132044451 0 1.8954213132044451 1.8954213132044451 0 2 2 0 2 1.857142857142857 0 1.857142857142857 2 0 1.8954213132044451 1.8954213132044451 0 2 2 0 1.857142857142857 2 0 2 2 0 1.895421313204446 2.1045786867955552 0 2 2 0 2.1045786867955552 1.8954213132044451 0 2 1.857142857142857 0 1.8779600310929021 2.2171362933276071 0 2 2.1428571428571428 0 2 2.2857142857142851 0 2 2 0 1.895421313204446 2.1045786867955552 0 2 2.1428571428571428 0 1.8779600310929021 2.2171362933276071 0 1.895421313204446 2.1045786867955552 0 2 2.1428571428571428 0 2 2 0 2 2.1428571428571428 0 2.1045786867955552 2.1045786867955552 0 2 2.1428571428571428 0 2.1237179148263481 2.2142857142857149 0 2 2.2857142857142851 0 2 2.1428571428571428 0 2.1237179148263481 2.2142857142857149 0 2.1045786867955552 2.1045786867955552 0 2.1237179148263481 2.2142857142857149 0 2.1045786867955552 2.1045786867955552 0 2.2313473055860129 2.1272755973392572 0 2.1045786867955552 2.1045786867955552 0 2.2313473055860129 2.1272755973392572 0 2.1428571428571428 2 0 2.1237179148263481 2.2142857142857149 0 2.2313473055860129 2.1272755973392572 0 2.2437590376264152 2.2790339820013181 0 2 2 0 2.1045786867955552 1.8954213132044451 0 2.1428571428571428 2 0 2.1045786867955552 1.8954213132044451 0 2.1428571428571428 2 0 2.2202906086958931 1.880802382239964 0 2 2 0 2.1045786867955552 2.1045786867955552 0 2.1428571428571428 2 0 2.2313473055860129 2.1272755973392572 0 2.1428571428571428 2 0 2.2857142857142851 2 0 2.1428571428571428 2 0 2.2202906086958931 1.880802382239964 0 2.2857142857142851 2 0 2.2202906086958931 1.880802382239964 0 2.1286816305548801 1.7669740022979501 0 2.2845425105382549 1.7535733272041241 0 2.1045786867955552 1.8954213132044451 0 2.2202906086958931 1.880802382239964 0 2.1286816305548801 1.7669740022979501 0 2.1045786867955552 1.8954213132044451 0 2.1286816305548801 1.7669740022979501 0 2 1.857142857142857 0 2.1286816305548801 1.7669740022979501 0 2.0920210771696688 1.6392662971026759 0 2 1.714285714285714 0 2.1286816305548801 1.7669740022979501 0 2.2118802024260251 1.6334057963667139 0 2.2845425105382549 1.7535733272041241 0 2.2118802024260251 1.6334057963667139 0 2.1268141540049612 1.5030557096254999 0 2.2857142857142878 1.505128340694611 0 2.1268141540049612 1.5030557096254999 0 2.0920210771696688 1.6392662971026759 0 2 1.571428571428571 0 2.2118802024260251 1.6334057963667139 0 2.1268141540049612 1.5030557096254999 0 2.0920210771696688 1.6392662971026759 0 2.1286816305548801 1.7669740022979501 0 2.2118802024260251 1.6334057963667139 0 2.0920210771696688 1.6392662971026759 0 2.0920210771696688 1.6392662971026759 0 2 1.571428571428571 0 2 1.714285714285714 0 2.1268141540049612 1.5030557096254999 0 2 1.571428571428571 0 2 1.4285714285714279 0 1.871948590758401 1.50245062087882 0 2 1.571428571428571 0 1.904493237859993 1.64083754547551 0 1.871948590758401 1.50245062087882 0 2 1.571428571428571 0 2 1.4285714285714279 0 2 1.571428571428571 0 1.904493237859993 1.64083754547551 0 2 1.714285714285714 0 1.868181956188198 1.767586372373096 0 2 1.857142857142857 0 2 1.714285714285714 0 1.868181956188198 1.767586372373096 0 1.904493237859993 1.64083754547551 0 2 1.714285714285714 0 1.868181956188198 1.767586372373096 0 1.8954213132044451 1.8954213132044451 0 2 1.857142857142857 0 2.1286816305548801 1.7669740022979501 0 2 1.857142857142857 0 2 1.714285714285714 0 1.857142857142857 3 0 1.7625829828895341 2.8680117993848531 0 1.895421313204446 2.8954213132044462 0 1.7625829828895341 2.8680117993848531 0 1.8744090508054969 2.7801892664864498 0 1.895421313204446 2.8954213132044462 0 1.857142857142857 3 0 1.7625829828895341 2.8680117993848531 0 1.714285714285714 3 0 1.7625829828895341 2.8680117993848531 0 1.714285714285714 3 0 1.6328872443713489 2.905134935171505 0 1.714285714285714 3 0 1.571428571428571 3 0 1.6328872443713489 2.905134935171505 0 1.49754937912118 2.871948590758397 0 1.571428571428571 3 0 1.6328872443713489 2.905134935171505 0 1.49754937912118 2.871948590758397 0 1.6328872443713489 2.905134935171505 0 1.618589574131748 2.7857142857142771 0 1.7625829828895341 2.8680117993848531 0 1.6328872443713489 2.905134935171505 0 1.618589574131748 2.7857142857142771 0 1.4948716593053959 2.7142857142857029 0 1.49754937912118 2.871948590758397 0 1.618589574131748 2.7857142857142771 0 1.4948716593053959 2.7142857142857029 0 1.618589574131748 2.7857142857142771 0 1.618499131669189 2.6427004919168251 0 1.4946221303562011 2.5709963746106008 0 1.4948716593053959 2.7142857142857029 0 1.618499131669189 2.6427004919168251 0 1.618589574131748 2.7857142857142771 0 1.618499131669189 2.6427004919168251 0 1.744006290327982 2.7132695249030081 0 1.618499131669189 2.6427004919168251 0 1.744006290327982 2.7132695249030081 0 1.7438144826910189 2.571013105300513 0 1.7625829828895341 2.8680117993848531 0 1.618589574131748 2.7857142857142771 0 1.744006290327982 2.7132695249030081 0 1.7625829828895341 2.8680117993848531 0 1.744006290327982 2.7132695249030081 0 1.8744090508054969 2.7801892664864498 0 1.744006290327982 2.7132695249030081 0 1.8744090508054969 2.7801892664864498 0 1.869528722044044 2.6422655888827711 0 1.744006290327982 2.7132695249030081 0 1.869528722044044 2.6422655888827711 0 1.7438144826910189 2.571013105300513 0 1.869528722044044 2.6422655888827711 0 1.8728601884303651 2.4999999999999969 0 1.7438144826910189 2.571013105300513 0 1.8728601884303651 2.4999999999999969 0 1.7438144826910189 2.571013105300513 0 1.7445056250705191 2.4267429915673051 0 1.7438144826910189 2.571013105300513 0 1.6182964483056039 2.499492291176109 0 1.7445056250705191 2.4267429915673051 0 1.618499131669189 2.6427004919168251 0 1.7438144826910189 2.571013105300513 0 1.6182964483056039 2.499492291176109 0 1.4946221303562011 2.5709963746106008 0 1.618499131669189 2.6427004919168251 0 1.6182964483056039 2.499492291176109 0 1.49336243329776 2.4259573724460979 0 1.4946221303562011 2.5709963746106008 0 1.6182964483056039 2.499492291176109 0 1.6182964483056039 2.499492291176109 0 1.619225602145042 2.355202188835702 0 1.7445056250705191 2.4267429915673051 0 1.49336243329776 2.4259573724460979 0 1.6182964483056039 2.499492291176109 0 1.619225602145042 2.355202188835702 0 1.4944588869160489 2.2778135148397252 0 1.49336243329776 2.4259573724460979 0 1.619225602145042 2.355202188835702 0 1.4944588869160489 2.2778135148397252 0 1.618589574131738 2.2142857142857051 0 1.619225602145042 2.355202188835702 0 1.618589574131738 2.2142857142857051 0 1.619225602145042 2.355202188835702 0 1.7480830732282899 2.2842008379910128 0 1.619225602145042 2.355202188835702 0 1.7480830732282899 2.2842008379910128 0 1.7445056250705191 2.4267429915673051 0 1.8728601884303651 2.4999999999999969 0 1.7445056250705191 2.4267429915673051 0 1.8702227561605891 2.3565050932945648 0 1.7480830732282899 2.2842008379910128 0 1.7445056250705191 2.4267429915673051 0 1.8702227561605891 2.3565050932945648 0 1.8779600310929021 2.2171362933276071 0 1.7480830732282899 2.2842008379910128 0 1.8702227561605891 2.3565050932945648 0 1.8779600310929021 2.2171362933276071 0 1.8702227561605891 2.3565050932945648 0 2 2.2857142857142851 0 1.8702227561605891 2.3565050932945648 0 2 2.4285714285714279 0 2 2.2857142857142851 0 1.8728601884303651 2.4999999999999969 0 1.8702227561605891 2.3565050932945648 0 2 2.4285714285714279 0 2 2.4285714285714279 0 2 2.2857142857142851 0 2.1244455545700558 2.3535499438421899 0 2.1237179148263481 2.2142857142857149 0 2 2.2857142857142851 0 2.1244455545700558 2.3535499438421899 0 2.1237179148263481 2.2142857142857149 0 2.2437590376264152 2.2790339820013181 0 2.1244455545700558 2.3535499438421899 0 2.2437590376264152 2.2790339820013181 0 2.2474358296526931 2.4285714285714239 0 2.1244455545700558 2.3535499438421899 0 2.2474358296526931 2.4285714285714239 0 2.1244455545700558 2.3535499438421899 0 2.1237179148263481 2.4999999999999978 0 2 2.4285714285714279 0 2.1244455545700558 2.3535499438421899 0 2.1237179148263481 2.4999999999999978 0 2.2474358296526931 2.4285714285714239 0 2.1237179148263481 2.4999999999999978 0 2.2473472221155188 2.571275098672237 0 2.1237179148263481 2.4999999999999978 0 2.2473472221155188 2.571275098672237 0 2.1231862696032739 2.641936306319169 0 2.1237179148263481 2.4999999999999978 0 2 2.5714285714285712 0 2.1231862696032739 2.641936306319169 0 2 2.4285714285714279 0 2.1237179148263481 2.4999999999999978 0 2 2.5714285714285712 0 1.8728601884303651 2.4999999999999969 0 2 2.4285714285714279 0 2 2.5714285714285712 0 1.869528722044044 2.6422655888827711 0 1.8728601884303651 2.4999999999999969 0 2 2.5714285714285712 0 1.8744090508054969 2.7801892664864498 0 1.869528722044044 2.6422655888827711 0 2 2.714285714285714 0 1.869528722044044 2.6422655888827711 0 2 2.5714285714285712 0 2 2.714285714285714 0 1.8744090508054969 2.7801892664864498 0 2 2.714285714285714 0 2 2.8571428571428572 0 2 2.714285714285714 0 2.1205280434878868 2.7801892664864529 0 2 2.8571428571428572 0 2 2.5714285714285712 0 2 2.714285714285714 0 2.1231862696032739 2.641936306319169 0 2 2.714285714285714 0 2.1231862696032739 2.641936306319169 0 2.1205280434878868 2.7801892664864529 0 2.1231862696032739 2.641936306319169 0 2.2467630522735749 2.713120429682875 0 2.1205280434878868 2.7801892664864529 0 2.2473472221155188 2.571275098672237 0 2.1231862696032739 2.641936306319169 0 2.2467630522735749 2.713120429682875 0 2.2467630522735749 2.713120429682875 0 2.1205280434878868 2.7801892664864529 0 2.232409009442776 2.8681560935612769 0 2.1205280434878868 2.7801892664864529 0 2.1045786867955552 2.8954213132044448 0 2.232409009442776 2.8681560935612769 0 2.1205280434878868 2.7801892664864529 0 2.1045786867955552 2.8954213132044448 0 2 2.8571428571428572 0 2.232409009442776 2.8681560935612769 0 2.1428571428571428 3 0 2.2857142857142851 3 0 2.1045786867955552 2.8954213132044448 0 2.232409009442776 2.8681560935612769 0 2.1428571428571428 3 0 2.1045786867955552 2.8954213132044448 0 2.1428571428571428 3 0 2 3 0 2.1045786867955552 2.8954213132044448 0 2 3 0 2 2.8571428571428572 0 1.8744090508054969 2.7801892664864498 0 2 2.8571428571428572 0 1.895421313204446 2.8954213132044462 0 2 3 0 2 2.8571428571428572 0 1.895421313204446 2.8954213132044462 0 1.857142857142857 3 0 2 3 0 1.895421313204446 2.8954213132044462 0 2.5714285714285712 3 0 2.498533384291155 2.8730290895352302 0 2.6413671075336191 2.906422072834058 0 2.498533384291155 2.8730290895352302 0 2.624345486027623 2.7856888613712472 0 2.6413671075336191 2.906422072834058 0 2.5714285714285712 3 0 2.498533384291155 2.8730290895352302 0 2.4285714285714279 3 0 2.4285714285714279 3 0 2.2857142857142851 3 0 2.3612561171619291 2.9048358126425291 0 2.498533384291155 2.8730290895352302 0 2.4285714285714279 3 0 2.3612561171619291 2.9048358126425291 0 2.232409009442776 2.8681560935612769 0 2.2857142857142851 3 0 2.3612561171619291 2.9048358126425291 0 2.232409009442776 2.8681560935612769 0 2.3612561171619291 2.9048358126425291 0 2.369278997828121 2.784057785709154 0 2.498533384291155 2.8730290895352302 0 2.3612561171619291 2.9048358126425291 0 2.369278997828121 2.784057785709154 0 2.2467630522735749 2.713120429682875 0 2.232409009442776 2.8681560935612769 0 2.369278997828121 2.784057785709154 0 2.2467630522735749 2.713120429682875 0 2.369278997828121 2.784057785709154 0 2.370927204303003 2.64246476376226 0 2.2473472221155188 2.571275098672237 0 2.2467630522735749 2.713120429682875 0 2.370927204303003 2.64246476376226 0 2.369278997828121 2.784057785709154 0 2.370927204303003 2.64246476376226 0 2.495616516317638 2.717626453377767 0 2.370927204303003 2.64246476376226 0 2.495616516317638 2.717626453377767 0 2.4946221303562042 2.5709963746105879 0 2.498533384291155 2.8730290895352302 0 2.369278997828121 2.784057785709154 0 2.495616516317638 2.717626453377767 0 2.498533384291155 2.8730290895352302 0 2.495616516317638 2.717626453377767 0 2.624345486027623 2.7856888613712472 0 2.495616516317638 2.717626453377767 0 2.624345486027623 2.7856888613712472 0 2.6192455835349819 2.6438414003703889 0 2.495616516317638 2.717626453377767 0 2.6192455835349819 2.6438414003703889 0 2.4946221303562042 2.5709963746105879 0 2.6192455835349819 2.6438414003703889 0 2.618402581522377 2.4995561624500251 0 2.4946221303562042 2.5709963746105879 0 2.618402581522377 2.4995561624500251 0 2.4946221303562042 2.5709963746105879 0 2.4933624332977531 2.4259573724460828 0 2.4946221303562042 2.5709963746105879 0 2.3698831109599312 2.497799198187086 0 2.4933624332977531 2.4259573724460828 0 2.370927204303003 2.64246476376226 0 2.4946221303562042 2.5709963746105879 0 2.3698831109599312 2.497799198187086 0 2.2473472221155188 2.571275098672237 0 2.370927204303003 2.64246476376226 0 2.3698831109599312 2.497799198187086 0 2.2474358296526931 2.4285714285714239 0 2.2473472221155188 2.571275098672237 0 2.3698831109599312 2.497799198187086 0 2.3698831109599312 2.497799198187086 0 2.3673193849061538 2.3469269946466551 0 2.4933624332977531 2.4259573724460828 0 2.2474358296526931 2.4285714285714239 0 2.3698831109599312 2.497799198187086 0 2.3673193849061538 2.3469269946466551 0 2.2437590376264152 2.2790339820013181 0 2.2474358296526931 2.4285714285714239 0 2.3673193849061538 2.3469269946466551 0 2.2437590376264152 2.2790339820013181 0 2.3673193849061538 2.3469269946466551 0 2.3682882362172282 2.20359421332267 0 2.3673193849061538 2.3469269946466551 0 2.4944618350609482 2.277815289041762 0 2.3682882362172282 2.20359421332267 0 2.3673193849061538 2.3469269946466551 0 2.4944618350609482 2.277815289041762 0 2.4933624332977531 2.4259573724460828 0 2.618402581522377 2.4995561624500251 0 2.4933624332977531 2.4259573724460828 0 2.619243291014496 2.3552128340480101 0 2.4944618350609482 2.277815289041762 0 2.4933624332977531 2.4259573724460828 0 2.619243291014496 2.3552128340480101 0 2.4944618350609482 2.277815289041762 0 2.619243291014496 2.3552128340480101 0 2.6185895741317191 2.2142857142856851 0 2.619243291014496 2.3552128340480101 0 2.7479931719733139 2.2843081023179281 0 2.6185895741317191 2.2142857142856851 0 2.618402581522377 2.4995561624500251 0 2.619243291014496 2.3552128340480101 0 2.7439826402435501 2.4273237749392429 0 2.619243291014496 2.3552128340480101 0 2.7439826402435501 2.4273237749392429 0 2.7479931719733139 2.2843081023179281 0 2.7439826402435501 2.4273237749392429 0 2.7479931719733139 2.2843081023179281 0 2.8701886445882661 2.3565572506718269 0 2.7479931719733139 2.2843081023179281 0 2.8701886445882661 2.3565572506718269 0 2.8779600310929019 2.217136293327608 0 3 2.2857142857142851 0 2.8701886445882661 2.3565572506718269 0 2.8779600310929019 2.217136293327608 0 3 2.4285714285714279 0 2.8701886445882661 2.3565572506718269 0 2.872982021166786 2.5000325873846538 0 3 2.2857142857142851 0 3 2.4285714285714279 0 2.8701886445882661 2.3565572506718269 0 2.7439826402435501 2.4273237749392429 0 2.8701886445882661 2.3565572506718269 0 2.872982021166786 2.5000325873846538 0 3 2.4285714285714279 0 2.872982021166786 2.5000325873846538 0 3 2.5714285714285712 0 2.872982021166786 2.5000325873846538 0 3 2.5714285714285712 0 2.8702940969356949 2.6423588347380189 0 2.872982021166786 2.5000325873846538 0 2.7446704713759029 2.571237155042541 0 2.8702940969356949 2.6423588347380189 0 2.7439826402435501 2.4273237749392429 0 2.872982021166786 2.5000325873846538 0 2.7446704713759029 2.571237155042541 0 2.618402581522377 2.4995561624500251 0 2.7439826402435501 2.4273237749392429 0 2.7446704713759029 2.571237155042541 0 2.6192455835349819 2.6438414003703889 0 2.618402581522377 2.4995561624500251 0 2.7446704713759029 2.571237155042541 0 2.6192455835349819 2.6438414003703889 0 2.7446704713759029 2.571237155042541 0 2.7461960343957288 2.7138118622537939 0 2.624345486027623 2.7856888613712472 0 2.6192455835349819 2.6438414003703889 0 2.7461960343957288 2.7138118622537939 0 2.624345486027623 2.7856888613712472 0 2.7461960343957288 2.7138118622537939 0 2.764916587633921 2.868832996132892 0 2.7461960343957288 2.7138118622537939 0 2.8756576008474641 2.7804868632666988 0 2.764916587633921 2.868832996132892 0 2.7446704713759029 2.571237155042541 0 2.7461960343957288 2.7138118622537939 0 2.8702940969356949 2.6423588347380189 0 2.7461960343957288 2.7138118622537939 0 2.8702940969356949 2.6423588347380189 0 2.8756576008474641 2.7804868632666988 0 3 2.5714285714285712 0 2.8702940969356949 2.6423588347380189 0 3 2.714285714285714 0 2.8702940969356949 2.6423588347380189 0 3 2.714285714285714 0 2.8756576008474641 2.7804868632666988 0 3 2.714285714285714 0 2.8756576008474641 2.7804868632666988 0 3 2.8571428571428572 0 2.8756576008474641 2.7804868632666988 0 2.895421313204448 2.895421313204448 0 2.764916587633921 2.868832996132892 0 2.8756576008474641 2.7804868632666988 0 2.895421313204448 2.895421313204448 0 3 2.8571428571428572 0 2.895421313204448 2.895421313204448 0 3 3 0 2.8571428571428572 3 0 2.895421313204448 2.895421313204448 0 3 2.8571428571428572 0 3 3 0 2.895421313204448 2.895421313204448 0 2.8571428571428572 3 0 2.764916587633921 2.868832996132892 0 2.8571428571428572 3 0 2.764916587633921 2.868832996132892 0 2.714285714285714 3 0 2.624345486027623 2.7856888613712472 0 2.764916587633921 2.868832996132892 0 2.6413671075336191 2.906422072834058 0 2.5714285714285712 3 0 2.6413671075336191 2.906422072834058 0 2.714285714285714 3 0 2.764916587633921 2.868832996132892 0 2.6413671075336191 2.906422072834058 0 2.714285714285714 3 0 2.5714610040381438 1.7525828953231719 0 2.5000378380445039 1.6288681013261359 0 2.4287660242288749 1.752676520202513 0 2.5714610040381438 1.7525828953231719 0 2.4287660242288749 1.752676520202513 0 2.4999999999999978 1.876282085173651 0 2.5714610040381438 1.7525828953231719 0 2.4999999999999978 1.876282085173651 0 2.6428571428571388 1.876282085173651 0 2.5714610040381438 1.7525828953231719 0 2.5000378380445039 1.6288681013261359 0 2.6427234372420072 1.628936974087531 0 2.5712671761093171 1.5052310581929651 0 2.5000378380445039 1.6288681013261359 0 2.6427234372420072 1.628936974087531 0 2.5712671761093171 1.5052310581929651 0 2.5000378380445039 1.6288681013261359 0 2.4285508356923038 1.5051491012451981 0 2.5000378380445039 1.6288681013261359 0 2.356581949440709 1.6298001978398831 0 2.4287660242288749 1.752676520202513 0 2.5000378380445039 1.6288681013261359 0 2.356581949440709 1.6298001978398831 0 2.4285508356923038 1.5051491012451981 0 2.356581949440709 1.6298001978398831 0 2.4285508356923038 1.5051491012451981 0 2.2857142857142878 1.505128340694611 0 2.2118802024260251 1.6334057963667139 0 2.356581949440709 1.6298001978398831 0 2.2857142857142878 1.505128340694611 0 2.2118802024260251 1.6334057963667139 0 2.356581949440709 1.6298001978398831 0 2.2845425105382549 1.7535733272041241 0 2.356581949440709 1.6298001978398831 0 2.2845425105382549 1.7535733272041241 0 2.4287660242288749 1.752676520202513 0 2.2845425105382549 1.7535733272041241 0 2.4287660242288749 1.752676520202513 0 2.358310431087538 1.876956184304913 0 2.4287660242288749 1.752676520202513 0 2.358310431087538 1.876956184304913 0 2.4999999999999978 1.876282085173651 0 2.2202906086958931 1.880802382239964 0 2.2845425105382549 1.7535733272041241 0 2.358310431087538 1.876956184304913 0 2.2202906086958931 1.880802382239964 0 2.2857142857142851 2 0 2.358310431087538 1.876956184304913 0 2.2857142857142851 2 0 2.4285714285714279 2 0 2.3571428571428541 2.088385776600894 0 2.4285714285714279 2 0 2.358310431087538 1.876956184304913 0 2.4999999999999978 1.876282085173651 0 2.2857142857142851 2 0 2.4285714285714279 2 0 2.358310431087538 1.876956184304913 0 2.2313473055860129 2.1272755973392572 0 2.2437590376264152 2.2790339820013181 0 2.3682882362172282 2.20359421332267 0 2.2313473055860129 2.1272755973392572 0 2.2857142857142851 2 0 2.3571428571428541 2.088385776600894 0 2.2313473055860129 2.1272755973392572 0 2.3571428571428541 2.088385776600894 0 2.3682882362172282 2.20359421332267 0 2.4285714285714279 2 0 2.3571428571428541 2.088385776600894 0 2.4981772993071591 2.1265427876294498 0 2.3571428571428541 2.088385776600894 0 2.3682882362172282 2.20359421332267 0 2.4981772993071591 2.1265427876294498 0 2.4944618350609482 2.277815289041762 0 2.3682882362172282 2.20359421332267 0 2.4981772993071591 2.1265427876294498 0 2.4981772993071591 2.1265427876294498 0 2.5714285714285712 2 0 2.6428571428571428 2.0966122299857148 0 2.4981772993071591 2.1265427876294498 0 2.6185895741317191 2.2142857142856851 0 2.6428571428571428 2.0966122299857148 0 2.4944618350609482 2.277815289041762 0 2.4981772993071591 2.1265427876294498 0 2.6185895741317191 2.2142857142856851 0 2.4285714285714279 2 0 2.4999999999999978 1.876282085173651 0 2.5714285714285712 2 0 2.4285714285714279 2 0 2.4981772993071591 2.1265427876294498 0 2.5714285714285712 2 0 2.4999999999999978 1.876282085173651 0 2.5714285714285712 2 0 2.6428571428571388 1.876282085173651 0 2.5714285714285712 2 0 2.6428571428571388 1.876282085173651 0 2.714285714285714 2 0 2.6428571428571388 1.876282085173651 0 2.714285714285714 2 0 2.7814963681520442 1.882580830411096 0 2.5714285714285712 2 0 2.714285714285714 2 0 2.6428571428571428 2.0966122299857148 0 2.714285714285714 2 0 2.7648928292411559 2.1309887181017841 0 2.8571428571428572 2 0 2.714285714285714 2 0 2.7814963681520442 1.882580830411096 0 2.8571428571428572 2 0 2.7479931719733139 2.2843081023179281 0 2.6185895741317191 2.2142857142856851 0 2.7648928292411559 2.1309887181017841 0 2.714285714285714 2 0 2.6428571428571428 2.0966122299857148 0 2.7648928292411559 2.1309887181017841 0 2.6185895741317191 2.2142857142856851 0 2.6428571428571428 2.0966122299857148 0 2.7648928292411559 2.1309887181017841 0 2.7479931719733139 2.2843081023179281 0 2.7648928292411559 2.1309887181017841 0 2.8779600310929019 2.217136293327608 0 2.7648928292411559 2.1309887181017841 0 2.8954213132044448 2.1045786867955552 0 2.8571428571428572 2 0 2.7648928292411559 2.1309887181017841 0 2.8779600310929019 2.217136293327608 0 2.8954213132044448 2.1045786867955552 0 2.8954213132044448 2.1045786867955552 0 3 2.1428571428571428 0 3 2 0 2.8779600310929019 2.217136293327608 0 2.8954213132044448 2.1045786867955552 0 3 2.1428571428571428 0 3 2.2857142857142851 0 2.8779600310929019 2.217136293327608 0 3 2.1428571428571428 0 2.7814963681520442 1.882580830411096 0 2.895421313204448 1.895421313204448 0 2.8571428571428572 2 0 2.8954213132044448 2.1045786867955552 0 2.8571428571428572 2 0 3 2 0 2.895421313204448 1.895421313204448 0 2.8571428571428572 2 0 3 2 0 2.895421313204448 1.895421313204448 0 3 2 0 3 1.857142857142857 0 2.895421313204448 1.895421313204448 0 3 1.857142857142857 0 2.870614678937029 1.7725963401346581 0 3 1.857142857142857 0 3 1.714285714285714 0 2.870614678937029 1.7725963401346581 0 3 1.714285714285714 0 2.870614678937029 1.7725963401346581 0 2.905423741759479 1.6391988482369699 0 2.7814963681520442 1.882580830411096 0 2.895421313204448 1.895421313204448 0 2.870614678937029 1.7725963401346581 0 2.7814963681520442 1.882580830411096 0 2.870614678937029 1.7725963401346581 0 2.7153465651391322 1.7565952050335309 0 2.870614678937029 1.7725963401346581 0 2.7153465651391322 1.7565952050335309 0 2.786129397280769 1.6349001941088239 0 2.5714610040381438 1.7525828953231719 0 2.7153465651391322 1.7565952050335309 0 2.6427234372420072 1.628936974087531 0 2.5714610040381438 1.7525828953231719 0 2.6428571428571388 1.876282085173651 0 2.7153465651391322 1.7565952050335309 0 2.6428571428571388 1.876282085173651 0 2.7814963681520442 1.882580830411096 0 2.7153465651391322 1.7565952050335309 0 2.5712671761093171 1.5052310581929651 0 2.7167234160060199 1.5059542429009301 0 2.6427234372420072 1.628936974087531 0 2.7167234160060199 1.5059542429009301 0 2.6427234372420072 1.628936974087531 0 2.786129397280769 1.6349001941088239 0 2.7153465651391322 1.7565952050335309 0 2.6427234372420072 1.628936974087531 0 2.786129397280769 1.6349001941088239 0 2.7167234160060199 1.5059542429009301 0 2.786129397280769 1.6349001941088239 0 2.870374632579594 1.502783421227085 0 2.786129397280769 1.6349001941088239 0 2.870374632579594 1.502783421227085 0 2.905423741759479 1.6391988482369699 0 2.870614678937029 1.7725963401346581 0 2.786129397280769 1.6349001941088239 0 2.905423741759479 1.6391988482369699 0 3 1.714285714285714 0 2.905423741759479 1.6391988482369699 0 3 1.571428571428571 0 2.870374632579594 1.502783421227085 0 3 1.571428571428571 0 3 1.4285714285714279 0 2.870374632579594 1.502783421227085 0 2.905423741759479 1.6391988482369699 0 3 1.571428571428571 0 2.870374632579594 1.502783421227085 0 3 1.4285714285714279 0 2.9030656089791811 1.3584705572527791 0 3 1.4285714285714279 0 2.9030656089791811 1.3584705572527791 0 3 1.2857142857142849 0 2.9030656089791811 1.3584705572527791 0 2.868688836155401 1.2355313237831811 0 2.786125463576842 1.383677911645713 0 2.870374632579594 1.502783421227085 0 2.9030656089791811 1.3584705572527791 0 2.786125463576842 1.383677911645713 0 3 1.142857142857143 0 2.868688836155401 1.2355313237831811 0 2.8954213132044462 1.104578686795556 0 3 1.142857142857143 0 3 1.2857142857142849 0 2.868688836155401 1.2355313237831811 0 2.9030656089791811 1.3584705572527791 0 3 1.2857142857142849 0 2.868688836155401 1.2355313237831811 0 2.868688836155401 1.2355313237831811 0 2.7814750862709881 1.1221194143447999 0 2.8954213132044462 1.104578686795556 0 2.868688836155401 1.2355313237831811 0 2.7147343810563518 1.251301267871989 0 2.7814750862709881 1.1221194143447999 0 2.868688836155401 1.2355313237831811 0 2.7147343810563518 1.251301267871989 0 2.786125463576842 1.383677911645713 0 2.7147343810563518 1.251301267871989 0 2.6437203892475911 1.3801958981434661 0 2.5728365947067089 1.2514338603666431 0 2.7147343810563518 1.251301267871989 0 2.642474724251239 1.124923408518995 0 2.7814750862709881 1.1221194143447999 0 2.7147343810563518 1.251301267871989 0 2.5728365947067089 1.2514338603666431 0 2.642474724251239 1.124923408518995 0 2.7167234160060199 1.5059542429009301 0 2.870374632579594 1.502783421227085 0 2.786125463576842 1.383677911645713 0 2.7147343810563518 1.251301267871989 0 2.786125463576842 1.383677911645713 0 2.6437203892475911 1.3801958981434661 0 2.5712671761093171 1.5052310581929651 0 2.7167234160060199 1.5059542429009301 0 2.6437203892475911 1.3801958981434661 0 2.7167234160060199 1.5059542429009301 0 2.786125463576842 1.383677911645713 0 2.6437203892475911 1.3801958981434661 0 2.5712671761093171 1.5052310581929651 0 2.6437203892475911 1.3801958981434661 0 2.5003077208249551 1.3799672261976821 0 2.5712671761093171 1.5052310581929651 0 2.4285508356923038 1.5051491012451981 0 2.5003077208249551 1.3799672261976821 0 2.6437203892475911 1.3801958981434661 0 2.5003077208249551 1.3799672261976821 0 2.5728365947067089 1.2514338603666431 0 2.5728365947067089 1.2514338603666431 0 2.5000879977590982 1.1246859085305361 0 2.642474724251239 1.124923408518995 0 2.5728365947067089 1.2514338603666431 0 2.428721567443501 1.25649282465861 0 2.5000879977590982 1.1246859085305361 0 2.5003077208249551 1.3799672261976821 0 2.5728365947067089 1.2514338603666431 0 2.428721567443501 1.25649282465861 0 2.428721567443501 1.25649282465861 0 2.2866681211738742 1.256066682441406 0 2.3571907118004951 1.3811733526815959 0 2.428721567443501 1.25649282465861 0 2.3577140298740269 1.130492812416215 0 2.2866681211738742 1.256066682441406 0 2.428721567443501 1.25649282465861 0 2.3577140298740269 1.130492812416215 0 2.5000879977590982 1.1246859085305361 0 2.3577140298740269 1.130492812416215 0 2.2866681211738742 1.256066682441406 0 2.2198107335135431 1.1256563841824909 0 2.2866681211738742 1.256066682441406 0 2.3571907118004951 1.3811733526815959 0 2.214285714285714 1.3814104258682629 0 2.2857142857142878 1.505128340694611 0 2.3571907118004951 1.3811733526815959 0 2.214285714285714 1.3814104258682629 0 2.4285508356923038 1.5051491012451981 0 2.2857142857142878 1.505128340694611 0 2.3571907118004951 1.3811733526815959 0 2.4285508356923038 1.5051491012451981 0 2.5003077208249551 1.3799672261976821 0 2.3571907118004951 1.3811733526815959 0 2.5003077208249551 1.3799672261976821 0 2.428721567443501 1.25649282465861 0 2.3571907118004951 1.3811733526815959 0 2.3591525644097571 0.90448333979383388 0 2.3690804396265648 0.78389141510404292 0 2.497549379121645 0.87194859075748421 0 2.3591525644097571 0.90448333979383388 0 2.4285714285714279 1 0 2.497549379121645 0.87194859075748421 0 2.3690804396265648 0.78389141510404292 0 2.2467020989286488 0.71318645322081209 0 2.2323719363650798 0.86814175826561746 0 2.3591525644097571 0.90448333979383388 0 2.3690804396265648 0.78389141510404292 0 2.2323719363650798 0.86814175826561746 0 2.3591525644097571 0.90448333979383388 0 2.2857142857142851 1 0 2.2323719363650798 0.86814175826561746 0 2.3577140298740269 1.130492812416215 0 2.2857142857142851 1 0 2.2198107335135431 1.1256563841824909 0 2.3577140298740269 1.130492812416215 0 2.2857142857142851 1 0 2.4285714285714279 1 0 2.3577140298740269 1.130492812416215 0 2.4285714285714279 1 0 2.5000879977590982 1.1246859085305361 0 2.3591525644097571 0.90448333979383388 0 2.2857142857142851 1 0 2.4285714285714279 1 0 2.4285714285714279 1 0 2.5714285714285712 1 0 2.497549379121645 0.87194859075748421 0 2.4285714285714279 1 0 2.5000879977590982 1.1246859085305361 0 2.5714285714285712 1 0 2.5000879977590982 1.1246859085305361 0 2.5714285714285712 1 0 2.642474724251239 1.124923408518995 0 2.497549379121645 0.87194859075748421 0 2.618589574132375 0.78571428571188628 0 2.6328924043665101 0.90513610409542433 0 2.5714285714285712 1 0 2.497549379121645 0.87194859075748421 0 2.6328924043665101 0.90513610409542433 0 2.3690804396265648 0.78389141510404292 0 2.497549379121645 0.87194859075748421 0 2.4948716593059621 0.71428571428343679 0 2.497549379121645 0.87194859075748421 0 2.618589574132375 0.78571428571188628 0 2.4948716593059621 0.71428571428343679 0 2.618589574132375 0.78571428571188628 0 2.7626087828642452 0.86801764400775083 0 2.744186890149765 0.71331043726850263 0 2.618589574132375 0.78571428571188628 0 2.6328924043665101 0.90513610409542433 0 2.7626087828642452 0.86801764400775083 0 2.6328924043665101 0.90513610409542433 0 2.7626087828642452 0.86801764400775083 0 2.714285714285714 1 0 2.7626087828642452 0.86801764400775083 0 2.874409050805995 0.78018926648514575 0 2.744186890149765 0.71331043726850263 0 2.5714285714285712 1 0 2.642474724251239 1.124923408518995 0 2.714285714285714 1 0 2.642474724251239 1.124923408518995 0 2.714285714285714 1 0 2.7814750862709881 1.1221194143447999 0 2.5714285714285712 1 0 2.6328924043665101 0.90513610409542433 0 2.714285714285714 1 0 2.7626087828642452 0.86801764400775083 0 2.714285714285714 1 0 2.8571428571428572 1 0 2.714285714285714 1 0 2.7814750862709881 1.1221194143447999 0 2.8571428571428572 1 0 2.7814750862709881 1.1221194143447999 0 2.8954213132044462 1.104578686795556 0 2.8571428571428572 1 0 2.8571428571428572 1 0 3 1 0 2.8954213132042099 0.895421313204108 0 2.8954213132044462 1.104578686795556 0 2.8571428571428572 1 0 3 1 0 3 1.142857142857143 0 2.8954213132044462 1.104578686795556 0 3 1 0 2.7626087828642452 0.86801764400775083 0 2.874409050805995 0.78018926648514575 0 2.8954213132042099 0.895421313204108 0 2.7626087828642452 0.86801764400775083 0 2.8571428571428572 1 0 2.8954213132042099 0.895421313204108 0 3 1 0 2.8954213132042099 0.895421313204108 0 3 0.85714285714248095 0 2.874409050805995 0.78018926648514575 0 2.8954213132042099 0.895421313204108 0 3 0.85714285714248095 0 2.874409050805995 0.78018926648514575 0 3 0.85714285714248095 0 3 0.71428571428496201 0 2.874409050805995 0.78018926648514575 0 3 0.71428571428496201 0 2.869717803296802 0.64222861727828529 0 2.874409050805995 0.78018926648514575 0 2.869717803296802 0.64222861727828529 0 2.744186890149765 0.71331043726850263 0 2.869717803296802 0.64222861727828529 0 2.8740599863056251 0.49927531931007729 0 2.7446576805156062 0.57126208756431218 0 2.869717803296802 0.64222861727828529 0 3 0.57142857142744297 0 2.8740599863056251 0.49927531931007729 0 3 0.71428571428496201 0 2.869717803296802 0.64222861727828529 0 3 0.57142857142744297 0 3 0.57142857142744297 0 3 0.42857142857032021 0 2.8740599863056251 0.49927531931007729 0 3 0.42857142857032021 0 2.8740599863056251 0.49927531931007729 0 2.875698076300893 0.35415439180319042 0 2.8740599863056251 0.49927531931007729 0 2.752171560420507 0.42857142856854402 0 2.875698076300893 0.35415439180319042 0 2.8740599863056251 0.49927531931007729 0 2.752171560420507 0.42857142856854402 0 2.7446576805156062 0.57126208756431218 0 2.752171560420507 0.42857142856854402 0 2.6201734641978431 0.35661818314175592 0 2.6198899606611801 0.49948637524748601 0 2.752171560420507 0.42857142856854402 0 2.7446576805156062 0.57126208756431218 0 2.6198899606611801 0.49948637524748601 0 2.7446576805156062 0.57126208756431218 0 2.6187395327714542 0.64269698385323981 0 2.6198899606611801 0.49948637524748601 0 2.744186890149765 0.71331043726850263 0 2.7446576805156062 0.57126208756431218 0 2.6187395327714542 0.64269698385323981 0 2.618589574132375 0.78571428571188628 0 2.744186890149765 0.71331043726850263 0 2.6187395327714542 0.64269698385323981 0 2.869717803296802 0.64222861727828529 0 2.744186890149765 0.71331043726850263 0 2.7446576805156062 0.57126208756431218 0 2.8571428571428572 0 0 2.895979424212793 0.1040205757871324 0 2.7710799917251951 0.12873413335171449 0 2.8571428571428572 0 0 3 0 0 2.895979424212793 0.1040205757871324 0 3 0 0 3 0.14285714285686729 0 2.895979424212793 0.1040205757871324 0 3 0.14285714285686729 0 2.895979424212793 0.1040205757871324 0 2.8828959187492971 0.2161673249238161 0 2.895979424212793 0.1040205757871324 0 2.8828959187492971 0.2161673249238161 0 2.7710799917251951 0.12873413335171449 0 3 0.14285714285686729 0 2.8828959187492971 0.2161673249238161 0 3 0.28571428571359381 0 2.8828959187492971 0.2161673249238161 0 3 0.28571428571359381 0 2.875698076300893 0.35415439180319042 0 3 0.42857142857032021 0 3 0.28571428571359381 0 2.875698076300893 0.35415439180319042 0 2.8828959187492971 0.2161673249238161 0 2.875698076300893 0.35415439180319042 0 2.7546180202569031 0.2815234200303981 0 2.752171560420507 0.42857142856854402 0 2.875698076300893 0.35415439180319042 0 2.7546180202569031 0.2815234200303981 0 2.752171560420507 0.42857142856854402 0 2.7546180202569031 0.2815234200303981 0 2.6201734641978431 0.35661818314175592 0 2.7546180202569031 0.2815234200303981 0 2.6281978226174312 0.2120446233090226 0 2.6201734641978431 0.35661818314175592 0 2.7546180202569031 0.2815234200303981 0 2.6281978226174312 0.2120446233090226 0 2.7710799917251951 0.12873413335171449 0 2.8828959187492971 0.2161673249238161 0 2.7546180202569031 0.2815234200303981 0 2.7710799917251951 0.12873413335171449 0 2.6281978226174312 0.2120446233090226 0 2.7710799917251951 0.12873413335171449 0 2.6366338798727531 0.093464308857798578 0 2.7710799917251951 0.12873413335171449 0 2.714285714285714 0 0 2.6366338798727531 0.093464308857798578 0 2.714285714285714 0 0 2.6366338798727531 0.093464308857798578 0 2.5714285714285712 0 0 2.8571428571428572 0 0 2.7710799917251951 0.12873413335171449 0 2.714285714285714 0 0 2.5714285714285712 0 0 2.4981772993068532 0.12654278762825569 0 2.4285714285714279 0 0 2.6366338798727531 0.093464308857798578 0 2.5714285714285712 0 0 2.4981772993068532 0.12654278762825569 0 2.6281978226174312 0.2120446233090226 0 2.6366338798727531 0.093464308857798578 0 2.4981772993068532 0.12654278762825569 0 2.4981772993068532 0.12654278762825569 0 2.4945915486603032 0.27804612003647211 0 2.3627973047133688 0.2085843731968646 0 2.6281978226174312 0.2120446233090226 0 2.4981772993068532 0.12654278762825569 0 2.4945915486603032 0.27804612003647211 0 2.6281978226174312 0.2120446233090226 0 2.4945915486603032 0.27804612003647211 0 2.6201734641978431 0.35661818314175592 0 2.4945915486603032 0.27804612003647211 0 2.6201734641978431 0.35661818314175592 0 2.4932105417127999 0.42593700932760742 0 2.4945915486603032 0.27804612003647211 0 2.3659139839396568 0.35404229584496971 0 2.4932105417127999 0.42593700932760742 0 2.3659139839396568 0.35404229584496971 0 2.2429924675022042 0.42772459507389499 0 2.239801768054869 0.28318912013054048 0 2.3659139839396568 0.35404229584496971 0 2.3627973047133688 0.2085843731968646 0 2.239801768054869 0.28318912013054048 0 2.3627973047133688 0.2085843731968646 0 2.2304843984160652 0.12817051038898469 0 2.239801768054869 0.28318912013054048 0 2.4945915486603032 0.27804612003647211 0 2.3659139839396568 0.35404229584496971 0 2.3627973047133688 0.2085843731968646 0 2.4981772993068532 0.12654278762825569 0 2.3627973047133688 0.2085843731968646 0 2.3571428571428541 0.088385776599927482 0 2.3627973047133688 0.2085843731968646 0 2.3571428571428541 0.088385776599927482 0 2.2304843984160652 0.12817051038898469 0 2.2857142857142851 0 0 2.3571428571428541 0.088385776599927482 0 2.2304843984160652 0.12817051038898469 0 2.2857142857142851 0 0 2.3571428571428541 0.088385776599927482 0 2.4285714285714279 0 0 2.4981772993068532 0.12654278762825569 0 2.3571428571428541 0.088385776599927482 0 2.4285714285714279 0 0 2.4944710246124502 0.57098124216803003 0 2.4948716593059621 0.71428571428343679 0 2.3707808136040498 0.64248101537579039 0 2.618589574132375 0.78571428571188628 0 2.4948716593059621 0.71428571428343679 0 2.6187395327714542 0.64269698385323981 0 2.4944710246124502 0.57098124216803003 0 2.6187395327714542 0.64269698385323981 0 2.6198899606611801 0.49948637524748601 0 2.4944710246124502 0.57098124216803003 0 2.4948716593059621 0.71428571428343679 0 2.6187395327714542 0.64269698385323981 0 2.4944710246124502 0.57098124216803003 0 2.6198899606611801 0.49948637524748601 0 2.4932105417127999 0.42593700932760742 0 2.6201734641978431 0.35661818314175592 0 2.6198899606611801 0.49948637524748601 0 2.4932105417127999 0.42593700932760742 0 2.4944710246124502 0.57098124216803003 0 2.4932105417127999 0.42593700932760742 0 2.3691228671960749 0.4976921519274754 0 2.3659139839396568 0.35404229584496971 0 2.4932105417127999 0.42593700932760742 0 2.3691228671960749 0.4976921519274754 0 2.3659139839396568 0.35404229584496971 0 2.3691228671960749 0.4976921519274754 0 2.2429924675022042 0.42772459507389499 0 2.3691228671960749 0.4976921519274754 0 2.247229121683481 0.57147965461975947 0 2.2429924675022042 0.42772459507389499 0 2.3707808136040498 0.64248101537579039 0 2.2467020989286488 0.71318645322081209 0 2.247229121683481 0.57147965461975947 0 2.3691228671960749 0.4976921519274754 0 2.3707808136040498 0.64248101537579039 0 2.247229121683481 0.57147965461975947 0 2.4944710246124502 0.57098124216803003 0 2.3691228671960749 0.4976921519274754 0 2.3707808136040498 0.64248101537579039 0 2.3690804396265648 0.78389141510404292 0 2.4948716593059621 0.71428571428343679 0 2.3707808136040498 0.64248101537579039 0 2.3690804396265648 0.78389141510404292 0 2.3707808136040498 0.64248101537579039 0 2.2467020989286488 0.71318645322081209 0 2.2467020989286488 0.71318645322081209 0 2.1230850406616231 0.64211163998861709 0 2.120528043488306 0.78018926648583753 0 2.1230850406616231 0.64211163998861709 0 2 0.71428571428496201 0 2.120528043488306 0.78018926648583753 0 2.1230850406616231 0.64211163998861709 0 2.1231105411754938 0.50105200202130029 0 2 0.57142857142744297 0 2.2467020989286488 0.71318645322081209 0 2.1230850406616231 0.64211163998861709 0 2.247229121683481 0.57147965461975947 0 2.1230850406616231 0.64211163998861709 0 2.247229121683481 0.57147965461975947 0 2.1231105411754938 0.50105200202130029 0 2.247229121683481 0.57147965461975947 0 2.2429924675022042 0.42772459507389499 0 2.1231105411754938 0.50105200202130029 0 2.2429924675022042 0.42772459507389499 0 2.1231105411754938 0.50105200202130029 0 2.1204089262615469 0.35723491808527857 0 2.1231105411754938 0.50105200202130029 0 2 0.42857142857032021 0 2.1204089262615469 0.35723491808527857 0 2.1231105411754938 0.50105200202130029 0 2 0.42857142857032021 0 2 0.57142857142744297 0 2 0.42857142857032021 0 1.8756980763008939 0.35415439180319208 0 1.8740599863056251 0.49927531931007818 0 2 0.42857142857032021 0 2 0.57142857142744297 0 1.8740599863056251 0.49927531931007818 0 2 0.71428571428496201 0 2 0.57142857142744297 0 1.8697178032968009 0.64222861727828584 0 2 0.57142857142744297 0 1.8697178032968009 0.64222861727828584 0 1.8740599863056251 0.49927531931007818 0 2 0.71428571428496201 0 1.8697178032968009 0.64222861727828584 0 1.8744090508059921 0.78018926648514741 0 2.1230850406616231 0.64211163998861709 0 2 0.71428571428496201 0 2 0.57142857142744297 0 2.1428571428571428 0 0 2.1045786867956009 0.1045786867955279 0 2 0 0 2.1428571428571428 0 0 2.2304843984160652 0.12817051038898469 0 2.1045786867956009 0.1045786867955279 0 2.2857142857142851 0 0 2.1428571428571428 0 0 2.2304843984160652 0.12817051038898469 0 2.1045786867956009 0.1045786867955279 0 2.1165487808367178 0.2171580770020218 0 2 0.14285714285686729 0 2.2304843984160652 0.12817051038898469 0 2.1045786867956009 0.1045786867955279 0 2.1165487808367178 0.2171580770020218 0 2.2304843984160652 0.12817051038898469 0 2.1165487808367178 0.2171580770020218 0 2.239801768054869 0.28318912013054048 0 2.2429924675022042 0.42772459507389499 0 2.239801768054869 0.28318912013054048 0 2.1204089262615469 0.35723491808527857 0 2.1165487808367178 0.2171580770020218 0 2.239801768054869 0.28318912013054048 0 2.1204089262615469 0.35723491808527857 0 2.1165487808367178 0.2171580770020218 0 2.1204089262615469 0.35723491808527857 0 2 0.28571428571359381 0 2 0.42857142857032021 0 2.1204089262615469 0.35723491808527857 0 2 0.28571428571359381 0 2 0.28571428571359381 0 1.8756980763008939 0.35415439180319208 0 1.882895918749298 0.21616732492381721 0 2 0.42857142857032021 0 2 0.28571428571359381 0 1.8756980763008939 0.35415439180319208 0 2 0.28571428571359381 0 1.882895918749298 0.21616732492381721 0 2 0.14285714285686729 0 2.1165487808367178 0.2171580770020218 0 2 0.28571428571359381 0 2 0.14285714285686729 0 1.882895918749298 0.21616732492381721 0 2 0.14285714285686729 0 1.8959794242127921 0.10402057578713381 0 2 0.14285714285686729 0 1.8959794242127921 0.10402057578713381 0 2 0 0 1.8959794242127921 0.10402057578713381 0 2 0 0 1.857142857142857 0 0 2.1045786867956009 0.1045786867955279 0 2 0.14285714285686729 0 2 0 0 1.714285714285714 0 0 1.857142857142857 0 0 1.7710799917251949 0.1287341333517158 0 1.714285714285714 0 0 1.7710799917251949 0.1287341333517158 0 1.6366338798727531 0.093464308857799619 0 1.8959794242127921 0.10402057578713381 0 1.857142857142857 0 0 1.7710799917251949 0.1287341333517158 0 1.882895918749298 0.21616732492381721 0 1.8959794242127921 0.10402057578713381 0 1.7710799917251949 0.1287341333517158 0 1.7710799917251949 0.1287341333517158 0 1.7546180202569051 0.28152342003040048 0 1.6281978226174321 0.21204462330902529 0 1.882895918749298 0.21616732492381721 0 1.7710799917251949 0.1287341333517158 0 1.7546180202569051 0.28152342003040048 0 1.8756980763008939 0.35415439180319208 0 1.882895918749298 0.21616732492381721 0 1.7546180202569051 0.28152342003040048 0 1.8756980763008939 0.35415439180319208 0 1.7546180202569051 0.28152342003040048 0 1.752171560420509 0.42857142856854807 0 1.7546180202569051 0.28152342003040048 0 1.620173464197844 0.35661818314175942 0 1.752171560420509 0.42857142856854807 0 1.7546180202569051 0.28152342003040048 0 1.620173464197844 0.35661818314175942 0 1.6281978226174321 0.21204462330902529 0 1.493210541712801 0.42593700932760992 0 1.4945915486603041 0.278046120036475 0 1.620173464197844 0.35661818314175942 0 1.4945915486603041 0.278046120036475 0 1.620173464197844 0.35661818314175942 0 1.6281978226174321 0.21204462330902529 0 1.4945915486603041 0.278046120036475 0 1.4981772993068541 0.1265427876282571 0 1.6281978226174321 0.21204462330902529 0 1.7710799917251949 0.1287341333517158 0 1.6281978226174321 0.21204462330902529 0 1.6366338798727531 0.093464308857799619 0 1.4981772993068541 0.1265427876282571 0 1.6281978226174321 0.21204462330902529 0 1.6366338798727531 0.093464308857799619 0 1.4981772993068541 0.1265427876282571 0 1.571428571428571 0 0 1.6366338798727531 0.093464308857799619 0 1.714285714285714 0 0 1.571428571428571 0 0 1.6366338798727531 0.093464308857799619 0 1.744657680515606 0.57126208756431485 0 1.744186890149763 0.71331043726850496 0 1.618739532771454 0.64269698385324336 0 1.744186890149763 0.71331043726850496 0 1.8697178032968009 0.64222861727828584 0 1.8744090508059921 0.78018926648514741 0 1.744657680515606 0.57126208756431485 0 1.744186890149763 0.71331043726850496 0 1.8697178032968009 0.64222861727828584 0 1.744657680515606 0.57126208756431485 0 1.8697178032968009 0.64222861727828584 0 1.8740599863056251 0.49927531931007818 0 1.744657680515606 0.57126208756431485 0 1.8740599863056251 0.49927531931007818 0 1.752171560420509 0.42857142856854807 0 1.8756980763008939 0.35415439180319208 0 1.8740599863056251 0.49927531931007818 0 1.752171560420509 0.42857142856854807 0 1.744657680515606 0.57126208756431485 0 1.752171560420509 0.42857142856854807 0 1.619889960661181 0.49948637524748901 0 1.620173464197844 0.35661818314175942 0 1.752171560420509 0.42857142856854807 0 1.619889960661181 0.49948637524748901 0 1.493210541712801 0.42593700932760992 0 1.620173464197844 0.35661818314175942 0 1.619889960661181 0.49948637524748901 0 1.49447102461245 0.57098124216803303 0 1.493210541712801 0.42593700932760992 0 1.619889960661181 0.49948637524748901 0 1.49447102461245 0.57098124216803303 0 1.619889960661181 0.49948637524748901 0 1.618739532771454 0.64269698385324336 0 1.49447102461245 0.57098124216803303 0 1.4948716593059641 0.71428571428344279 0 1.618739532771454 0.64269698385324336 0 1.744657680515606 0.57126208756431485 0 1.619889960661181 0.49948637524748901 0 1.618739532771454 0.64269698385324336 0 1.744186890149763 0.71331043726850496 0 1.618739532771454 0.64269698385324336 0 1.618589574132369 0.78571428571188717 0 1.4948716593059641 0.71428571428344279 0 1.618739532771454 0.64269698385324336 0 1.618589574132369 0.78571428571188717 0 1.4948716593059641 0.71428571428344279 0 1.497549379121643 0.87194859075748521 0 1.618589574132369 0.78571428571188717 0 1.497549379121643 0.87194859075748521 0 1.6328924043665081 0.90513610409542489 0 1.618589574132369 0.78571428571188717 0 1.497549379121643 0.87194859075748521 0 1.6328924043665081 0.90513610409542489 0 1.571428571428571 1 0 1.6328924043665081 0.90513610409542489 0 1.618589574132369 0.78571428571188717 0 1.7626087828642421 0.86801764400775128 0 1.744186890149763 0.71331043726850496 0 1.618589574132369 0.78571428571188717 0 1.7626087828642421 0.86801764400775128 0 1.6328924043665081 0.90513610409542489 0 1.7626087828642421 0.86801764400775128 0 1.714285714285714 1 0 1.7626087828642421 0.86801764400775128 0 1.857142857142857 1 0 1.895421313204209 0.89542131320410689 0 1.7626087828642421 0.86801764400775128 0 1.8744090508059921 0.78018926648514741 0 1.895421313204209 0.89542131320410689 0 1.744186890149763 0.71331043726850496 0 1.7626087828642421 0.86801764400775128 0 1.8744090508059921 0.78018926648514741 0 1.857142857142857 1 0 1.780189266486452 1.1255909491945031 0 1.895421313204446 1.104578686795554 0 1.857142857142857 1 0 1.714285714285714 1 0 1.780189266486452 1.1255909491945031 0 1.7626087828642421 0.86801764400775128 0 1.857142857142857 1 0 1.714285714285714 1 0 1.714285714285714 1 0 1.6422816724703979 1.1304620449693199 0 1.780189266486452 1.1255909491945031 0 1.714285714285714 1 0 1.571428571428571 1 0 1.6422816724703979 1.1304620449693199 0 1.6328924043665081 0.90513610409542489 0 1.714285714285714 1 0 1.571428571428571 1 0 1.499999999999998 1.1271398115696349 0 1.571428571428571 1 0 1.6422816724703979 1.1304620449693199 0 1.499999999999998 1.1271398115696349 0 1.571152652531757 1.256105255633247 0 1.6422816724703979 1.1304620449693199 0 1.571152652531757 1.256105255633247 0 1.6428585192410321 1.381411220523866 0 1.713319120662252 1.255965391424904 0 1.571152652531757 1.256105255633247 0 1.6422816724703979 1.1304620449693199 0 1.713319120662252 1.255965391424904 0 1.4999999999999949 1.3814104258682569 0 1.42857911129607 1.505132776317748 0 1.5714368297319321 1.505133108628274 0 1.4999999999999949 1.3814104258682569 0 1.5714368297319321 1.505133108628274 0 1.6428585192410321 1.381411220523866 0 1.4999999999999949 1.3814104258682569 0 1.571152652531757 1.256105255633247 0 1.6428585192410321 1.381411220523866 0 1.5714368297319321 1.505133108628274 0 1.7164690164522749 1.505013992076764 0 1.6428585192410321 1.381411220523866 0 1.7164690164522749 1.505013992076764 0 1.6428585192410321 1.381411220523866 0 1.785714285714282 1.38141042586825 0 1.6428585192410321 1.381411220523866 0 1.785714285714282 1.38141042586825 0 1.713319120662252 1.255965391424904 0 1.785714285714282 1.38141042586825 0 1.8680188844933181 1.2374129716465909 0 1.9051363521932001 1.367111946535875 0 1.871948590758401 1.50245062087882 0 1.785714285714282 1.38141042586825 0 1.9051363521932001 1.367111946535875 0 1.7164690164522749 1.505013992076764 0 1.871948590758401 1.50245062087882 0 1.785714285714282 1.38141042586825 0 1.6422816724703979 1.1304620449693199 0 1.780189266486452 1.1255909491945031 0 1.713319120662252 1.255965391424904 0 1.785714285714282 1.38141042586825 0 1.713319120662252 1.255965391424904 0 1.8680188844933181 1.2374129716465909 0 1.780189266486452 1.1255909491945031 0 1.713319120662252 1.255965391424904 0 1.8680188844933181 1.2374129716465909 0 1.780189266486452 1.1255909491945031 0 1.8680188844933181 1.2374129716465909 0 1.895421313204446 1.104578686795554 0 1.8680188844933181 1.2374129716465909 0 2 1.142857142857143 0 1.895421313204446 1.104578686795554 0 1.8680188844933181 1.2374129716465909 0 2 1.2857142857142849 0 1.9051363521932001 1.367111946535875 0 1.8680188844933181 1.2374129716465909 0 2 1.2857142857142849 0 2 1.142857142857143 0 2 1.2857142857142849 0 2 1.142857142857143 0 2.1319792929118409 1.2374367896472369 0 1.871948590758401 1.50245062087882 0 1.9051363521932001 1.367111946535875 0 2 1.4285714285714279 0 2 1.2857142857142849 0 1.9051363521932001 1.367111946535875 0 2 1.4285714285714279 0 2 1.2857142857142849 0 2 1.4285714285714279 0 2.0946158322405029 1.367237727885342 0 2.1268141540049612 1.5030557096254999 0 2.0946158322405029 1.367237727885342 0 2.214285714285714 1.3814104258682629 0 2.1268141540049612 1.5030557096254999 0 2 1.4285714285714279 0 2.0946158322405029 1.367237727885342 0 2.0946158322405029 1.367237727885342 0 2.214285714285714 1.3814104258682629 0 2.1319792929118409 1.2374367896472369 0 2.1268141540049612 1.5030557096254999 0 2.2857142857142878 1.505128340694611 0 2.214285714285714 1.3814104258682629 0 2 1.142857142857143 0 2.1319792929118409 1.2374367896472369 0 2.1045786867955538 1.1045786867955549 0 2.1319792929118409 1.2374367896472369 0 2.2198107335135431 1.1256563841824909 0 2.1045786867955538 1.1045786867955549 0 2 1.2857142857142849 0 2.0946158322405029 1.367237727885342 0 2.1319792929118409 1.2374367896472369 0 2.2866681211738742 1.256066682441406 0 2.214285714285714 1.3814104258682629 0 2.1319792929118409 1.2374367896472369 0 2.2866681211738742 1.256066682441406 0 2.1319792929118409 1.2374367896472369 0 2.2198107335135431 1.1256563841824909 0 2.2857142857142851 1 0 2.2198107335135431 1.1256563841824909 0 2.1428571428571428 1 0 2.1045786867955538 1.1045786867955549 0 2.1428571428571428 1 0 2 1 0 2.2198107335135431 1.1256563841824909 0 2.1045786867955538 1.1045786867955549 0 2.1428571428571428 1 0 2.1428571428571428 1 0 2.1045786867957932 0.89542131320410567 0 2 1 0 2.2857142857142851 1 0 2.1428571428571428 1 0 2.2323719363650798 0.86814175826561746 0 2.1428571428571428 1 0 2.2323719363650798 0.86814175826561746 0 2.1045786867957932 0.89542131320410567 0 2.2467020989286488 0.71318645322081209 0 2.2323719363650798 0.86814175826561746 0 2.120528043488306 0.78018926648583753 0 2.2323719363650798 0.86814175826561746 0 2.120528043488306 0.78018926648583753 0 2.1045786867957932 0.89542131320410567 0 2.120528043488306 0.78018926648583753 0 2.1045786867957932 0.89542131320410567 0 2 0.85714285714248095 0 2.1045786867957932 0.89542131320410567 0 2 0.85714285714248095 0 2 1 0 2 0.71428571428496201 0 2.120528043488306 0.78018926648583753 0 2 0.85714285714248095 0 2 0.71428571428496201 0 1.8744090508059921 0.78018926648514741 0 2 0.85714285714248095 0 1.8744090508059921 0.78018926648514741 0 2 0.85714285714248095 0 1.895421313204209 0.89542131320410689 0 2 0.85714285714248095 0 1.895421313204209 0.89542131320410689 0 2 1 0 1.857142857142857 1 0 1.895421313204209 0.89542131320410689 0 2 1 0 2 1.142857142857143 0 1.895421313204446 1.104578686795554 0 2 1 0 1.857142857142857 1 0 1.895421313204446 1.104578686795554 0 2 1 0 2 1.142857142857143 0 2.1045786867955538 1.1045786867955549 0 2 1 0 
</DataArray>
</Points>
<Cells>
<DataArray type="UInt32" Name="connectivity" format="ascii">
0 1 2 3 4 5 6 7 8 9 10 11 12 13 14 15 16 17 18 19 20 21 22 23 24 25 26 27 28 29 30 31 32 33 34 35 36 37 38 39 40 41 42 43 44 45 46 47 48 49 50 51 52 53 54 55 56 57 58 59 60 61 62 63 64 65 66 67 68 69 70 71 72 73 74 75 76 77 78 79 80 81 82 83 84 85 86 87 88 89 90 91 92 93 94 95 96 97 98 99 100 101 102 103 104 105 106 107 108 109 110 111 112 113 114 115 116 117 118 119 120 121 122 123 124 125 126 127 128 129 130 131 132 133 134 135 136 137 138 139 140 141 142 143 144 145 146 147 148 149 150 151 152 153 154 155 156 157 158 159 160 161 162 163 164 165 166 167 168 169 170 171 172 173 174 175 176 177 178 179 180 181 182 183 184 185 186 187 188 189 190 191 192 193 194 195 196 197 198 199 200 201 202 203 204 205 206 207 208 209 210 211 212 213 214 215 216 217 218 219 220 221 222 223 224 225 226 227 228 229 230 231 232 233 234 235 236 237 238 239 240 241 242 243 244 245 246 247 248 249 250 251 252 253 254 255 256 257 258 259 260 261 262 263 264 265 266 267 268 269 270 271 272 273 274 275 276 277 278 279 280 281 282 283 284 285 286 287 288 289 290 291 292 293 294 295 296 297 298 299 300 301 302 303 304 305 306 307 308 309 310 311 312 313 314 315 316 317 318 319 320 321 322 323 324 325 326 327 328 329 330 331 332 333 334 335 336 337 338 339 340 341 342 343 344 345 346 347 348 349 350 351 352 353 354 355 356 357 358 359 360 361 362 363 364 365 366 367 368 369 370 371 372 373 374 375 376 377 378 379 380 381 382 383 384 385 386 387 388 389 390 391 392 393 394 395 396 397 398 399 400 401 402 403 404 405 406 407 408 409 410 411 412 413 414 415 416 417 418 419 420 421 422 423 424 425 426 427 428 429 430 431 432 433 434 435 436 437 438 439 440 441 442 443 444 445 446 447 448 449 450 451 452 453 454 455 456 457 458 459 460 461 462 463 464 465 466 467 468 469 470 471 472 473 474 475 476 477 478 479 480 481 482 483 484 485 486 487 488 489 490 491 492 493 494 495 496 497 498 499 500 501 502 503 504 505 506 507 508 509 510 511 512 513 514 515 516 517 518 519 520 521 522 523 524 525 526 527 528 529 530 531 532 533 534 535 536 537 538 539 540 541 542 543 544 545 546 547 548 549 550 551 552 553 554 555 556 557 558 559 560 561 562 563 564 565 566 567 568 569 570 571 572 573 574 575 576 577 578 579 580 581 582 583 584 585 586 587 588 589 590 591 592 593 594 595 596 597 598 599 600 601 602 603 604 605 606 607 608 609 610 611 612 613 614 615 616 617 618 619 620 621 622 623 624 625 626 627 628 629 630 631 632 633 634 635 636 637 638 639 640 641 642 643 644 645 646 647 648 649 650 651 652 653 654 655 656 657 658 659 660 661 662 663 664 665 666 667 668 669 670 671 672 673 674 675 676 677 678 679 680 681 682 683 684 685 686 687 688 689 690 691 692 693 694 695 696 697 698 699 700 701 702 703 704 705 706 707 708 709 710 711 712 713 714 715 716 717 718 719 720 721 722 723 724 725 726 727 728 729 730 731 732 733 734 735 736 737 738 739 740 741 742 743 744 745 746 747 748 749 750 751 752 753 754 755 756 757 758 759 760 761 762 763 764 765 766 767 768 769 770 771 772 773 774 775 776 777 778 779 780 781 782 783 784 785 786 787 788 789 790 791 792 793 794 795 796 797 798 799 800 801 802 803 804 805 806 807 808 809 810 811 812 813 814 815 816 817 818 819 820 821 822 823 824 825 826 827 828 829 830 831 832 833 834 835 836 837 838 839 840 841 842 843 844 845 846 847 848 849 850 851 852 853 854 855 856 857 858 859 860 861 862 863 864 865 866 867 868 869 870 871 872 873 874 875 876 877 878 879 880 881 882 883 884 885 886 887 888 889 890 891 892 893 894 895 896 897 898 899 900 901 902 903 904 905 906 907 908 909 910 911 912 913 914 915 916 917 918 919 920 921 922 923 924 925 926 927 928 929 930 931 932 933 934 935 936 937 938 939 940 941 942 943 944 945 946 947 948 949 950 951 952 953 954 955 956 957 958 959 960 961 962 963 964 965 966 967 968 969 970 971 972 973 974 975 976 977 978 979 980 981 982 983 984 985 986 987 988 989 990 991 992 993 994 995 996 997 998 999 1000 1001 1002 1003 1004 1005 1006 1007 1008 1009 1010 1011 1012 1013 1014 1015 1016 1017 1018 1019 1020 1021 1022 1023 1024 1025 1026 1027 1028 1029 1030 1031 1032 1033 1034 1035 1036 1037 1038 1039 1040 1041 1042 1043 1044 1045 1046 1047 1048 1049 1050 1051 1052 1053 1054 1055 1056 1057 1058 1059 1060 1061 1062 1063 1064 1065 1066 1067 1068 1069 1070 1071 1072 1073 1074 1075 1076 1077 1078 1079 1080 1081 1082 1083 1084 1085 1086 1087 1088 1089 1090 1091 1092 1093 1094 1095 1096 1097 1098 1099 1100 1101 1102 1103 1104 1105 1106 1107 1108 1109 1110 1111 1112 1113 1114 1115 1116 1117 1118 1119 1120 1121 1122 1123 1124 1125 1126 1127 1128 1129 1130 1131 1132 1133 1134 1135 1136 1137 1138 1139 1140 1141 1142 1143 1144 1145 1146 1147 1148 1149 1150 1151 1152 1153 1154 1155 1156 1157 1158 1159 1160 1161 1162 1163 1164 1165 1166 1167 1168 1169 1170 1171 1172 1173 1174 1175 1176 1177 1178 1179 1180 1181 1182 1183 1184 1185 1186 1187 1188 1189 1190 1191 1192 1193 1194 1195 1196 1197 1198 1199 1200 1201 1202 1203 1204 1205 1206 1207 1208 1209 1210 1211 1212 1213 1214 1215 1216 1217 1218 1219 1220 1221 1222 1223 1224 1225 1226 1227 1228 1229 1230 1231 1232 1233 1234 1235 1236 1237 1238 1239 1240 1241 1242 1243 1244 1245 1246 1247 1248 1249 1250 1251 1252 1253 1254 1255 1256 1257 1258 1259 1260 1261 1262 1263 1264 1265 1266 1267 1268 1269 1270 1271 1272 1273 1274 1275 1276 1277 1278 1279 1280 1281 1282 1283 1284 1285 1286 1287 1288 1289 1290 1291 1292 1293 1294 1295 1296 1297 1298 1299 1300 1301 1302 1303 1304 1305 1306 1307 1308 1309 1310 1311 1312 1313 1314 1315 1316 1317 1318 1319 1320 1321 1322 1323 1324 1325 1326 1327 1328 1329 1330 1331 1332 1333 1334 1335 1336 1337 1338 1339 1340 1341 1342 1343 1344 1345 1346 1347 1348 1349 1350 1351 1352 1353 1354 1355 1356 1357 1358 1359 1360 1361 1362 1363 1364 1365 1366 1367 1368 1369 1370 1371 1372 1373 1374 1375 1376 1377 1378 1379 1380 1381 1382 1383 1384 1385 1386 1387 1388 1389 1390 1391 1392 1393 1394 1395 1396 1397 1398 1399 1400 1401 1402 1403 1404 1405 1406 1407 1408 1409 1410 1411 1412 1413 1414 1415 1416 1417 1418 1419 1420 1421 1422 1423 1424 1425 1426 1427 1428 1429 1430 1431 1432 1433 1434 1435 1436 1437 1438 1439 1440 1441 1442 1443 1444 1445 1446 1447 1448 1449 1450 1451 1452 1453 1454 1455 1456 1457 1458 1459 1460 1461 1462 1463 1464 1465 1466 1467 1468 1469 1470 1471 1472 1473 1474 1475 1476 1477 1478 1479 1480 1481 1482 1483 1484 1485 1486 1487 1488 1489 1490 1491 1492 1493 1494 1495 1496 1497 1498 1499 1500 1501 1502 1503 1504 1505 1506 1507 1508 1509 1510 1511 1512 1513 1514 1515 1516 1517 1518 1519 1520 1521 1522 1523 1524 1525 1526 1527 1528 1529 1530 1531 1532 1533 1534 1535 1536 1537 1538 1539 1540 1541 1542 1543 1544 1545 1546 1547 1548 1549 1550 1551 1552 1553 1554 1555 1556 1557 1558 1559 1560 1561 1562 1563 1564 1565 1566 1567 1568 1569 1570 1571 1572 1573 1574 1575 1576 1577 1578 1579 1580 1581 1582 1583 1584 1585 1586 1587 1588 1589 1590 1591 1592 1593 1594 1595 1596 1597 1598 1599 1600 1601 1602 1603 1604 1605 1606 1607 1608 1609 1610 1611 1612 1613 1614 1615 1616 1617 1618 1619 1620 1621 1622 1623 1624 1625 1626 1627 1628 1629 1630 1631 1632 1633 1634 1635 1636 1637 1638 1639 1640 1641 1642 1643 1644 1645 1646 1647 1648 1649 1650 1651 1652 1653 1654 1655 1656 1657 1658 1659 1660 1661 1662 1663 1664 1665 1666 1667 1668 1669 1670 1671 1672 1673 1674 1675 1676 1677 1678 1679 1680 1681 1682 1683 1684 1685 1686 1687 1688 1689 1690 1691 1692 1693 1694 1695 1696 1697 1698 1699 1700 1701 1702 1703 1704 1705 1706 1707 1708 1709 1710 1711 1712 1713 1714 1715 1716 1717 1718 1719 1720 1721 1722 1723 1724 1725 1726 1727 1728 1729 1730 1731 1732 1733 1734 1735 1736 1737 1738 1739 1740 1741 1742 1743 1744 1745 1746 1747 1748 1749 1750 1751 1752 1753 1754 1755 1756 1757 1758 1759 1760 1761 1762 1763 1764 1765 1766 1767 1768 1769 1770 1771 1772 1773 1774 1775 1776 1777 1778 1779 1780 1781 1782 1783 1784 1785 1786 1787 1788 1789 1790 1791 1792 1793 1794 1795 1796 1797 1798 1799 1800 1801 1802 1803 1804 1805 1806 1807 1808 1809 1810 1811 1812 1813 1814 1815 1816 1817 1818 1819 1820 1821 1822 1823 1824 1825 1826 1827 1828 1829 1830 1831 1832 1833 1834 1835 1836 1837 1838 1839 1840 1841 1842 1843 1844 1845 1846 1847 1848 1849 1850 1851 1852 1853 1854 1855 1856 1857 1858 1859 1860 1861 1862 1863 1864 1865 1866 1867 1868 1869 1870 1871 1872 1873 1874 1875 1876 1877 1878 1879 1880 1881 1882 1883 1884 1885 1886 1887 1888 1889 1890 1891 1892 1893 1894 1895 1896 1897 1898 1899 1900 1901 1902 1903 1904 1905 1906 1907 1908 1909 1910 1911 1912 1913 1914 1915 1916 1917 1918 1919 1920 1921 1922 1923 1924 1925 1926 1927 1928 1929 1930 1931 1932 1933 1934 1935 1936 1937 1938 1939 1940 1941 1942 1943 1944 1945 1946 1947 1948 1949 1950 1951 1952 1953 1954 1955 1956 1957 1958 1959 1960 1961 1962 1963 1964 1965 1966 1967 1968 1969 1970 1971 1972 1973 1974 1975 1976 1977 1978 1979 1980 1981 1982 1983 1984 1985 1986 1987 1988 1989 1990 1991 1992 1993 1994 1995 1996 1997 1998 1999 2000 2001 2002 2003 2004 2005 2006 2007 2008 2009 2010 2011 2012 2013 2014 2015 2016 2017 2018 2019 2020 2021 2022 2023 2024 2025 2026 2027 2028 2029 2030 2031 2032 2033 2034 2035 2036 2037 2038 2039 2040 2041 2042 2043 2044 2045 2046 2047 2048 2049 2050 2051 2052 2053 2054 2055 2056 2057 2058 2059 2060 2061 2062 2063 2064 2065 2066 2067 2068 2069 2070 2071 2072 2073 2074 2075 2076 2077 2078 2079 2080 2081 2082 2083 2084 2085 2086 2087 2088 2089 2090 2091 2092 2093 2094 2095 2096 2097 2098 2099 2100 2101 2102 2103 2104 2105 2106 2107 2108 2109 2110 2111 2112 2113 2114 2115 2116 2117 2118 2119 2120 2121 2122 2123 2124 2125 2126 2127 2128 2129 2130 2131 2132 2133 2134 2135 2136 2137 2138 2139 2140 2141 2142 2143 2144 2145 2146 2147 2148 2149 2150 2151 2152 2153 2154 2155 2156 2157 2158 2159 2160 2161 2162 2163 2164 2165 2166 2167 2168 2169 2170 2171 2172 2173 2174 2175 2176 2177 2178 2179 2180 2181 2182 2183 2184 2185 2186 2187 2188 2189 2190 2191 2192 2193 2194 2195 2196 2197 2198 2199 2200 2201 2202 2203 2204 2205 2206 2207 2208 2209 2210 2211 2212 2213 2214 2215 2216 2217 2218 2219 2220 2221 2222 2223 2224 2225 2226 2227 2228 2229 2230 2231 2232 2233 2234 2235 2236 2237 2238 2239 2240 2241 2242 2243 2244 2245 2246 2247 2248 2249 2250 2251 2252 2253 2254 2255 2256 2257 2258 2259 2260 2261 2262 2263 2264 2265 2266 2267 2268 2269 2270 2271 2272 2273 2274 2275 2276 2277 2278 2279 2280 2281 2282 2283 2284 2285 2286 2287 2288 2289 2290 2291 2292 2293 2294 2295 2296 2297 2298 2299 2300 2301 2302 2303 2304 2305 2306 2307 2308 2309 2310 2311 2312 2313 2314 2315 2316 2317 2318 2319 2320 2321 2322 2323 2324 2325 2326 2327 2328 2329 2330 2331 2332 2333 2334 2335 2336 2337 2338 2339 2340 2341 2342 2343 2344 2345 2346 2347 2348 2349 2350 2351 2352 2353 2354 2355 2356 2357 2358 2359 2360 2361 2362 2363 2364 2365 2366 2367 2368 2369 2370 2371 2372 2373 2374 2375 2376 2377 2378 2379 2380 2381 2382 2383 2384 2385 2386 2387 2388 2389 2390 2391 2392 2393 2394 2395 2396 2397 2398 2399 2400 2401 2402 2403 2404 2405 2406 2407 2408 2409 2410 2411 2412 2413 2414 2415 2416 2417 2418 2419 2420 2421 2422 2423 2424 2425 2426 2427 2428 2429 2430 2431 2432 2433 2434 2435 2436 2437 2438 2439 2440 2441 2442 2443 2444 2445 2446 2447 2448 2449 2450 2451 2452 2453 2454 2455 2456 2457 2458 2459 2460 2461 2462 2463 2464 2465 2466 2467 2468 2469 2470 2471 2472 2473 2474 2475 2476 2477 2478 2479 2480 2481 2482 2483 2484 2485 2486 2487 2488 2489 2490 2491 2492 2493 2494 2495 2496 2497 2498 2499 2500 2501 2502 2503 2504 2505 2506 2507 2508 2509 2510 2511 2512 2513 2514 2515 2516 2517 2518 2519 2520 2521 2522 2523 2524 2525 2526 2527 2528 2529 2530 2531 2532 2533 2534 2535 2536 2537 2538 2539 2540 2541 2542 2543 2544 2545 2546 2547 2548 2549 2550 2551 2552 2553 2554 2555 2556 2557 2558 2559 2560 2561 2562 2563 2564 2565 2566 2567 2568 2569 2570 2571 2572 2573 2574 2575 2576 2577 2578 2579 2580 2581 2582 2583 2584 2585 2586 2587 2588 2589 2590 2591 2592 2593 2594 2595 2596 2597 2598 2599 2600 2601 2602 2603 2604 2605 2606 2607 2608 2609 2610 2611 2612 2613 2614 2615 2616 2617 2618 2619 2620 2621 2622 2623 2624 2625 2626 2627 2628 2629 2630 2631 2632 2633 2634 2635 2636 2637 2638 2639 2640 2641 2642 2643 2644 2645 2646 2647 2648 2649 2650 2651 2652 2653 2654 2655 2656 2657 2658 2659 2660 2661 2662 2663 2664 2665 2666 2667 2668 2669 2670 2671 2672 2673 2674 2675 2676 2677 2678 2679 2680 2681 2682 2683 2684 2685 2686 2687 2688 2689 2690 2691 2692 2693 2694 2695 2696 2697 2698 2699 2700 2701 2702 2703 2704 2705 2706 2707 2708 2709 2710 2711 2712 2713 2714 2715 2716 2717 2718 2719 2720 2721 2722 2723 2724 2725 2726 2727 2728 2729 2730 2731 2732 2733 2734 2735 2736 2737 2738 2739 2740 2741 2742 2743 2744 2745 2746 2747 2748 2749 2750 2751 2752 2753 2754 2755 2756 2757 2758 2759 2760 2761 2762 2763 2764 2765 2766 2767 2768 2769 2770 2771 2772 2773 2774 2775 2776 2777 2778 2779 2780 2781 2782 2783 2784 2785 2786 2787 2788 2789 2790 2791 2792 2793 2794 2795 2796 2797 2798 2799 2800 2801 2802 2803 2804 2805 2806 2807 2808 2809 2810 2811 2812 2813 2814 2815 2816 2817 2818 2819 2820 2821 2822 2823 2824 2825 2826 2827 2828 2829 2830 2831 2832 2833 2834 2835 2836 2837 2838 2839 2840 2841 2842 2843 2844 2845 2846 2847 2848 2849 2850 2851 2852 2853 2854 2855 2856 2857 2858 2859 2860 2861 2862 2863 2864 2865 2866 2867 2868 2869 2870 2871 2872 2873 2874 2875 2876 2877 2878 2879 2880 2881 2882 2883 2884 2885 2886 2887 2888 2889 2890 2891 2892 2893 2894 2895 2896 2897 2898 2899 2900 2901 2902 2903 2904 2905 2906 2907 2908 2909 2910 2911 2912 2913 2914 2915 2916 2917 2918 2919 2920 2921 2922 2923 2924 2925 2926 2927 2928 2929 2930 2931 2932 2933 2934 2935 2936 2937 2938 2939 2940 2941 2942 2943 2944 2945 2946 2947 2948 2949 2950 2951 2952 2953 2954 2955 2956 2957 2958 2959 2960 2961 2962 2963 2964 2965 2966 2967 2968 2969 2970 2971 2972 2973 2974 2975 2976 2977 2978 2979 2980 2981 2982 2983 2984 2985 2986 2987 2988 2989 2990 2991 2992 2993 2994 2995 2996 2997 2998 2999 3000 3001 3002 3003 3004 3005 3006 3007 3008 3009 3010 3011 3012 3013 3014 3015 3016 3017 3018 3019 3020 3021 3022 3023 3024 3025 3026 3027 3028 3029 3030 3031 3032 3033 3034 3035 3036 3037 3038 3039 3040 3041 3042 3043 3044 3045 3046 3047 3048 3049 3050 3051 3052 3053 3054 3055 3056 3057 3058 3059 3060 3061 3062 3063 3064 3065 3066 3067 3068 3069 3070 3071 3072 3073 3074 3075 3076 3077 3078 3079 3080 3081 3082 3083 3084 3085 3086 3087 3088 3089 3090 3091 3092 3093 3094 3095 3096 3097 3098 3099 3100 3101 3102 3103 3104 3105 3106 3107 3108 3109 3110 3111 3112 3113 3114 3115 3116 3117 3118 3119 3120 3121 3122 3123 3124 3125 3126 3127 3128 3129 3130 3131 3132 3133 3134 3135 3136 3137 3138 3139 3140 3141 3142 3143 3144 3145 3146 3147 3148 3149 3150 3151 3152 3153 3154 3155 3156 3157 3158 3159 3160 3161 3162 3163 3164 3165 3166 3167 3168 3169 3170 3171 3172 3173 3174 3175 3176 3177 3178 3179 3180 3181 3182 3183 3184 3185 
</DataArray>
<DataArray type="UInt32" Name="offsets" format="ascii">
3 6 9 12 15 18 21 24 27 30 33 36 39 42 45 48 51 54 57 60 63 66 69 72 75 78 81 84 87 90 93 96 99 102 105 108 111 114 117 120 123 126 129 132 135 138 141 144 147 150 153 156 159 162 165 168 171 174 177 180 183 186 189 192 195 198 201 204 207 210 213 216 219 222 225 228 231 234 237 240 243 246 249 252 255 258 261 264 267 270 273 276 279 282 285 288 291 294 297 300 303 306 309 312 315 318 321 324 327 330 333 336 339 342 345 348 351 354 357 360 363 366 369 372 375 378 381 384 387 390 393 396 399 402 405 408 411 414 417 420 423 426 429 432 435 438 441 444 447 450 453 456 459 462 465 468 471 474 477 480 483 486 489 492 495 498 501 504 507 510 513 516 519 522 525 528 531 534 537 540 543 546 549 552 555 558 561 564 567 570 573 576 579 582 585 588 591 594 597 600 603 606 609 612 615 618 621 624 627 630 633 636 639 642 645 648 651 654 657 660 663 666 669 672 675 678 681 684 687 690 693 696 699 702 705 708 711 714 717 720 723 726 729 732 735 738 741 744 747 750 753 756 759 762 765 768 771 774 777 780 783 786 789 792 795 798 801 804 807 810 813 816 819 822 825 828 831 834 837 840 843 846 849 852 855 858 861 864 867 870 873 876 879 882 885 888 891 894 897 900 903 906 909 912 915 918 921 924 927 930 933 936 939 942 945 948 951 954 957 960 963 966 969 972 975 978 981 984 987 990 993 996 999 1002 1005 1008 1011 1014 1017 1020 1023 1026 1029 1032 1035 1038 1041 1044 1047 1050 1053 1056 1059 1062 1065 1068 1071 1074 1077 1080 1083 1086 1089 1092 1095 1098 1101 1104 1107 1110 1113 1116 1119 1122 1125 1128 1131 1134 1137 1140 1143 1146 1149 1152 1155 1158 1161 1164 1167 1170 1173 1176 1179 1182 1185 1188 1191 1194 1197 1200 1203 1206 1209 1212 1215 1218 1221 1224 1227 1230 1233 1236 1239 1242 1245 1248 1251 1254 1257 1260 1263 1266 1269 1272 1275 1278 1281 1284 1287 1290 1293 1296 1299 1302 1305 1308 1311 1314 1317 1320 1323 1326 1329 1332 1335 1338 1341 1344 1347 1350 1353 1356 1359 1362 1365 1368 1371 1374 1377 1380 1383 1386 1389 1392 1395 1398 1401 1404 1407 1410 1413 1416 1419 1422 1425 1428 1431 1434 1437 1440 1443 1446 1449 1452 1455 1458 1461 1464 1467 1470 1473 1476 1479 1482 1485 1488 1491 1494 1497 1500 1503 1506 1509 1512 1515 1518 1521 1524 1527 1530 1533 1536 1539 1542 1545 1548 1551 1554 1557 1560 1563 1566 1569 1572 1575 1578 1581 1584 1587 1590 1593 1596 1599 1602 1605 1608 1611 1614 1617 1620 1623 1626 1629 1632 1635 1638 1641 1644 1647 1650 1653 1656 1659 1662 1665 1668 1671 1674 1677 1680 1683 1686 1689 1692 1695 1698 1701 1704 1707 1710 1713 1716 1719 1722 1725 1728 1731 1734 1737 1740 1743 1746 1749 1752 1755 1758 1761 1764 1767 1770 1773 1776 1779 1782 1785 1788 1791 1794 1797 1800 1803 1806 1809 1812 1815 1818 1821 1824 1827 1830 1833 1836 1839 1842 1845 1848 1851 1854 1857 1860 1863 1866 1869 1872 1875 1878 1881 1884 1887 1890 1893 1896 1899 1902 1905 1908 1911 1914 1917 1920 1923 1926 1929 1932 1935 1938 1941 1944 1947 1950 1953 1956 1959 1962 1965 1968 1971 1974 1977 1980 1983 1986 1989 1992 1995 1998 2001 2004 2007 2010 2013 2016 2019 2022 2025 2028 2031 2034 2037 2040 2043 2046 2049 2052 2055 2058 2061 2064 2067 2070 2073 2076 2079 2082 2085 2088 2091 2094 2097 2100 2103 2106 2109 2112 2115 2118 2121 2124 2127 2130 2133 2136 2139 2142 2145 2148 2151 2154 2157 2160 2163 2166 2169 2172 2175 2178 2181 2184 2187 2190 2193 2196 2199 2202 2205 2208 2211 2214 2217 2220 2223 2226 2229 2232 2235 2238 2241 2244 2247 2250 2253 2256 2259 2262 2265 2268 2271 2274 2277 2280 2283 2286 2289 2292 2295 2298 2301 2304 2307 2310 2313 2316 2319 2322 2325 2328 2331 2334 2337 2340 2343 2346 2349 2352 2355 2358 2361 2364 2367 2370 2373 2376 2379 2382 2385 2388 2391 2394 2397 2400 2403 2406 2409 2412 2415 2418 2421 2424 2427 2430 2433 2436 2439 2442 2445 2448 2451 2454 2457 2460 2463 2466 2469 2472 2475 2478 2481 2484 2487 2490 2493 2496 2499 2502 2505 2508 2511 2514 2517 2520 2523 2526 2529 2532 2535 2538 2541 2544 2547 2550 2553 2556 2559 2562 2565 2568 2571 2574 2577 2580 2583 2586 2589 2592 2595 2598 2601 2604 2607 2610 2613 2616 2619 2622 2625 2628 2631 2634 2637 2640 2643 2646 2649 2652 2655 2658 2661 2664 2667 2670 2673 2676 2679 2682 2685 2688 2691 2694 2697 2700 2703 2706 2709 2712 2715 2718 2721 2724 2727 2730 2733 2736 2739 2742 2745 2748 2751 2754 2757 2760 2763 2766 2769 2772 2775 2778 2781 2784 2787 2790 2793 2796 2799 2802 2805 2808 2811 2814 2817 2820 2823 2826 2829 2832 2835 2838 2841 2844 2847 2850 2853 2856 2859 2862 2865 2868 2871 2874 2877 2880 2883 2886 2889 2892 2895 2898 2901 2904 2907 2910 2913 2916 2919 2922 2925 2928 2931 2934 2937 2940 2943 2946 2949 2952 2955 2958 2961 2964 2967 2970 2973 2976 2979 2982 2985 2988 2991 2994 2997 3000 3003 3006 3009 3012 3015 3018 3021 3024 3027 3030 3033 3036 3039 3042 3045 3048 3051 3054 3057 3060 3063 3066 3069 3072 3075 3078 3081 3084 3087 3090 3093 3096 3099 3102 3105 3108 3111 3114 3117 3120 3123 3126 3129 3132 3135 3138 3141 3144 3147 3150 3153 3156 3159 3162 3165 3168 3171 3174 3177 3180 3183 3186 
</DataArray>
<DataArray type="UInt32" Name="types" format="ascii">
5 5 5 5 5 5 5 5 5 5 5 5 5 5 5 5 5 5 5 5 5 5 5 5 5 5 5 5 5 5 5 5 5 5 5 5 5 5 5 5 5 5 5 5 5 5 5 5 5 5 5 5 5 5 5 5 5 5 5 5 5 5 5 5 5 5 5 5 5 5 5 5 5 5 5 5 5 5 5 5 5 5 5 5 5 5 5 5 5 5 5 5 5 5 5 5 5 5 5 5 5 5 5 5 5 5 5 5 5 5 5 5 5 5 5 5 5 5 5 5 5 5 5 5 5 5 5 5 5 5 5 5 5 5 5 5 5 5 5 5 5 5 5 5 5 5 5 5 5 5 5 5 5 5 5 5 5 5 5 5 5 5 5 5 5 5 5 5 5 5 5 5 5 5 5 5 5 5 5 5 5 5 5 5 5 5 5 5 5 5 5 5 5 5 5 5 5 5 5 5 5 5 5 5 5 5 5 5 5 5 5 5 5 5 5 5 5 5 5 5 5 5 5 5 5 5 5 5 5 5 5 5 5 5 5 5 5 5 5 5 5 5 5 5 5 5 5 5 5 5 5 5 5 5 5 5 5 5 5 5 5 5 5 5 5 5 5 5 5 5 5 5 5 5 5 5 5 5 5 5 5 5 5 5 5 5 5 5 5 5 5 5 5 5 5 5 5 5 5 5 5 5 5 5 5 5 5 5 5 5 5 5 5 5 5 5 5 5 5 5 5 5 5 5 5 5 5 5 5 5 5 5 5 5 5 5 5 5 5 5 5 5 5 5 5 5 5 5 5 5 5 5 5 5 5 5 5 5 5 5 5 5 5 5 5 5 5 5 5 5 5 5 5 5 5 5 5 5 5 5 5 5 5 5 5 5 5 5 5 5 5 5 5 5 5 5 5 5 5 5 5 5 5 5 5 5 5 5 5 5 5 5 5 5 5 5 5 5 5 5 5 5 5 5 5 5 5 5 5 5 5 5 5 5 5 5 5 5 5 5 5 5 5 5 5 5 5 5 5 5 5 5 5 5 5 5 5 5 5 5 5 5 5 5 5 5 5 5 5 5 5 5 5 5 5 5 5 5 5 5 5 5 5 5 5 5 5 5 5 5 5 5 5 5 5 5 5 5 5 5 5 5 5 5 5 5 5 5 5 5 5 5 5 5 5 5 5 5 5 5 5 5 5 5 5 5 5 5 5 5 5 5 5 5 5 5 5 5 5 5 5 5 5 5 5 5 5 5 5 5 5 5 5 5 5 5 5 5 5 5 5 5 5 5 5 5 5 5 5 5 5 5 5 5 5 5 5 5 5 5 5 5 5 5 5 5 5 5 5 5 5 5 5 5 5 5 5 5 5 5 5 5 5 5 5 5 5 5 5 5 5 5 5 5 5 5 5 5 5 5 5 5 5 5 5 5 5 5 5 5 5 5 5 5 5 5 5 5 5 5 5 5 5 5 5 5 5 5 5 5 5 5 5 5 5 5 5 5 5 5 5 5 5 5 5 5 5 5 5 5 5 5 5 5 5 5 5 5 5 5 5 5 5 5 5 5 5 5 5 5 5 5 5 5 5 5 5 5 5 5 5 5 5 5 5 5 5 5 5 5 5 5 5 5 5 5 5 5 5 5 5 5 5 5 5 5 5 5 5 5 5 5 5 5 5 5 5 5 5 5 5 5 5 5 5 5 5 5 5 5 5 5 5 5 5 5 5 5 5 5 5 5 5 5 5 5 5 5 5 5 5 5 5 5 5 5 5 5 5 5 5 5 5 5 5 5 5 5 5 5 5 5 5 5 5 5 5 5 5 5 5 5 5 5 5 5 5 5 5 5 5 5 5 5 5 5 5 5 5 5 5 5 5 5 5 5 5 5 5 5 5 5 5 5 5 5 5 5 5 5 5 5 5 5 5 5 5 5 5 5 5 5 5 5 5 5 5 5 5 5 5 5 5 5 5 5 5 5 5 5 5 5 5 5 5 5 5 5 5 5 5 5 5 5 5 5 5 5 5 5 5 5 5 5 5 5 5 5 5 5 5 5 5 5 5 5 5 5 5 5 5 5 5 5 5 5 5 5 5 5 5 5 5 5 5 5 5 5 5 5 5 5 5 5 5 5 5 5 5 5 5 5 5 5 5 5 5 5 5 5 5 5 5 5 5 5 5 5 5 5 5 5 5 5 5 5 5 5 5 5 5 5 5 5 5 5 5 5 5 5 5 5 5 5 5 5 5 5 5 5 5 5 5 5 5 5 5 5 5 5 5 5 5 5 5 5 5 5 5 5 5 5 5 5 5 5 5 5 5 5 5 5 5 5 5 5 5 5 5 5 5 5 5 5 5 5 5 5 5 5 5 5 5 5 5 5 5 5 5 5 5 5 5 5 5 5 5 5 5 5 5 5 
</DataArray>
</Cells>
<PointData Scalars="" Vectors="displacement," Tensors="">
<DataArray type="Float64" Name="displacement" NumberOfComponents="3" format="ascii">
7.1395758174446622e-05 3.6048642474930181e-08 0 0.14283816373945193 -1.5771211866245667e-08 0 0.10410543339135739 2.3860010970234067e-06 0 7.1395758174446622e-05 3.6048642474930181e-08 0 0.10410543339135739 2.3860010970234067e-06 0 0.00016185810135611729 3.1292751123866648e-08 0 0.14283816373945193 -1.5771211866245667e-08 0 0.10410543339135739 2.3860010970234067e-06 0 0.21628326889721416 -4.1027229362133082e-06 0 0.10410543339135739 2.3860010970234067e-06 0 0.12884252205340405 6.6182940256354344e-06 0 0.21628326889721416 -4.1027229362133082e-06 0 0.10410543339135739 2.3860010970234067e-06 0 0.00016185810135611729 3.1292751123866648e-08 0 0.12884252205340405 6.6182940256354344e-06 0 0.00016185810135611729 3.1292751123866648e-08 0 0.00013773438727282596 -6.4405847624565562e-09 0 0.12884252205340405 6.6182940256354344e-06 0 0.093861747672448523 3.0586439882023411e-06 0 0.00013773438727282596 -6.4405847624565562e-09 0 0.0001441931210185409 7.9748107324375927e-09 0 0.093861747672448523 3.0586439882023411e-06 0 0.00013773438727282596 -6.4405847624565562e-09 0 0.12884252205340405 6.6182940256354344e-06 0 0.093861747672448523 3.0586439882023411e-06 0 0.12884252205340405 6.6182940256354344e-06 0 0.21351484480185839 3.2148242610710003e-06 0 0.12884252205340405 6.6182940256354344e-06 0 0.28191600997307731 -7.0198917163096269e-07 0 0.21628326889721416 -4.1027229362133082e-06 0 0.12884252205340405 6.6182940256354344e-06 0 0.21351484480185839 3.2148242610710003e-06 0 0.28191600997307731 -7.0198917163096269e-07 0 0.21351484480185839 3.2148242610710003e-06 0 0.28191600997307731 -7.0198917163096269e-07 0 0.35722760406652315 -2.94944457223679e-07 0 0.28191600997307731 -7.0198917163096269e-07 0 0.35722760406652315 -2.94944457223679e-07 0 0.42862812467881534 -2.9323141958780663e-06 0 0.28191600997307731 -7.0198917163096269e-07 0 0.3542314797625431 -2.5630955335322317e-06 0 0.42862812467881534 -2.9323141958780663e-06 0 0.28191600997307731 -7.0198917163096269e-07 0 0.3542314797625431 -2.5630955335322317e-06 0 0.21628326889721416 -4.1027229362133082e-06 0 0.3542314797625431 -2.5630955335322317e-06 0 0.2857193886651645 -1.1714605238445331e-08 0 0.21628326889721416 -4.1027229362133082e-06 0 0.3542314797625431 -2.5630955335322317e-06 0 0.2857193886651645 -1.1714605238445331e-08 0 0.4285700932315476 -4.3207031899397152e-09 0 0.14283816373945193 -1.5771211866245667e-08 0 0.2857193886651645 -1.1714605238445331e-08 0 0.21628326889721416 -4.1027229362133082e-06 0 0.092106858544155013 1.5616824170344838e-06 0 0.21195100474540626 2.1675674210180347e-06 0 0.12880955542414474 1.4661945689849077e-06 0 0.00014293698412158403 1.9632263769528739e-09 0 0.092106858544155013 1.5616824170344838e-06 0 0.12880955542414474 1.4661945689849077e-06 0 0.092106858544155013 1.5616824170344838e-06 0 0.000142474359417909 1.3684459362599945e-10 0 0.12666701791928126 3.026766578196175e-06 0 0.00014293698412158403 1.9632263769528739e-09 0 0.092106858544155013 1.5616824170344838e-06 0 0.000142474359417909 1.3684459362599945e-10 0 0.092106858544155013 1.5616824170344838e-06 0 0.12666701791928126 3.026766578196175e-06 0 0.21195100474540626 2.1675674210180347e-06 0 0.000142474359417909 1.3684459362599945e-10 0 0.12666701791928126 3.026766578196175e-06 0 0.0001441931210185409 7.9748107324375927e-09 0 0.093861747672448523 3.0586439882023411e-06 0 0.12666701791928126 3.026766578196175e-06 0 0.0001441931210185409 7.9748107324375927e-09 0 0.093861747672448523 3.0586439882023411e-06 0 0.21351484480185839 3.2148242610710003e-06 0 0.12666701791928126 3.026766578196175e-06 0 0.21351484480185839 3.2148242610710003e-06 0 0.12666701791928126 3.026766578196175e-06 0 0.28581630984517525 1.8637524808573892e-06 0 0.35722760406652315 -2.94944457223679e-07 0 0.28581630984517525 1.8637524808573892e-06 0 0.42866291785188171 -7.991719279745288e-07 0 0.21351484480185839 3.2148242610710003e-06 0 0.35722760406652315 -2.94944457223679e-07 0 0.28581630984517525 1.8637524808573892e-06 0 0.28581630984517525 1.8637524808573892e-06 0 0.35667760385785457 7.8557215434685093e-07 0 0.42866291785188171 -7.991719279745288e-07 0 0.12666701791928126 3.026766578196175e-06 0 0.28581630984517525 1.8637524808573892e-06 0 0.21195100474540626 2.1675674210180347e-06 0 0.28581630984517525 1.8637524808573892e-06 0 0.21195100474540626 2.1675674210180347e-06 0 0.35667760385785457 7.8557215434685093e-07 0 0.35667760385785457 7.8557215434685093e-07 0 0.42886018878627541 -1.4651726467925861e-07 0 0.28465255152597352 1.3366031048528547e-06 0 0.21195100474540626 2.1675674210180347e-06 0 0.35667760385785457 7.8557215434685093e-07 0 0.28465255152597352 1.3366031048528547e-06 0 0.21195100474540626 2.1675674210180347e-06 0 0.28465255152597352 1.3366031048528547e-06 0 0.12880955542414474 1.4661945689849077e-06 0 0.50012003984467046 -1.4688798636308229e-06 0 0.57154018739711898 -2.1101208760797704e-06 0 0.42886018878627541 -1.4651726467925861e-07 0 0.35667760385785457 7.8557215434685093e-07 0 0.50012003984467046 -1.4688798636308229e-06 0 0.42886018878627541 -1.4651726467925861e-07 0 0.35667760385785457 7.8557215434685093e-07 0 0.50012003984467046 -1.4688798636308229e-06 0 0.42866291785188171 -7.991719279745288e-07 0 0.50012003984467046 -1.4688798636308229e-06 0 0.42866291785188171 -7.991719279745288e-07 0 0.57150466283916379 -3.2548539632990098e-06 0 0.35722760406652315 -2.94944457223679e-07 0 0.42866291785188171 -7.991719279745288e-07 0 0.50006793619019585 -2.9829207524622116e-06 0 0.42866291785188171 -7.991719279745288e-07 0 0.50006793619019585 -2.9829207524622116e-06 0 0.57150466283916379 -3.2548539632990098e-06 0 0.64291011188103686 -4.8265450710365317e-06 0 0.71695264871862374 -5.1866965663962711e-06 0 0.57150466283916379 -3.2548539632990098e-06 0 0.50006793619019585 -2.9829207524622116e-06 0 0.64291011188103686 -4.8265450710365317e-06 0 0.57150466283916379 -3.2548539632990098e-06 0 0.64291011188103686 -4.8265450710365317e-06 0 0.71695264871862374 -5.1866965663962711e-06 0 0.78575385896139194 -6.0575216930630589e-06 0 0.71695264871862374 -5.1866965663962711e-06 0 0.57150466283916379 -3.2548539632990098e-06 0 0.64293624497980317 -3.646633530199291e-06 0 0.50012003984467046 -1.4688798636308229e-06 0 0.57150466283916379 -3.2548539632990098e-06 0 0.64293624497980317 -3.646633530199291e-06 0 0.71695264871862374 -5.1866965663962711e-06 0 0.64293624497980317 -3.646633530199291e-06 0 0.78661955524538696 -5.4292043261967186e-06 0 0.64293624497980317 -3.646633530199291e-06 0 0.78661955524538696 -5.4292043261967186e-06 0 0.71543588146367887 -4.0226463518519512e-06 0 0.50012003984467046 -1.4688798636308229e-06 0 0.64293624497980317 -3.646633530199291e-06 0 0.57154018739711898 -2.1101208760797704e-06 0 0.64293624497980317 -3.646633530199291e-06 0 0.57154018739711898 -2.1101208760797704e-06 0 0.71543588146367887 -4.0226463518519512e-06 0 0.49930295806836095 -3.5227417530436581e-06 0 0.4285700932315476 -4.3207031899397152e-09 0 0.57142894586847837 -6.6659904376427705e-09 0 0.3542314797625431 -2.5630955335322317e-06 0 0.49930295806836095 -3.5227417530436581e-06 0 0.4285700932315476 -4.3207031899397152e-09 0 0.3542314797625431 -2.5630955335322317e-06 0 0.49930295806836095 -3.5227417530436581e-06 0 0.42862812467881534 -2.9323141958780663e-06 0 0.35722760406652315 -2.94944457223679e-07 0 0.50006793619019585 -2.9829207524622116e-06 0 0.42862812467881534 -2.9323141958780663e-06 0 0.50006793619019585 -2.9829207524622116e-06 0 0.42862812467881534 -2.9323141958780663e-06 0 0.57138635730728593 -4.4187281485123844e-06 0 0.49930295806836095 -3.5227417530436581e-06 0 0.42862812467881534 -2.9323141958780663e-06 0 0.57138635730728593 -4.4187281485123844e-06 0 0.57138635730728593 -4.4187281485123844e-06 0 0.71338402001693868 -5.2102104558969156e-06 0 0.64225982954849004 -3.6044836028953574e-06 0 0.64291011188103686 -4.8265450710365317e-06 0 0.57138635730728593 -4.4187281485123844e-06 0 0.71338402001693868 -5.2102104558969156e-06 0 0.50006793619019585 -2.9829207524622116e-06 0 0.64291011188103686 -4.8265450710365317e-06 0 0.57138635730728593 -4.4187281485123844e-06 0 0.64291011188103686 -4.8265450710365317e-06 0 0.71338402001693868 -5.2102104558969156e-06 0 0.78575385896139194 -6.0575216930630589e-06 0 0.71338402001693868 -5.2102104558969156e-06 0 0.64225982954849004 -3.6044836028953574e-06 0 0.78020442360274034 -3.6741649003439801e-06 0 0.49930295806836095 -3.5227417530436581e-06 0 0.57138635730728593 -4.4187281485123844e-06 0 0.64225982954849004 -3.6044836028953574e-06 0 0.64225982954849004 -3.6044836028953574e-06 0 0.57142894586847837 -6.6659904376427705e-09 0 0.7142856276731262 -5.0764092899735048e-09 0 0.49930295806836095 -3.5227417530436581e-06 0 0.64225982954849004 -3.6044836028953574e-06 0 0.57142894586847837 -6.6659904376427705e-09 0 0.64225982954849004 -3.6044836028953574e-06 0 0.7142856276731262 -5.0764092899735048e-09 0 0.78020442360274034 -3.6741649003439801e-06 0 0.7142856276731262 -5.0764092899735048e-09 0 0.78020442360274034 -3.6741649003439801e-06 0 0.85714288991183696 -4.7929943299661101e-09 0 0.78020442360274034 -3.6741649003439801e-06 0 0.89543125542495794 -3.0063349673852749e-06 0 0.86804611838884849 -5.5007734045207385e-06 0 0.89543125542495794 -3.0063349673852749e-06 0 1.0000105406472739 -3.908888616066643e-06 0 0.86804611838884849 -5.5007734045207385e-06 0 0.89543125542495794 -3.0063349673852749e-06 0 0.85714288991183696 -4.7929943299661101e-09 0 0.99999999845277543 -5.120817048141252e-09 0 0.78020442360274034 -3.6741649003439801e-06 0 0.89543125542495794 -3.0063349673852749e-06 0 0.85714288991183696 -4.7929943299661101e-09 0 0.89543125542495794 -3.0063349673852749e-06 0 0.99999999845277543 -5.120817048141252e-09 0 1.0000105406472739 -3.908888616066643e-06 0 1.0000105406472739 -3.908888616066643e-06 0 1.1045846261495513 -3.0409607201712993e-06 0 1.1165603126860812 -5.4978153467422453e-06 0 0.99999999845277543 -5.120817048141252e-09 0 1.0000105406472739 -3.908888616066643e-06 0 1.1045846261495513 -3.0409607201712993e-06 0 0.99999999845277543 -5.120817048141252e-09 0 1.1045846261495513 -3.0409607201712993e-06 0 1.1428571486670711 -4.6504216367152071e-09 0 1.1204267228895863 -7.2139986912873029e-06 0 1.0000200873333014 -6.1782154930586915e-06 0 1.0000279500750546 -7.2349725962597319e-06 0 1.1204267228895863 -7.2139986912873029e-06 0 1.1165603126860812 -5.4978153467422453e-06 0 1.0000200873333014 -6.1782154930586915e-06 0 1.0000105406472739 -3.908888616066643e-06 0 1.1165603126860812 -5.4978153467422453e-06 0 1.0000200873333014 -6.1782154930586915e-06 0 1.0000105406472739 -3.908888616066643e-06 0 1.0000200873333014 -6.1782154930586915e-06 0 0.86804611838884849 -5.5007734045207385e-06 0 1.0000200873333014 -6.1782154930586915e-06 0 0.90516774677778666 -6.561019891850293e-06 0 1.0000279500750546 -7.2349725962597319e-06 0 1.0000200873333014 -6.1782154930586915e-06 0 0.90516774677778666 -6.561019891850293e-06 0 0.86804611838884849 -5.5007734045207385e-06 0 0.90516774677778666 -6.561019891850293e-06 0 0.86804611838884849 -5.5007734045207385e-06 0 0.78575385896139194 -6.0575216930630589e-06 0 0.71338402001693868 -5.2102104558969156e-06 0 0.78020442360274034 -3.6741649003439801e-06 0 0.86804611838884849 -5.5007734045207385e-06 0 0.71338402001693868 -5.2102104558969156e-06 0 0.86804611838884849 -5.5007734045207385e-06 0 0.78575385896139194 -6.0575216930630589e-06 0 0.71695264871862374 -5.1866965663962711e-06 0 0.78575385896139194 -6.0575216930630589e-06 0 0.87198930827309251 -6.6336373948028587e-06 0 0.71695264871862374 -5.1866965663962711e-06 0 0.87198930827309251 -6.6336373948028587e-06 0 0.78661955524538696 -5.4292043261967186e-06 0 0.90516774677778666 -6.561019891850293e-06 0 0.87198930827309251 -6.6336373948028587e-06 0 1.0000279500750546 -7.2349725962597319e-06 0 0.90516774677778666 -6.561019891850293e-06 0 0.78575385896139194 -6.0575216930630589e-06 0 0.87198930827309251 -6.6336373948028587e-06 0 0.78661955524538696 -5.4292043261967186e-06 0 0.87066588083719076 -5.6824579927818414e-06 0 0.71543588146367887 -4.0226463518519512e-06 0 0.87198930827309251 -6.6336373948028587e-06 0 0.90586973652366221 -6.5176900018354065e-06 0 1.0000340410111683 -7.341328616292134e-06 0 0.87198930827309251 -6.6336373948028587e-06 0 0.78661955524538696 -5.4292043261967186e-06 0 0.90586973652366221 -6.5176900018354065e-06 0 0.90586973652366221 -6.5176900018354065e-06 0 1.0000385066105775 -6.9831819831453584e-06 0 0.87066588083719076 -5.6824579927818414e-06 0 0.78661955524538696 -5.4292043261967186e-06 0 0.90586973652366221 -6.5176900018354065e-06 0 0.87066588083719076 -5.6824579927818414e-06 0 0.90586973652366221 -6.5176900018354065e-06 0 1.0000385066105775 -6.9831819831453584e-06 0 1.0000340410111683 -7.341328616292134e-06 0 1.0000340410111683 -7.341328616292134e-06 0 1.1231119742573001 -7.9171641124747023e-06 0 1.1231334831664432 -7.9342622282162503e-06 0 1.0000385066105775 -6.9831819831453584e-06 0 1.0000340410111683 -7.341328616292134e-06 0 1.1231119742573001 -7.9171641124747023e-06 0 1.0000385066105775 -6.9831819831453584e-06 0 1.1231119742573001 -7.9171641124747023e-06 0 1.1205580342352475 -7.4562943892831936e-06 0 0.87198930827309251 -6.6336373948028587e-06 0 1.0000340410111683 -7.341328616292134e-06 0 1.0000279500750546 -7.2349725962597319e-06 0 1.0000340410111683 -7.341328616292134e-06 0 1.0000279500750546 -7.2349725962597319e-06 0 1.1231334831664432 -7.9342622282162503e-06 0 1.1204267228895863 -7.2139986912873029e-06 0 1.0000279500750546 -7.2349725962597319e-06 0 1.1231334831664432 -7.9342622282162503e-06 0 1.1204267228895863 -7.2139986912873029e-06 0 1.1231334831664432 -7.9342622282162503e-06 0 1.2430060950774091 -7.9665506858996327e-06 0 1.1231334831664432 -7.9342622282162503e-06 0 1.2430060950774091 -7.9665506858996327e-06 0 1.2472456691596583 -8.4269994228137951e-06 0 1.2430060950774091 -7.9665506858996327e-06 0 1.2472456691596583 -8.4269994228137951e-06 0 1.3691305711220751 -8.4954901348932998e-06 0 1.1231119742573001 -7.9171641124747023e-06 0 1.2467210454578288 -8.2309113130073862e-06 0 1.1205580342352475 -7.4562943892831936e-06 0 1.1231119742573001 -7.9171641124747023e-06 0 1.1231334831664432 -7.9342622282162503e-06 0 1.2472456691596583 -8.4269994228137951e-06 0 1.1231119742573001 -7.9171641124747023e-06 0 1.2472456691596583 -8.4269994228137951e-06 0 1.2467210454578288 -8.2309113130073862e-06 0 1.2472456691596583 -8.4269994228137951e-06 0 1.2467210454578288 -8.2309113130073862e-06 0 1.3707898513799535 -8.6739174021523595e-06 0 1.2467210454578288 -8.2309113130073862e-06 0 1.3707898513799535 -8.6739174021523595e-06 0 1.3690906353376104 -8.3001287749723412e-06 0 1.2472456691596583 -8.4269994228137951e-06 0 1.3707898513799535 -8.6739174021523595e-06 0 1.3691305711220751 -8.4954901348932998e-06 0 1.3707898513799535 -8.6739174021523595e-06 0 1.4944714031312927 -8.7538728391699313e-06 0 1.4948720504238122 -8.6334218799901473e-06 0 1.3707898513799535 -8.6739174021523595e-06 0 1.4944714031312927 -8.7538728391699313e-06 0 1.3691305711220751 -8.4954901348932998e-06 0 1.3707898513799535 -8.6739174021523595e-06 0 1.4948720504238122 -8.6334218799901473e-06 0 1.3690906353376104 -8.3001287749723412e-06 0 1.2430060950774091 -7.9665506858996327e-06 0 1.3691305711220751 -8.4954901348932998e-06 0 1.3659199934736559 -7.5130067596759606e-06 0 1.4944714031312927 -8.7538728391699313e-06 0 1.3691305711220751 -8.4954901348932998e-06 0 1.4932109217703133 -8.1691609025896742e-06 0 1.3691305711220751 -8.4954901348932998e-06 0 1.4932109217703133 -8.1691609025896742e-06 0 1.3659199934736559 -7.5130067596759606e-06 0 1.4932109217703133 -8.1691609025896742e-06 0 1.3659199934736559 -7.5130067596759606e-06 0 1.4945917626733474 -6.5860066226689932e-06 0 1.3659199934736559 -7.5130067596759606e-06 0 1.3628011165564107 -5.4349201356293507e-06 0 1.2398115031480674 -6.580798882977751e-06 0 1.3628011165564107 -5.4349201356293507e-06 0 1.4945917626733474 -6.5860066226689932e-06 0 1.4981773348366996 -3.6921871806814847e-06 0 1.3659199934736559 -7.5130067596759606e-06 0 1.3628011165564107 -5.4349201356293507e-06 0 1.4945917626733474 -6.5860066226689932e-06 0 1.4981773348366996 -3.6921871806814847e-06 0 1.428571430076625 -4.7160435993032423e-09 0 1.3571446108869683 -2.6125201844335021e-06 0 1.4981773348366996 -3.6921871806814847e-06 0 1.428571430076625 -4.7160435993032423e-09 0 1.5714285699844506 -4.6642183628084705e-09 0 1.428571430076625 -4.7160435993032423e-09 0 1.3571446108869683 -2.6125201844335021e-06 0 1.2857142867214051 -4.6490767274568869e-09 0 1.3628011165564107 -5.4349201356293507e-06 0 1.3571446108869683 -2.6125201844335021e-06 0 1.2304892469313167 -3.7631800088802639e-06 0 1.3628011165564107 -5.4349201356293507e-06 0 1.4981773348366996 -3.6921871806814847e-06 0 1.3571446108869683 -2.6125201844335021e-06 0 1.2304892469313167 -3.7631800088802639e-06 0 1.2857142867214051 -4.6490767274568869e-09 0 1.1428571486670711 -4.6504216367152071e-09 0 1.3571446108869683 -2.6125201844335021e-06 0 1.2304892469313167 -3.7631800088802639e-06 0 1.2857142867214051 -4.6490767274568869e-09 0 1.1045846261495513 -3.0409607201712993e-06 0 1.2304892469313167 -3.7631800088802639e-06 0 1.1428571486670711 -4.6504216367152071e-09 0 1.1045846261495513 -3.0409607201712993e-06 0 1.1165603126860812 -5.4978153467422453e-06 0 1.2304892469313167 -3.7631800088802639e-06 0 1.1165603126860812 -5.4978153467422453e-06 0 1.2304892469313167 -3.7631800088802639e-06 0 1.2398115031480674 -6.580798882977751e-06 0 1.1204267228895863 -7.2139986912873029e-06 0 1.2430060950774091 -7.9665506858996327e-06 0 1.2398115031480674 -6.580798882977751e-06 0 1.1204267228895863 -7.2139986912873029e-06 0 1.1165603126860812 -5.4978153467422453e-06 0 1.2398115031480674 -6.580798882977751e-06 0 1.2430060950774091 -7.9665506858996327e-06 0 1.3659199934736559 -7.5130067596759606e-06 0 1.2398115031480674 -6.580798882977751e-06 0 1.3628011165564107 -5.4349201356293507e-06 0 1.2304892469313167 -3.7631800088802639e-06 0 1.2398115031480674 -6.580798882977751e-06 0 1.2843385585502083 -3.52843570182636e-06 0 1.3565324912619838 -5.3472003963148993e-06 0 1.217161604334724 -5.1426166558089839e-06 0 1.2843385585502083 -3.52843570182636e-06 0 1.1310241155292218 -3.419151353666323e-06 0 1.217161604334724 -5.1426166558089839e-06 0 1.1310241155292218 -3.419151353666323e-06 0 1.217161604334724 -5.1426166558089839e-06 0 1.1046140547285377 -4.9279582028829648e-06 0 1.2843385585502083 -3.52843570182636e-06 0 1.1310241155292218 -3.419151353666323e-06 0 1.2143123164512473 -1.631929520696354e-06 0 1.1310241155292218 -3.419151353666323e-06 0 1.2143123164512473 -1.631929520696354e-06 0 1.0966497833056019 -1.7763478606832464e-06 0 1.2143123164512473 -1.631929520696354e-06 0 1.126577737851943 2.3479576576797226e-08 0 1.2857342898225748 7.638438022642896e-08 0 1.2143123164512473 -1.631929520696354e-06 0 1.0966497833056019 -1.7763478606832464e-06 0 1.126577737851943 2.3479576576797226e-08 0 1.2143123164512473 -1.631929520696354e-06 0 1.3557371620651515 -1.756185093683389e-06 0 1.2857342898225748 7.638438022642896e-08 0 1.2843385585502083 -3.52843570182636e-06 0 1.2143123164512473 -1.631929520696354e-06 0 1.3557371620651515 -1.756185093683389e-06 0 1.3557371620651515 -1.756185093683389e-06 0 1.2857342898225748 7.638438022642896e-08 0 1.4285857543131395 7.9151762856999696e-08 0 1.3557371620651515 -1.756185093683389e-06 0 1.4999999727574238 -1.7794326373891894e-06 0 1.4285857543131395 7.9151762856999696e-08 0 1.3557371620651515 -1.756185093683389e-06 0 1.4999999727574238 -1.7794326373891894e-06 0 1.4269212143295227 -3.6298543873832528e-06 0 1.4999999727574238 -1.7794326373891894e-06 0 1.4269212143295227 -3.6298543873832528e-06 0 1.571146102467359 -3.616419512107853e-06 0 1.2843385585502083 -3.52843570182636e-06 0 1.3557371620651515 -1.756185093683389e-06 0 1.4269212143295227 -3.6298543873832528e-06 0 1.2843385585502083 -3.52843570182636e-06 0 1.4269212143295227 -3.6298543873832528e-06 0 1.3565324912619838 -5.3472003963148993e-06 0 1.4269212143295227 -3.6298543873832528e-06 0 1.4999999795351515 -5.4921996079612948e-06 0 1.571146102467359 -3.616419512107853e-06 0 1.4269212143295227 -3.6298543873832528e-06 0 1.3565324912619838 -5.3472003963148993e-06 0 1.4999999795351515 -5.4921996079612948e-06 0 1.4999999795351515 -5.4921996079612948e-06 0 1.4285775157062337 -7.1753215651902571e-06 0 1.5714224598513247 -7.1690025607772309e-06 0 1.3565324912619838 -5.3472003963148993e-06 0 1.4999999795351515 -5.4921996079612948e-06 0 1.4285775157062337 -7.1753215651902571e-06 0 1.4285775157062337 -7.1753215651902571e-06 0 1.4975495782851276 -7.9900969021060307e-06 0 1.5714224598513247 -7.1690025607772309e-06 0 1.4285775157062337 -7.1753215651902571e-06 0 1.3591642295169868 -7.6448151856873177e-06 0 1.2857326877644 -6.9189069902249382e-06 0 1.3565324912619838 -5.3472003963148993e-06 0 1.4285775157062337 -7.1753215651902571e-06 0 1.2857326877644 -6.9189069902249382e-06 0 1.4948720504238122 -8.6334218799901473e-06 0 1.4975495782851276 -7.9900969021060307e-06 0 1.3690906353376104 -8.3001287749723412e-06 0 1.4975495782851276 -7.9900969021060307e-06 0 1.3591642295169868 -7.6448151856873177e-06 0 1.3690906353376104 -8.3001287749723412e-06 0 1.4285775157062337 -7.1753215651902571e-06 0 1.4975495782851276 -7.9900969021060307e-06 0 1.3591642295169868 -7.6448151856873177e-06 0 1.3591642295169868 -7.6448151856873177e-06 0 1.3690906353376104 -8.3001287749723412e-06 0 1.2323938894908832 -7.5294963290233165e-06 0 1.2467210454578288 -8.2309113130073862e-06 0 1.3690906353376104 -8.3001287749723412e-06 0 1.2323938894908832 -7.5294963290233165e-06 0 1.3591642295169868 -7.6448151856873177e-06 0 1.2323938894908832 -7.5294963290233165e-06 0 1.2857326877644 -6.9189069902249382e-06 0 1.2323938894908832 -7.5294963290233165e-06 0 1.1428879910710248 -6.3758747085438997e-06 0 1.1046117852905031 -6.7695201065138805e-06 0 1.2323938894908832 -7.5294963290233165e-06 0 1.1205580342352475 -7.4562943892831936e-06 0 1.1046117852905031 -6.7695201065138805e-06 0 1.2467210454578288 -8.2309113130073862e-06 0 1.2323938894908832 -7.5294963290233165e-06 0 1.1205580342352475 -7.4562943892831936e-06 0 1.3565324912619838 -5.3472003963148993e-06 0 1.2857326877644 -6.9189069902249382e-06 0 1.217161604334724 -5.1426166558089839e-06 0 1.2323938894908832 -7.5294963290233165e-06 0 1.2857326877644 -6.9189069902249382e-06 0 1.1428879910710248 -6.3758747085438997e-06 0 1.1428879910710248 -6.3758747085438997e-06 0 1.217161604334724 -5.1426166558089839e-06 0 1.1046140547285377 -4.9279582028829648e-06 0 1.2857326877644 -6.9189069902249382e-06 0 1.1428879910710248 -6.3758747085438997e-06 0 1.217161604334724 -5.1426166558089839e-06 0 1.1046140547285377 -4.9279582028829648e-06 0 1.0000436459053832 -5.5797044137743024e-06 0 1.0000453523979915 -3.980324815160377e-06 0 1.1428879910710248 -6.3758747085438997e-06 0 1.1046140547285377 -4.9279582028829648e-06 0 1.0000436459053832 -5.5797044137743024e-06 0 1.1428879910710248 -6.3758747085438997e-06 0 1.0000436459053832 -5.5797044137743024e-06 0 1.1046117852905031 -6.7695201065138805e-06 0 1.0000436459053832 -5.5797044137743024e-06 0 0.89547599045941817 -3.759695941285543e-06 0 1.0000453523979915 -3.980324815160377e-06 0 1.0000385066105775 -6.9831819831453584e-06 0 1.1205580342352475 -7.4562943892831936e-06 0 1.000041637009762 -6.3215177567960864e-06 0 1.0000436459053832 -5.5797044137743024e-06 0 1.1046117852905031 -6.7695201065138805e-06 0 1.000041637009762 -6.3215177567960864e-06 0 1.1205580342352475 -7.4562943892831936e-06 0 1.1046117852905031 -6.7695201065138805e-06 0 1.000041637009762 -6.3215177567960864e-06 0 1.0000436459053832 -5.5797044137743024e-06 0 1.000041637009762 -6.3215177567960864e-06 0 0.89547296528732034 -5.3005596174049292e-06 0 1.0000385066105775 -6.9831819831453584e-06 0 1.000041637009762 -6.3215177567960864e-06 0 0.87066588083719076 -5.6824579927818414e-06 0 1.000041637009762 -6.3215177567960864e-06 0 0.87066588083719076 -5.6824579927818414e-06 0 0.89547296528732034 -5.3005596174049292e-06 0 0.89547296528732034 -5.3005596174049292e-06 0 0.78156121873777529 -4.2484533613362744e-06 0 0.85719963006235655 -4.4619674760432393e-06 0 0.87066588083719076 -5.6824579927818414e-06 0 0.89547296528732034 -5.3005596174049292e-06 0 0.78156121873777529 -4.2484533613362744e-06 0 0.87066588083719076 -5.6824579927818414e-06 0 0.78156121873777529 -4.2484533613362744e-06 0 0.71543588146367887 -4.0226463518519512e-06 0 0.89547599045941817 -3.759695941285543e-06 0 0.85719963006235655 -4.4619674760432393e-06 0 0.78025503687390363 -2.7903942684886469e-06 0 1.0000436459053832 -5.5797044137743024e-06 0 0.89547599045941817 -3.759695941285543e-06 0 0.85719963006235655 -4.4619674760432393e-06 0 1.0000436459053832 -5.5797044137743024e-06 0 0.89547296528732034 -5.3005596174049292e-06 0 0.85719963006235655 -4.4619674760432393e-06 0 0.78156121873777529 -4.2484533613362744e-06 0 0.85719963006235655 -4.4619674760432393e-06 0 0.7143560446090983 -3.0727426150960619e-06 0 0.85719963006235655 -4.4619674760432393e-06 0 0.78025503687390363 -2.7903942684886469e-06 0 0.7143560446090983 -3.0727426150960619e-06 0 0.78025503687390363 -2.7903942684886469e-06 0 0.86820022138517672 -2.397719524956213e-06 0 0.71325976315930328 -1.4974476030887164e-06 0 0.86820022138517672 -2.397719524956213e-06 0 0.78395861016213364 -9.5333048046225444e-07 0 0.71325976315930328 -1.4974476030887164e-06 0 0.86820022138517672 -2.397719524956213e-06 0 1.0000463634954975 -2.3854674861632858e-06 0 0.90453902012410281 -1.3489192792450096e-06 0 0.89547599045941817 -3.759695941285543e-06 0 0.78025503687390363 -2.7903942684886469e-06 0 0.86820022138517672 -2.397719524956213e-06 0 0.89547599045941817 -3.759695941285543e-06 0 0.86820022138517672 -2.397719524956213e-06 0 1.0000453523979915 -3.980324815160377e-06 0 0.86820022138517672 -2.397719524956213e-06 0 1.0000453523979915 -3.980324815160377e-06 0 1.0000463634954975 -2.3854674861632858e-06 0 1.1310241155292218 -3.419151353666323e-06 0 1.0000463634954975 -2.3854674861632858e-06 0 1.0966497833056019 -1.7763478606832464e-06 0 1.1310241155292218 -3.419151353666323e-06 0 1.0000453523979915 -3.980324815160377e-06 0 1.0000463634954975 -2.3854674861632858e-06 0 1.1310241155292218 -3.419151353666323e-06 0 1.1046140547285377 -4.9279582028829648e-06 0 1.0000453523979915 -3.980324815160377e-06 0 1.0966497833056019 -1.7763478606832464e-06 0 1.0000468241143916 -7.9221096092861827e-07 0 1.126577737851943 2.3479576576797226e-08 0 1.0000463634954975 -2.3854674861632858e-06 0 1.0966497833056019 -1.7763478606832464e-06 0 1.0000468241143916 -7.9221096092861827e-07 0 1.0000463634954975 -2.3854674861632858e-06 0 1.0000468241143916 -7.9221096092861827e-07 0 0.90453902012410281 -1.3489192792450096e-06 0 1.0000468241143916 -7.9221096092861827e-07 0 0.87200762097718698 -2.1763822235767629e-08 0 1.0000468268990681 7.9759905010479411e-07 0 0.87200762097718698 -2.1763822235767629e-08 0 0.90453902012410281 -1.3489192792450096e-06 0 0.78395861016213364 -9.5333048046225444e-07 0 1.0000468241143916 -7.9221096092861827e-07 0 0.87200762097718698 -2.1763822235767629e-08 0 0.90453902012410281 -1.3489192792450096e-06 0 0.86820022138517672 -2.397719524956213e-06 0 0.90453902012410281 -1.3489192792450096e-06 0 0.78395861016213364 -9.5333048046225444e-07 0 0.87200762097718698 -2.1763822235767629e-08 0 0.78395861016213364 -9.5333048046225444e-07 0 0.71435975234735494 -2.9414458650826098e-08 0 0.78395861016213364 -9.5333048046225444e-07 0 0.71435975234735494 -2.9414458650826098e-08 0 0.64256171120966421 -5.694211385398516e-07 0 0.71435975234735494 -2.9414458650826098e-08 0 0.57106897454376615 -1.7554629964531668e-08 0 0.64256171120966421 -5.694211385398516e-07 0 0.57106897454376615 -1.7554629964531668e-08 0 0.64256171120966421 -5.694211385398516e-07 0 0.4977867199555488 -2.1263196836477266e-07 0 0.64256171120966421 -5.694211385398516e-07 0 0.57156657736562544 -7.5572183493172071e-07 0 0.4977867199555488 -2.1263196836477266e-07 0 0.78395861016213364 -9.5333048046225444e-07 0 0.64256171120966421 -5.694211385398516e-07 0 0.71325976315930328 -1.4974476030887164e-06 0 0.78025503687390363 -2.7903942684886469e-06 0 0.71325976315930328 -1.4974476030887164e-06 0 0.64219068152140368 -1.6923055499637856e-06 0 0.71325976315930328 -1.4974476030887164e-06 0 0.57156657736562544 -7.5572183493172071e-07 0 0.64219068152140368 -1.6923055499637856e-06 0 0.57156657736562544 -7.5572183493172071e-07 0 0.64219068152140368 -1.6923055499637856e-06 0 0.50114475652125667 -6.1171312544536354e-07 0 0.64256171120966421 -5.694211385398516e-07 0 0.71325976315930328 -1.4974476030887164e-06 0 0.57156657736562544 -7.5572183493172071e-07 0 0.57156657736562544 -7.5572183493172071e-07 0 0.42782538943476334 -1.0992558550767509e-07 0 0.4977867199555488 -2.1263196836477266e-07 0 0.57156657736562544 -7.5572183493172071e-07 0 0.42782538943476334 -1.0992558550767509e-07 0 0.50114475652125667 -6.1171312544536354e-07 0 0.42782538943476334 -1.0992558550767509e-07 0 0.50114475652125667 -6.1171312544536354e-07 0 0.35734179070416328 2.4689165414009711e-07 0 0.42782538943476334 -1.0992558550767509e-07 0 0.4977867199555488 -2.1263196836477266e-07 0 0.35415067828878299 6.128200178504518e-08 0 0.42603863691393956 -6.1582001224132542e-09 0 0.4977867199555488 -2.1263196836477266e-07 0 0.35415067828878299 6.128200178504518e-08 0 0.57106897454376615 -1.7554629964531668e-08 0 0.42603863691393956 -6.1582001224132542e-09 0 0.4977867199555488 -2.1263196836477266e-07 0 0.57154018739711898 -2.1101208760797704e-06 0 0.71543588146367887 -4.0226463518519512e-06 0 0.64293229760359105 -2.6580248165197725e-06 0 0.57154018739711898 -2.1101208760797704e-06 0 0.64293229760359105 -2.6580248165197725e-06 0 0.50008945054855503 -9.1369380681136398e-07 0 0.78156121873777529 -4.2484533613362744e-06 0 0.71543588146367887 -4.0226463518519512e-06 0 0.64293229760359105 -2.6580248165197725e-06 0 0.78156121873777529 -4.2484533613362744e-06 0 0.64293229760359105 -2.6580248165197725e-06 0 0.7143560446090983 -3.0727426150960619e-06 0 0.64293229760359105 -2.6580248165197725e-06 0 0.57151282414006943 -1.5360388935170329e-06 0 0.50008945054855503 -9.1369380681136398e-07 0 0.64293229760359105 -2.6580248165197725e-06 0 0.57151282414006943 -1.5360388935170329e-06 0 0.7143560446090983 -3.0727426150960619e-06 0 0.78025503687390363 -2.7903942684886469e-06 0 0.7143560446090983 -3.0727426150960619e-06 0 0.64219068152140368 -1.6923055499637856e-06 0 0.57151282414006943 -1.5360388935170329e-06 0 0.7143560446090983 -3.0727426150960619e-06 0 0.64219068152140368 -1.6923055499637856e-06 0 0.57151282414006943 -1.5360388935170329e-06 0 0.64219068152140368 -1.6923055499637856e-06 0 0.50114475652125667 -6.1171312544536354e-07 0 0.57151282414006943 -1.5360388935170329e-06 0 0.50114475652125667 -6.1171312544536354e-07 0 0.42866990256702137 -1.2776002324103165e-07 0 0.50114475652125667 -6.1171312544536354e-07 0 0.42866990256702137 -1.2776002324103165e-07 0 0.35734179070416328 2.4689165414009711e-07 0 0.57151282414006943 -1.5360388935170329e-06 0 0.42866990256702137 -1.2776002324103165e-07 0 0.50008945054855503 -9.1369380681136398e-07 0 0.42866990256702137 -1.2776002324103165e-07 0 0.50008945054855503 -9.1369380681136398e-07 0 0.35841455461867311 5.3481008920402696e-07 0 0.50008945054855503 -9.1369380681136398e-07 0 0.42886018878627541 -1.4651726467925861e-07 0 0.35841455461867311 5.3481008920402696e-07 0 0.57154018739711898 -2.1101208760797704e-06 0 0.50008945054855503 -9.1369380681136398e-07 0 0.42886018878627541 -1.4651726467925861e-07 0 0.28465255152597352 1.3366031048528547e-06 0 0.22040942137394798 1.1937181222256898e-06 0 0.12880955542414474 1.4661945689849077e-06 0 0.28465255152597352 1.3366031048528547e-06 0 0.35841455461867311 5.3481008920402696e-07 0 0.22040942137394798 1.1937181222256898e-06 0 0.42886018878627541 -1.4651726467925861e-07 0 0.28465255152597352 1.3366031048528547e-06 0 0.35841455461867311 5.3481008920402696e-07 0 0.35841455461867311 5.3481008920402696e-07 0 0.22040942137394798 1.1937181222256898e-06 0 0.28582722183698356 7.9304139874492027e-07 0 0.22040942137394798 1.1937181222256898e-06 0 0.28582722183698356 7.9304139874492027e-07 0 0.14298481201004795 8.7641327375194488e-07 0 0.42866990256702137 -1.2776002324103165e-07 0 0.35841455461867311 5.3481008920402696e-07 0 0.28582722183698356 7.9304139874492027e-07 0 0.42866990256702137 -1.2776002324103165e-07 0 0.28582722183698356 7.9304139874492027e-07 0 0.35734179070416328 2.4689165414009711e-07 0 0.28582722183698356 7.9304139874492027e-07 0 0.35734179070416328 2.4689165414009711e-07 0 0.2172788616587446 6.2683898465945405e-07 0 0.28582722183698356 7.9304139874492027e-07 0 0.2172788616587446 6.2683898465945405e-07 0 0.14298481201004795 8.7641327375194488e-07 0 0.2172788616587446 6.2683898465945405e-07 0 0.10471078809036967 5.1365703664303698e-07 0 0.14298481201004795 8.7641327375194488e-07 0 0.10471078809036967 5.1365703664303698e-07 0 0.00014285084725036378 7.6100902230926805e-10 0 0.00014284019972956148 3.889525019810087e-10 0 0.10471078809036967 5.1365703664303698e-07 0 0.00014285084725036378 7.6100902230926805e-10 0 0.14298481201004795 8.7641327375194488e-07 0 0.00014285084725036378 7.6100902230926805e-10 0 0.14298481201004795 8.7641327375194488e-07 0 0.10471008200894617 8.6578457088504797e-07 0 0.22040942137394798 1.1937181222256898e-06 0 0.10471008200894617 8.6578457088504797e-07 0 0.12880955542414474 1.4661945689849077e-06 0 0.22040942137394798 1.1937181222256898e-06 0 0.14298481201004795 8.7641327375194488e-07 0 0.10471008200894617 8.6578457088504797e-07 0 0.00014285084725036378 7.6100902230926805e-10 0 0.10471008200894617 8.6578457088504797e-07 0 0.0001428148194611657 5.5374479433085178e-10 0 0.10471008200894617 8.6578457088504797e-07 0 0.0001428148194611657 5.5374479433085178e-10 0 0.12880955542414474 1.4661945689849077e-06 0 0.00014293698412158403 1.9632263769528739e-09 0 0.0001428148194611657 5.5374479433085178e-10 0 0.12880955542414474 1.4661945689849077e-06 0 0.20870682302437851 1.8630001423652113e-07 0 0.27816196656351988 3.3567444251129808e-09 0 0.12667328782089035 -1.5384226014456004e-10 0 0.20870682302437851 1.8630001423652113e-07 0 0.27816196656351988 3.3567444251129808e-09 0 0.35415067828878299 6.128200178504518e-08 0 0.42603863691393956 -6.1582001224132542e-09 0 0.27816196656351988 3.3567444251129808e-09 0 0.35415067828878299 6.128200178504518e-08 0 0.20870682302437851 1.8630001423652113e-07 0 0.35415067828878299 6.128200178504518e-08 0 0.28330396934020158 3.1070592834073569e-07 0 0.42782538943476334 -1.0992558550767509e-07 0 0.35415067828878299 6.128200178504518e-08 0 0.28330396934020158 3.1070592834073569e-07 0 0.42782538943476334 -1.0992558550767509e-07 0 0.35734179070416328 2.4689165414009711e-07 0 0.28330396934020158 3.1070592834073569e-07 0 0.35734179070416328 2.4689165414009711e-07 0 0.2172788616587446 6.2683898465945405e-07 0 0.28330396934020158 3.1070592834073569e-07 0 0.2172788616587446 6.2683898465945405e-07 0 0.28330396934020158 3.1070592834073569e-07 0 0.12830057000915898 3.8074064156744717e-07 0 0.20870682302437851 1.8630001423652113e-07 0 0.28330396934020158 3.1070592834073569e-07 0 0.12830057000915898 3.8074064156744717e-07 0 0.2172788616587446 6.2683898465945405e-07 0 0.10471078809036967 5.1365703664303698e-07 0 0.12830057000915898 3.8074064156744717e-07 0 0.10471078809036967 5.1365703664303698e-07 0 0.12830057000915898 3.8074064156744717e-07 0 0.00014284019972956148 3.889525019810087e-10 0 0.12830057000915898 3.8074064156744717e-07 0 0.00014284363319646144 1.5400228453780201e-10 0 0.08851993880750067 1.3901633000814429e-07 0 0.12830057000915898 3.8074064156744717e-07 0 0.00014284019972956148 3.889525019810087e-10 0 0.00014284363319646144 1.5400228453780201e-10 0 0.00014284363319646144 1.5400228453780201e-10 0 0.08851993880750067 1.3901633000814429e-07 0 0.00014284301520023324 1.2703864958960299e-10 0 0.20870682302437851 1.8630001423652113e-07 0 0.08851993880750067 1.3901633000814429e-07 0 0.12667328782089035 -1.5384226014456004e-10 0 0.20870682302437851 1.8630001423652113e-07 0 0.12830057000915898 3.8074064156744717e-07 0 0.08851993880750067 1.3901633000814429e-07 0 0.12667328782089035 -1.5384226014456004e-10 0 0.00014284301520023324 1.2703864958960299e-10 0 0.00014284302416063858 -1.2270652791225394e-10 0 0.08851993880750067 1.3901633000814429e-07 0 0.12667328782089035 -1.5384226014456004e-10 0 0.00014284301520023324 1.2703864958960299e-10 0 0.12667328782089035 -1.5384226014456004e-10 0 0.00014284302416063858 -1.2270652791225394e-10 0 0.093597979896251571 -1.400338502058995e-07 0 0.00014284302416063858 -1.2270652791225394e-10 0 0.093597979896251571 -1.400338502058995e-07 0 0.00014284362352752204 -1.6373189176652361e-10 0 0.093597979896251571 -1.400338502058995e-07 0 0.21216674883989523 -1.7768135640708714e-07 0 0.12886413483693207 -3.8547936492007382e-07 0 0.12667328782089035 -1.5384226014456004e-10 0 0.093597979896251571 -1.400338502058995e-07 0 0.21216674883989523 -1.7768135640708714e-07 0 0.27816196656351988 3.3567444251129808e-09 0 0.12667328782089035 -1.5384226014456004e-10 0 0.21216674883989523 -1.7768135640708714e-07 0 0.21216674883989523 -1.7768135640708714e-07 0 0.35672634704135781 -5.642445986766174e-08 0 0.28163845459970432 -3.1045479604992376e-07 0 0.27816196656351988 3.3567444251129808e-09 0 0.21216674883989523 -1.7768135640708714e-07 0 0.35672634704135781 -5.642445986766174e-08 0 0.42603863691393956 -6.1582001224132542e-09 0 0.27816196656351988 3.3567444251129808e-09 0 0.35672634704135781 -5.642445986766174e-08 0 0.28163845459970432 -3.1045479604992376e-07 0 0.35426160229723996 -2.6344040657649224e-07 0 0.42867216719816315 1.0448797378005857e-07 0 0.28163845459970432 -3.1045479604992376e-07 0 0.21628821270769594 -6.307562551152547e-07 0 0.35426160229723996 -2.6344040657649224e-07 0 0.35672634704135781 -5.642445986766174e-08 0 0.28163845459970432 -3.1045479604992376e-07 0 0.42867216719816315 1.0448797378005857e-07 0 0.21216674883989523 -1.7768135640708714e-07 0 0.28163845459970432 -3.1045479604992376e-07 0 0.12886413483693207 -3.8547936492007382e-07 0 0.28163845459970432 -3.1045479604992376e-07 0 0.12886413483693207 -3.8547936492007382e-07 0 0.21628821270769594 -6.307562551152547e-07 0 0.12886413483693207 -3.8547936492007382e-07 0 0.10415273239360846 -5.1601779761046722e-07 0 0.21628821270769594 -6.307562551152547e-07 0 0.093597979896251571 -1.400338502058995e-07 0 0.12886413483693207 -3.8547936492007382e-07 0 0.00014284362352752204 -1.6373189176652361e-10 0 0.12886413483693207 -3.8547936492007382e-07 0 0.00014284362352752204 -1.6373189176652361e-10 0 0.00014284020371101885 -3.8909638146365172e-10 0 0.12886413483693207 -3.8547936492007382e-07 0 0.00014284020371101885 -3.8909638146365172e-10 0 0.10415273239360846 -5.1601779761046722e-07 0 0.00014285083709287831 -7.7049673265981589e-10 0 0.14298480944821057 -8.830910927425302e-07 0 0.10415273239360846 -5.1601779761046722e-07 0 0.00014284020371101885 -3.8909638146365172e-10 0 0.00014285083709287831 -7.7049673265981589e-10 0 0.10415273239360846 -5.1601779761046722e-07 0 0.00014285083709287831 -7.7049673265981589e-10 0 0.14298480944821057 -8.830910927425302e-07 0 0.10415203501867888 -8.6681349569343034e-07 0 0.14298480944821057 -8.830910927425302e-07 0 0.10415273239360846 -5.1601779761046722e-07 0 0.21628821270769594 -6.307562551152547e-07 0 0.0001428148374653873 -5.3421832987700253e-10 0 0.12886209452529088 -1.4559177152981479e-06 0 0.00014293696959666929 -1.9913515380376711e-09 0 0.0001428148374653873 -5.3421832987700253e-10 0 0.10415203501867888 -8.6681349569343034e-07 0 0.12886209452529088 -1.4559177152981479e-06 0 0.00014285083709287831 -7.7049673265981589e-10 0 0.0001428148374653873 -5.3421832987700253e-10 0 0.10415203501867888 -8.6681349569343034e-07 0 0.10415203501867888 -8.6681349569343034e-07 0 0.12886209452529088 -1.4559177152981479e-06 0 0.21628660151573817 -1.2024752693867282e-06 0 0.14298480944821057 -8.830910927425302e-07 0 0.10415203501867888 -8.6681349569343034e-07 0 0.21628660151573817 -1.2024752693867282e-06 0 0.12886209452529088 -1.4559177152981479e-06 0 0.21628660151573817 -1.2024752693867282e-06 0 0.28163381976677737 -1.3673037074585201e-06 0 0.21628660151573817 -1.2024752693867282e-06 0 0.35425893234280836 -5.7689136698470243e-07 0 0.28582722339568667 -8.01738453490929e-07 0 0.21628660151573817 -1.2024752693867282e-06 0 0.35425893234280836 -5.7689136698470243e-07 0 0.28163381976677737 -1.3673037074585201e-06 0 0.35425893234280836 -5.7689136698470243e-07 0 0.28163381976677737 -1.3673037074585201e-06 0 0.42866558978387093 1.4462668327194467e-07 0 0.14298480944821057 -8.830910927425302e-07 0 0.21628821270769594 -6.307562551152547e-07 0 0.28582722339568667 -8.01738453490929e-07 0 0.14298480944821057 -8.830910927425302e-07 0 0.21628660151573817 -1.2024752693867282e-06 0 0.28582722339568667 -8.01738453490929e-07 0 0.35425893234280836 -5.7689136698470243e-07 0 0.28582722339568667 -8.01738453490929e-07 0 0.42866990400820265 1.2149884278370758e-07 0 0.28582722339568667 -8.01738453490929e-07 0 0.35426160229723996 -2.6344040657649224e-07 0 0.42866990400820265 1.2149884278370758e-07 0 0.21628821270769594 -6.307562551152547e-07 0 0.28582722339568667 -8.01738453490929e-07 0 0.35426160229723996 -2.6344040657649224e-07 0 0.35426160229723996 -2.6344040657649224e-07 0 0.42866990400820265 1.2149884278370758e-07 0 0.49936827345865697 5.8836935939589078e-07 0 0.42866990400820265 1.2149884278370758e-07 0 0.49936479807855816 9.0325511754479955e-07 0 0.57151282160933659 1.5304433826708605e-06 0 0.42866990400820265 1.2149884278370758e-07 0 0.57151282160933659 1.5304433826708605e-06 0 0.49936827345865697 5.8836935939589078e-07 0 0.35425893234280836 -5.7689136698470243e-07 0 0.42866558978387093 1.4462668327194467e-07 0 0.49936479807855816 9.0325511754479955e-07 0 0.35425893234280836 -5.7689136698470243e-07 0 0.42866990400820265 1.2149884278370758e-07 0 0.49936479807855816 9.0325511754479955e-07 0 0.42866558978387093 1.4462668327194467e-07 0 0.49936479807855816 9.0325511754479955e-07 0 0.57134103733860464 2.1353364472401176e-06 0 0.49936479807855816 9.0325511754479955e-07 0 0.64230368666026261 2.670243430391519e-06 0 0.57134103733860464 2.1353364472401176e-06 0 0.64230368666026261 2.670243430391519e-06 0 0.57134103733860464 2.1353364472401176e-06 0 0.71337531961392509 4.0484875758867815e-06 0 0.49936479807855816 9.0325511754479955e-07 0 0.64230368666026261 2.670243430391519e-06 0 0.57151282160933659 1.5304433826708605e-06 0 0.64230368666026261 2.670243430391519e-06 0 0.71435603856350505 3.071643241781861e-06 0 0.78025117904207208 4.271767444026931e-06 0 0.64230368666026261 2.670243430391519e-06 0 0.71337531961392509 4.0484875758867815e-06 0 0.78025117904207208 4.271767444026931e-06 0 0.57151282160933659 1.5304433826708605e-06 0 0.71435603856350505 3.071643241781861e-06 0 0.6423077243947467 1.6559379687244385e-06 0 0.57151282160933659 1.5304433826708605e-06 0 0.6423077243947467 1.6559379687244385e-06 0 0.49936827345865697 5.8836935939589078e-07 0 0.64230368666026261 2.670243430391519e-06 0 0.57151282160933659 1.5304433826708605e-06 0 0.71435603856350505 3.071643241781861e-06 0 0.71435603856350505 3.071643241781861e-06 0 0.6423077243947467 1.6559379687244385e-06 0 0.78025509174223107 2.7541115552926335e-06 0 0.6423077243947467 1.6559379687244385e-06 0 0.71338379639257088 1.442949422863673e-06 0 0.78025509174223107 2.7541115552926335e-06 0 0.6423077243947467 1.6559379687244385e-06 0 0.57134908170410514 7.2664123126862159e-07 0 0.71338379639257088 1.442949422863673e-06 0 0.6423077243947467 1.6559379687244385e-06 0 0.57134908170410514 7.2664123126862159e-07 0 0.49936827345865697 5.8836935939589078e-07 0 0.57134908170410514 7.2664123126862159e-07 0 0.71338379639257088 1.442949422863673e-06 0 0.64277769081132718 5.2201628341291811e-07 0 0.71338379639257088 1.442949422863673e-06 0 0.64277769081132718 5.2201628341291811e-07 0 0.78578134697752811 8.6656810151620867e-07 0 0.71435975234735494 -2.9414458650826098e-08 0 0.64277769081132718 5.2201628341291811e-07 0 0.78578134697752811 8.6656810151620867e-07 0 0.71435975234735494 -2.9414458650826098e-08 0 0.57106897454376615 -1.7554629964531668e-08 0 0.64277769081132718 5.2201628341291811e-07 0 0.57106897454376615 -1.7554629964531668e-08 0 0.64277769081132718 5.2201628341291811e-07 0 0.49958080035570213 1.9504425316804133e-07 0 0.57134908170410514 7.2664123126862159e-07 0 0.64277769081132718 5.2201628341291811e-07 0 0.49958080035570213 1.9504425316804133e-07 0 0.57106897454376615 -1.7554629964531668e-08 0 0.42603863691393956 -6.1582001224132542e-09 0 0.49958080035570213 1.9504425316804133e-07 0 0.42603863691393956 -6.1582001224132542e-09 0 0.35672634704135781 -5.642445986766174e-08 0 0.49958080035570213 1.9504425316804133e-07 0 0.35672634704135781 -5.642445986766174e-08 0 0.49958080035570213 1.9504425316804133e-07 0 0.42867216719816315 1.0448797378005857e-07 0 0.35426160229723996 -2.6344040657649224e-07 0 0.42867216719816315 1.0448797378005857e-07 0 0.49936827345865697 5.8836935939589078e-07 0 0.57134908170410514 7.2664123126862159e-07 0 0.42867216719816315 1.0448797378005857e-07 0 0.49936827345865697 5.8836935939589078e-07 0 0.57134908170410514 7.2664123126862159e-07 0 0.49958080035570213 1.9504425316804133e-07 0 0.42867216719816315 1.0448797378005857e-07 0 0.2857193886174057 1.1629328223968728e-08 0 0.35727312092657365 2.5625889294113105e-06 0 0.42857009328600143 4.3861424987766639e-09 0 0.2857193886174057 1.1629328223968728e-08 0 0.35727312092657365 2.5625889294113105e-06 0 0.21721483851084716 4.1090196502172435e-06 0 0.35727312092657365 2.5625889294113105e-06 0 0.21721483851084716 4.1090196502172435e-06 0 0.28326501306965163 8.9510434952252839e-07 0 0.2857193886174057 1.1629328223968728e-08 0 0.21721483851084716 4.1090196502172435e-06 0 0.14283816370733565 1.5806265381064342e-08 0 0.21721483851084716 4.1090196502172435e-06 0 0.14283816370733565 1.5806265381064342e-08 0 0.10466368271576847 -2.3826740413512157e-06 0 7.1395711875098369e-05 -3.6064425711319917e-08 0 0.00016185809936312566 -3.1387827580864091e-08 0 0.10466368271576847 -2.3826740413512157e-06 0 0.14283816370733565 1.5806265381064342e-08 0 7.1395711875098369e-05 -3.6064425711319917e-08 0 0.10466368271576847 -2.3826740413512157e-06 0 0.00016185809936312566 -3.1387827580864091e-08 0 0.10466368271576847 -2.3826740413512157e-06 0 0.12827920962815989 -6.6776149072674941e-06 0 0.21721483851084716 4.1090196502172435e-06 0 0.10466368271576847 -2.3826740413512157e-06 0 0.12827920962815989 -6.6776149072674941e-06 0 0.00016185809936312566 -3.1387827580864091e-08 0 0.12827920962815989 -6.6776149072674941e-06 0 0.00013773457881642817 6.7143306511366993e-09 0 0.12827920962815989 -6.6776149072674941e-06 0 0.00013773457881642817 6.7143306511366993e-09 0 0.088510644560400822 -3.0135619831114997e-06 0 0.00013773457881642817 6.7143306511366993e-09 0 0.088510644560400822 -3.0135619831114997e-06 0 0.0001441929710145036 -8.1422672123390633e-09 0 0.12827920962815989 -6.6776149072674941e-06 0 0.088510644560400822 -3.0135619831114997e-06 0 0.20868898606608544 -3.4028488827047157e-06 0 0.21721483851084716 4.1090196502172435e-06 0 0.12827920962815989 -6.6776149072674941e-06 0 0.28326501306965163 8.9510434952252839e-07 0 0.12827920962815989 -6.6776149072674941e-06 0 0.20868898606608544 -3.4028488827047157e-06 0 0.28326501306965163 8.9510434952252839e-07 0 0.35727312092657365 2.5625889294113105e-06 0 0.28326501306965163 8.9510434952252839e-07 0 0.42778057182192031 2.9800380131099775e-06 0 0.28326501306965163 8.9510434952252839e-07 0 0.35412435302378126 4.046929023610353e-07 0 0.42778057182192031 2.9800380131099775e-06 0 0.20868898606608544 -3.4028488827047157e-06 0 0.28326501306965163 8.9510434952252839e-07 0 0.35412435302378126 4.046929023610353e-07 0 0.35412435302378126 4.046929023610353e-07 0 0.27814866559205009 -2.0095434278987495e-06 0 0.42602033351316448 8.3786694847452556e-07 0 0.27814866559205009 -2.0095434278987495e-06 0 0.35671631659937603 -7.948631554682978e-07 0 0.42602033351316448 8.3786694847452556e-07 0 0.27814866559205009 -2.0095434278987495e-06 0 0.12666696934234986 -3.0382980871604417e-06 0 0.21216051386794665 -2.2075269647938406e-06 0 0.20868898606608544 -3.4028488827047157e-06 0 0.27814866559205009 -2.0095434278987495e-06 0 0.12666696934234986 -3.0382980871604417e-06 0 0.20868898606608544 -3.4028488827047157e-06 0 0.35412435302378126 4.046929023610353e-07 0 0.27814866559205009 -2.0095434278987495e-06 0 0.088510644560400822 -3.0135619831114997e-06 0 0.20868898606608544 -3.4028488827047157e-06 0 0.12666696934234986 -3.0382980871604417e-06 0 0.088510644560400822 -3.0135619831114997e-06 0 0.0001441929710145036 -8.1422672123390633e-09 0 0.12666696934234986 -3.0382980871604417e-06 0 0.0001441929710145036 -8.1422672123390633e-09 0 0.12666696934234986 -3.0382980871604417e-06 0 0.00014247439827704363 -1.0441149598757777e-10 0 0.12666696934234986 -3.0382980871604417e-06 0 0.093595096216513921 -1.578103144763089e-06 0 0.21216051386794665 -2.2075269647938406e-06 0 0.12666696934234986 -3.0382980871604417e-06 0 0.093595096216513921 -1.578103144763089e-06 0 0.00014247439827704363 -1.0441149598757777e-10 0 0.093595096216513921 -1.578103144763089e-06 0 0.00014247439827704363 -1.0441149598757777e-10 0 0.00014293696959666929 -1.9913515380376711e-09 0 0.12886209452529088 -1.4559177152981479e-06 0 0.093595096216513921 -1.578103144763089e-06 0 0.00014293696959666929 -1.9913515380376711e-09 0 0.12886209452529088 -1.4559177152981479e-06 0 0.093595096216513921 -1.578103144763089e-06 0 0.21216051386794665 -2.2075269647938406e-06 0 0.12886209452529088 -1.4559177152981479e-06 0 0.28163381976677737 -1.3673037074585201e-06 0 0.21216051386794665 -2.2075269647938406e-06 0 0.27814866559205009 -2.0095434278987495e-06 0 0.21216051386794665 -2.2075269647938406e-06 0 0.35671631659937603 -7.948631554682978e-07 0 0.28163381976677737 -1.3673037074585201e-06 0 0.21216051386794665 -2.2075269647938406e-06 0 0.35671631659937603 -7.948631554682978e-07 0 0.28163381976677737 -1.3673037074585201e-06 0 0.42866558978387093 1.4462668327194467e-07 0 0.35671631659937603 -7.948631554682978e-07 0 0.42866558978387093 1.4462668327194467e-07 0 0.35671631659937603 -7.948631554682978e-07 0 0.49956824202889649 1.4932503463909487e-06 0 0.35671631659937603 -7.948631554682978e-07 0 0.49956824202889649 1.4932503463909487e-06 0 0.42602033351316448 8.3786694847452556e-07 0 0.42866558978387093 1.4462668327194467e-07 0 0.49956824202889649 1.4932503463909487e-06 0 0.57134103733860464 2.1353364472401176e-06 0 0.49956824202889649 1.4932503463909487e-06 0 0.57134103733860464 2.1353364472401176e-06 0 0.64276392102141411 3.6920310865702258e-06 0 0.57134103733860464 2.1353364472401176e-06 0 0.71337531961392509 4.0484875758867815e-06 0 0.64276392102141411 3.6920310865702258e-06 0 0.71337531961392509 4.0484875758867815e-06 0 0.64276392102141411 3.6920310865702258e-06 0 0.78576781045211008 5.4959006611110231e-06 0 0.64276392102141411 3.6920310865702258e-06 0 0.71433907303568378 5.1886911249061359e-06 0 0.78576781045211008 5.4959006611110231e-06 0 0.49956824202889649 1.4932503463909487e-06 0 0.64276392102141411 3.6920310865702258e-06 0 0.57104838925810741 3.306590780903133e-06 0 0.64276392102141411 3.6920310865702258e-06 0 0.57104838925810741 3.306590780903133e-06 0 0.71433907303568378 5.1886911249061359e-06 0 0.71433907303568378 5.1886911249061359e-06 0 0.64253123021150926 4.850421616807567e-06 0 0.7839301605485165 6.0365997397145781e-06 0 0.57104838925810741 3.306590780903133e-06 0 0.49775658171527759 3.019557756893621e-06 0 0.64253123021150926 4.850421616807567e-06 0 0.57104838925810741 3.306590780903133e-06 0 0.71433907303568378 5.1886911249061359e-06 0 0.64253123021150926 4.850421616807567e-06 0 0.57104838925810741 3.306590780903133e-06 0 0.42602033351316448 8.3786694847452556e-07 0 0.49775658171527759 3.019557756893621e-06 0 0.49956824202889649 1.4932503463909487e-06 0 0.57104838925810741 3.306590780903133e-06 0 0.42602033351316448 8.3786694847452556e-07 0 0.35412435302378126 4.046929023610353e-07 0 0.42602033351316448 8.3786694847452556e-07 0 0.49775658171527759 3.019557756893621e-06 0 0.35412435302378126 4.046929023610353e-07 0 0.42778057182192031 2.9800380131099775e-06 0 0.49775658171527759 3.019557756893621e-06 0 0.42778057182192031 2.9800380131099775e-06 0 0.57152204174088406 4.4176689721696147e-06 0 0.5010789555172408 3.5124414795354204e-06 0 0.42778057182192031 2.9800380131099775e-06 0 0.49775658171527759 3.019557756893621e-06 0 0.57152204174088406 4.4176689721696147e-06 0 0.49775658171527759 3.019557756893621e-06 0 0.64253123021150926 4.850421616807567e-06 0 0.57152204174088406 4.4176689721696147e-06 0 0.64253123021150926 4.850421616807567e-06 0 0.71321857003650435 5.1420548383140266e-06 0 0.57152204174088406 4.4176689721696147e-06 0 0.64253123021150926 4.850421616807567e-06 0 0.71321857003650435 5.1420548383140266e-06 0 0.7839301605485165 6.0365997397145781e-06 0 0.71321857003650435 5.1420548383140266e-06 0 0.57152204174088406 4.4176689721696147e-06 0 0.64213146271406318 3.4797616553324694e-06 0 0.57152204174088406 4.4176689721696147e-06 0 0.64213146271406318 3.4797616553324694e-06 0 0.5010789555172408 3.5124414795354204e-06 0 0.71321857003650435 5.1420548383140266e-06 0 0.64213146271406318 3.4797616553324694e-06 0 0.78020380396431255 3.5666025788512123e-06 0 0.64213146271406318 3.4797616553324694e-06 0 0.71428562775343418 5.1287102382864354e-09 0 0.78020380396431255 3.5666025788512123e-06 0 0.64213146271406318 3.4797616553324694e-06 0 0.71428562775343418 5.1287102382864354e-09 0 0.57142894576298364 6.5979717340867323e-09 0 0.64213146271406318 3.4797616553324694e-06 0 0.57142894576298364 6.5979717340867323e-09 0 0.5010789555172408 3.5124414795354204e-06 0 0.57142894576298364 6.5979717340867323e-09 0 0.5010789555172408 3.5124414795354204e-06 0 0.42857009328600143 4.3861424987766639e-09 0 0.35727312092657365 2.5625889294113105e-06 0 0.42778057182192031 2.9800380131099775e-06 0 0.5010789555172408 3.5124414795354204e-06 0 0.35727312092657365 2.5625889294113105e-06 0 0.5010789555172408 3.5124414795354204e-06 0 0.42857009328600143 4.3861424987766639e-09 0 1.1045845988885774 3.0382977707464702e-06 0 0.99999999839090314 5.1043378145983844e-09 0 1.142857148718776 4.6656658001434236e-09 0 1.1045845988885774 3.0382977707464702e-06 0 1.0000105254159015 3.9044727029192831e-06 0 0.99999999839090314 5.1043378145983844e-09 0 1.1045845988885774 3.0382977707464702e-06 0 1.0000105254159015 3.9044727029192831e-06 0 1.1205395643222031 5.5455065427210977e-06 0 1.0000105254159015 3.9044727029192831e-06 0 0.99999999839090314 5.1043378145983844e-09 0 0.89543120961789047 3.0073160221376749e-06 0 0.99999999839090314 5.1043378145983844e-09 0 0.85714288998445554 4.7973371204262853e-09 0 0.89543120961789047 3.0073160221376749e-06 0 0.85714288998445554 4.7973371204262853e-09 0 0.78020380396431255 3.5666025788512123e-06 0 0.89543120961789047 3.0073160221376749e-06 0 0.71428562775343418 5.1287102382864354e-09 0 0.85714288998445554 4.7973371204262853e-09 0 0.78020380396431255 3.5666025788512123e-06 0 1.0000105254159015 3.9044727029192831e-06 0 0.89543120961789047 3.0073160221376749e-06 0 0.86816399893690299 5.4448141575873508e-06 0 0.78020380396431255 3.5666025788512123e-06 0 0.89543120961789047 3.0073160221376749e-06 0 0.86816399893690299 5.4448141575873508e-06 0 0.71321857003650435 5.1420548383140266e-06 0 0.78020380396431255 3.5666025788512123e-06 0 0.86816399893690299 5.4448141575873508e-06 0 0.71321857003650435 5.1420548383140266e-06 0 0.86816399893690299 5.4448141575873508e-06 0 0.7839301605485165 6.0365997397145781e-06 0 0.86816399893690299 5.4448141575873508e-06 0 0.7839301605485165 6.0365997397145781e-06 0 0.90451331790049727 6.5163785819765241e-06 0 0.86816399893690299 5.4448141575873508e-06 0 0.90451331790049727 6.5163785819765241e-06 0 1.0000200717817334 6.1803801709413924e-06 0 0.90451331790049727 6.5163785819765241e-06 0 1.0000200717817334 6.1803801709413924e-06 0 1.0000279275717261 7.2398966875572209e-06 0 1.0000105254159015 3.9044727029192831e-06 0 0.86816399893690299 5.4448141575873508e-06 0 1.0000200717817334 6.1803801709413924e-06 0 1.0000105254159015 3.9044727029192831e-06 0 1.0000200717817334 6.1803801709413924e-06 0 1.1205395643222031 5.5455065427210977e-06 0 1.0000200717817334 6.1803801709413924e-06 0 1.1232039428842451 7.2300937997985391e-06 0 1.0000279275717261 7.2398966875572209e-06 0 1.0000200717817334 6.1803801709413924e-06 0 1.1205395643222031 5.5455065427210977e-06 0 1.1232039428842451 7.2300937997985391e-06 0 1.1232039428842451 7.2300937997985391e-06 0 1.1237407708093152 7.9384084900628449e-06 0 1.0000279275717261 7.2398966875572209e-06 0 1.1237407708093152 7.9384084900628449e-06 0 1.0000279275717261 7.2398966875572209e-06 0 1.0000340209678702 7.3477251800688691e-06 0 1.0000279275717261 7.2398966875572209e-06 0 0.87198904898302887 6.6442037526008885e-06 0 1.0000340209678702 7.3477251800688691e-06 0 0.7839301605485165 6.0365997397145781e-06 0 0.90451331790049727 6.5163785819765241e-06 0 0.87198904898302887 6.6442037526008885e-06 0 0.90451331790049727 6.5163785819765241e-06 0 1.0000279275717261 7.2398966875572209e-06 0 0.87198904898302887 6.6442037526008885e-06 0 0.71433907303568378 5.1886911249061359e-06 0 0.7839301605485165 6.0365997397145781e-06 0 0.87198904898302887 6.6442037526008885e-06 0 0.71433907303568378 5.1886911249061359e-06 0 0.87198904898302887 6.6442037526008885e-06 0 0.78576781045211008 5.4959006611110231e-06 0 0.87198904898302887 6.6442037526008885e-06 0 0.905179910325145 6.5305964695721771e-06 0 0.78576781045211008 5.4959006611110231e-06 0 0.87198904898302887 6.6442037526008885e-06 0 0.905179910325145 6.5305964695721771e-06 0 1.0000340209678702 7.3477251800688691e-06 0 0.71337531961392509 4.0484875758867815e-06 0 0.78576781045211008 5.4959006611110231e-06 0 0.86806881028581728 5.7073109777506176e-06 0 0.905179910325145 6.5305964695721771e-06 0 0.78576781045211008 5.4959006611110231e-06 0 0.86806881028581728 5.7073109777506176e-06 0 0.905179910325145 6.5305964695721771e-06 0 1.0000384947655367 6.9856068805805988e-06 0 0.86806881028581728 5.7073109777506176e-06 0 0.905179910325145 6.5305964695721771e-06 0 1.0000384947655367 6.9856068805805988e-06 0 1.0000340209678702 7.3477251800688691e-06 0 1.1237407708093152 7.9384084900628449e-06 0 1.0000340209678702 7.3477251800688691e-06 0 1.1244724777254231 7.9228070318436774e-06 0 1.0000384947655367 6.9856068805805988e-06 0 1.0000340209678702 7.3477251800688691e-06 0 1.1244724777254231 7.9228070318436774e-06 0 1.0000384947655367 6.9856068805805988e-06 0 1.1244724777254231 7.9228070318436774e-06 0 1.1237477293260814 7.4543854413460673e-06 0 1.1244724777254231 7.9228070318436774e-06 0 1.2437782040524059 8.2010634531544095e-06 0 1.1237477293260814 7.4543854413460673e-06 0 1.1237407708093152 7.9384084900628449e-06 0 1.1244724777254231 7.9228070318436774e-06 0 1.2474523496326158 8.43390755441632e-06 0 1.1244724777254231 7.9228070318436774e-06 0 1.2474523496326158 8.43390755441632e-06 0 1.2437782040524059 8.2010634531544095e-06 0 1.2474523496326158 8.43390755441632e-06 0 1.2437782040524059 8.2010634531544095e-06 0 1.367328464479233 8.6668030268953828e-06 0 1.2437782040524059 8.2010634531544095e-06 0 1.367328464479233 8.6668030268953828e-06 0 1.3682982114692284 8.2531722133130582e-06 0 1.494459303319243 8.6181097207361667e-06 0 1.367328464479233 8.6668030268953828e-06 0 1.3682982114692284 8.2531722133130582e-06 0 1.4933628750474413 8.7661258205968413e-06 0 1.367328464479233 8.6668030268953828e-06 0 1.3698908138794685 8.5157951756818148e-06 0 1.494459303319243 8.6181097207361667e-06 0 1.4933628750474413 8.7661258205968413e-06 0 1.367328464479233 8.6668030268953828e-06 0 1.2474523496326158 8.43390755441632e-06 0 1.367328464479233 8.6668030268953828e-06 0 1.3698908138794685 8.5157951756818148e-06 0 1.4933628750474413 8.7661258205968413e-06 0 1.3698908138794685 8.5157951756818148e-06 0 1.4946224302411202 8.2002343977935564e-06 0 1.3698908138794685 8.5157951756818148e-06 0 1.4946224302411202 8.2002343977935564e-06 0 1.370933031950728 7.5544506604824153e-06 0 1.3698908138794685 8.5157951756818148e-06 0 1.2473606255710232 7.9864951561844443e-06 0 1.370933031950728 7.5544506604824153e-06 0 1.2474523496326158 8.43390755441632e-06 0 1.3698908138794685 8.5157951756818148e-06 0 1.2473606255710232 7.9864951561844443e-06 0 1.1237407708093152 7.9384084900628449e-06 0 1.2474523496326158 8.43390755441632e-06 0 1.2473606255710232 7.9864951561844443e-06 0 1.1232039428842451 7.2300937997985391e-06 0 1.1237407708093152 7.9384084900628449e-06 0 1.2473606255710232 7.9864951561844443e-06 0 1.1205395643222031 5.5455065427210977e-06 0 1.1232039428842451 7.2300937997985391e-06 0 1.2467726175320897 6.6378939658299555e-06 0 1.1232039428842451 7.2300937997985391e-06 0 1.2473606255710232 7.9864951561844443e-06 0 1.2467726175320897 6.6378939658299555e-06 0 1.1205395643222031 5.5455065427210977e-06 0 1.2467726175320897 6.6378939658299555e-06 0 1.2323905156308985 3.8531889121316275e-06 0 1.2467726175320897 6.6378939658299555e-06 0 1.3691187466258963 5.5844947610889855e-06 0 1.2323905156308985 3.8531889121316275e-06 0 1.2473606255710232 7.9864951561844443e-06 0 1.2467726175320897 6.6378939658299555e-06 0 1.370933031950728 7.5544506604824153e-06 0 1.2467726175320897 6.6378939658299555e-06 0 1.370933031950728 7.5544506604824153e-06 0 1.3691187466258963 5.5844947610889855e-06 0 1.370933031950728 7.5544506604824153e-06 0 1.4948718674554349 6.700661378749683e-06 0 1.3691187466258963 5.5844947610889855e-06 0 1.4946224302411202 8.2002343977935564e-06 0 1.370933031950728 7.5544506604824153e-06 0 1.4948718674554349 6.700661378749683e-06 0 1.4948718674554349 6.700661378749683e-06 0 1.3691187466258963 5.5844947610889855e-06 0 1.4975494256038826 3.7318179737955523e-06 0 1.3691187466258963 5.5844947610889855e-06 0 1.3591579357472643 2.7968996410771682e-06 0 1.2323905156308985 3.8531889121316275e-06 0 1.3691187466258963 5.5844947610889855e-06 0 1.3591579357472643 2.7968996410771682e-06 0 1.4975494256038826 3.7318179737955523e-06 0 1.3591579357472643 2.7968996410771682e-06 0 1.4975494256038826 3.7318179737955523e-06 0 1.4285714300452825 4.7006746108649419e-09 0 1.4975494256038826 3.7318179737955523e-06 0 1.4285714300452825 4.7006746108649419e-09 0 1.571428569962193 4.6851469835668635e-09 0 1.3591579357472643 2.7968996410771682e-06 0 1.4285714300452825 4.7006746108649419e-09 0 1.2857142867103128 4.6444986634605681e-09 0 1.3591579357472643 2.7968996410771682e-06 0 1.2857142867103128 4.6444986634605681e-09 0 1.2323905156308985 3.8531889121316275e-06 0 1.2857142867103128 4.6444986634605681e-09 0 1.2323905156308985 3.8531889121316275e-06 0 1.142857148718776 4.6656658001434236e-09 0 1.1045845988885774 3.0382977707464702e-06 0 1.1205395643222031 5.5455065427210977e-06 0 1.2323905156308985 3.8531889121316275e-06 0 1.1045845988885774 3.0382977707464702e-06 0 1.2323905156308985 3.8531889121316275e-06 0 1.142857148718776 4.6656658001434236e-09 0 1.0000463609601713 2.3902740640328909e-06 0 1.0000453473153581 3.9842254879066138e-06 0 0.86807615383784442 2.3528355199241523e-06 0 1.0000453473153581 3.9842254879066138e-06 0 1.104614051028993 4.9332985644428756e-06 0 1.1287156987730134 3.4416881988442206e-06 0 1.0000463609601713 2.3902740640328909e-06 0 1.0920138510307722 1.7274657857183577e-06 0 1.1287156987730134 3.4416881988442206e-06 0 1.0000463609601713 2.3902740640328909e-06 0 1.0000453473153581 3.9842254879066138e-06 0 1.1287156987730134 3.4416881988442206e-06 0 1.0920138510307722 1.7274657857183577e-06 0 1.0000468268990681 7.9759905010479411e-07 0 1.126577737851943 2.3479576576797226e-08 0 1.0000468241143916 -7.9221096092861827e-07 0 1.0000468268990681 7.9759905010479411e-07 0 1.126577737851943 2.3479576576797226e-08 0 1.0000463609601713 2.3902740640328909e-06 0 1.0920138510307722 1.7274657857183577e-06 0 1.0000468268990681 7.9759905010479411e-07 0 1.0000463609601713 2.3902740640328909e-06 0 1.0000468268990681 7.9759905010479411e-07 0 0.90519174914731759 1.2795252972492275e-06 0 0.90519174914731759 1.2795252972492275e-06 0 0.78578134697752811 8.6656810151620867e-07 0 0.86807615383784442 2.3528355199241523e-06 0 0.87200762097718698 -2.1763822235767629e-08 0 1.0000468268990681 7.9759905010479411e-07 0 0.90519174914731759 1.2795252972492275e-06 0 0.87200762097718698 -2.1763822235767629e-08 0 0.90519174914731759 1.2795252972492275e-06 0 0.78578134697752811 8.6656810151620867e-07 0 0.87200762097718698 -2.1763822235767629e-08 0 0.71435975234735494 -2.9414458650826098e-08 0 0.78578134697752811 8.6656810151620867e-07 0 0.71338379639257088 1.442949422863673e-06 0 0.78578134697752811 8.6656810151620867e-07 0 0.86807615383784442 2.3528355199241523e-06 0 1.0000463609601713 2.3902740640328909e-06 0 0.90519174914731759 1.2795252972492275e-06 0 0.86807615383784442 2.3528355199241523e-06 0 1.0000453473153581 3.9842254879066138e-06 0 0.86807615383784442 2.3528355199241523e-06 0 0.89547598655808902 3.7645275130233471e-06 0 0.86807615383784442 2.3528355199241523e-06 0 0.78025509174223107 2.7541115552926335e-06 0 0.89547598655808902 3.7645275130233471e-06 0 0.71338379639257088 1.442949422863673e-06 0 0.86807615383784442 2.3528355199241523e-06 0 0.78025509174223107 2.7541115552926335e-06 0 0.71435603856350505 3.071643241781861e-06 0 0.78025509174223107 2.7541115552926335e-06 0 0.8571996277810997 4.4661376405311511e-06 0 0.71435603856350505 3.071643241781861e-06 0 0.8571996277810997 4.4661376405311511e-06 0 0.78025117904207208 4.271767444026931e-06 0 0.8571996277810997 4.4661376405311511e-06 0 0.89547295759583034 5.2990812160430168e-06 0 1.0000436402038189 5.5830425392355226e-06 0 0.78025509174223107 2.7541115552926335e-06 0 0.8571996277810997 4.4661376405311511e-06 0 0.89547598655808902 3.7645275130233471e-06 0 0.8571996277810997 4.4661376405311511e-06 0 0.89547598655808902 3.7645275130233471e-06 0 1.0000436402038189 5.5830425392355226e-06 0 0.71337531961392509 4.0484875758867815e-06 0 0.78025117904207208 4.271767444026931e-06 0 0.86806881028581728 5.7073109777506176e-06 0 0.78025117904207208 4.271767444026931e-06 0 0.89547295759583034 5.2990812160430168e-06 0 0.86806881028581728 5.7073109777506176e-06 0 0.8571996277810997 4.4661376405311511e-06 0 0.78025117904207208 4.271767444026931e-06 0 0.89547295759583034 5.2990812160430168e-06 0 0.89547295759583034 5.2990812160430168e-06 0 0.86806881028581728 5.7073109777506176e-06 0 1.0000416232519447 6.3261112898824356e-06 0 1.0000384947655367 6.9856068805805988e-06 0 0.86806881028581728 5.7073109777506176e-06 0 1.0000416232519447 6.3261112898824356e-06 0 0.89547295759583034 5.2990812160430168e-06 0 1.0000416232519447 6.3261112898824356e-06 0 1.0000436402038189 5.5830425392355226e-06 0 1.0000416232519447 6.3261112898824356e-06 0 1.1046117725283844 6.7747686068811156e-06 0 1.1237477293260814 7.4543854413460673e-06 0 1.0000416232519447 6.3261112898824356e-06 0 1.1046117725283844 6.7747686068811156e-06 0 1.0000436402038189 5.5830425392355226e-06 0 1.0000384947655367 6.9856068805805988e-06 0 1.0000416232519447 6.3261112898824356e-06 0 1.1237477293260814 7.4543854413460673e-06 0 1.0000453473153581 3.9842254879066138e-06 0 0.89547598655808902 3.7645275130233471e-06 0 1.0000436402038189 5.5830425392355226e-06 0 1.1046117725283844 6.7747686068811156e-06 0 1.0000436402038189 5.5830425392355226e-06 0 1.1428879842541679 6.3821428431840551e-06 0 1.0000436402038189 5.5830425392355226e-06 0 1.104614051028993 4.9332985644428756e-06 0 1.1428879842541679 6.3821428431840551e-06 0 1.0000453473153581 3.9842254879066138e-06 0 1.0000436402038189 5.5830425392355226e-06 0 1.104614051028993 4.9332985644428756e-06 0 1.104614051028993 4.9332985644428756e-06 0 1.1428879842541679 6.3821428431840551e-06 0 1.220315613443997 5.1946754787499187e-06 0 1.1428879842541679 6.3821428431840551e-06 0 1.2857326787598167 6.9271964140702032e-06 0 1.220315613443997 5.1946754787499187e-06 0 1.1428879842541679 6.3821428431840551e-06 0 1.2857326787598167 6.9271964140702032e-06 0 1.2313693762295814 7.5056348938095052e-06 0 1.2857326787598167 6.9271964140702032e-06 0 1.220315613443997 5.1946754787499187e-06 0 1.3583230538931421 5.449311269324698e-06 0 1.2437782040524059 8.2010634531544095e-06 0 1.1237477293260814 7.4543854413460673e-06 0 1.2313693762295814 7.5056348938095052e-06 0 1.1046117725283844 6.7747686068811156e-06 0 1.1237477293260814 7.4543854413460673e-06 0 1.2313693762295814 7.5056348938095052e-06 0 1.1046117725283844 6.7747686068811156e-06 0 1.1428879842541679 6.3821428431840551e-06 0 1.2313693762295814 7.5056348938095052e-06 0 1.2857326787598167 6.9271964140702032e-06 0 1.2313693762295814 7.5056348938095052e-06 0 1.3571547147560938 7.6142092665393214e-06 0 1.2437782040524059 8.2010634531544095e-06 0 1.2313693762295814 7.5056348938095052e-06 0 1.3682982114692284 8.2531722133130582e-06 0 1.2313693762295814 7.5056348938095052e-06 0 1.3682982114692284 8.2531722133130582e-06 0 1.3571547147560938 7.6142092665393214e-06 0 1.3571547147560938 7.6142092665393214e-06 0 1.4981774420712333 7.9864857289758341e-06 0 1.4285775056883516 7.1830679679615665e-06 0 1.3682982114692284 8.2531722133130582e-06 0 1.3571547147560938 7.6142092665393214e-06 0 1.4981774420712333 7.9864857289758341e-06 0 1.494459303319243 8.6181097207361667e-06 0 1.3682982114692284 8.2531722133130582e-06 0 1.4981774420712333 7.9864857289758341e-06 0 1.2857326787598167 6.9271964140702032e-06 0 1.3583230538931421 5.449311269324698e-06 0 1.4285775056883516 7.1830679679615665e-06 0 1.2857326787598167 6.9271964140702032e-06 0 1.3571547147560938 7.6142092665393214e-06 0 1.4285775056883516 7.1830679679615665e-06 0 1.4981774420712333 7.9864857289758341e-06 0 1.4285775056883516 7.1830679679615665e-06 0 1.571422448715746 7.1735195316928321e-06 0 1.4285775056883516 7.1830679679615665e-06 0 1.4999999737448086 5.5457269998772317e-06 0 1.571422448715746 7.1735195316928321e-06 0 1.3583230538931421 5.449311269324698e-06 0 1.4285775056883516 7.1830679679615665e-06 0 1.4999999737448086 5.5457269998772317e-06 0 1.3583230538931421 5.449311269324698e-06 0 1.4999999737448086 5.5457269998772317e-06 0 1.4287725204912574 3.7537863312536788e-06 0 1.4287725204912574 3.7537863312536788e-06 0 1.2845622410709989 3.6112395306579433e-06 0 1.3565924306731245 1.9110387817951475e-06 0 1.3583230538931421 5.449311269324698e-06 0 1.4287725204912574 3.7537863312536788e-06 0 1.2845622410709989 3.6112395306579433e-06 0 1.220315613443997 5.1946754787499187e-06 0 1.3583230538931421 5.449311269324698e-06 0 1.2845622410709989 3.6112395306579433e-06 0 1.2845622410709989 3.6112395306579433e-06 0 1.1287156987730134 3.4416881988442206e-06 0 1.2118617771554554 1.8336665204242479e-06 0 1.220315613443997 5.1946754787499187e-06 0 1.2845622410709989 3.6112395306579433e-06 0 1.1287156987730134 3.4416881988442206e-06 0 1.104614051028993 4.9332985644428756e-06 0 1.220315613443997 5.1946754787499187e-06 0 1.1287156987730134 3.4416881988442206e-06 0 1.0920138510307722 1.7274657857183577e-06 0 1.126577737851943 2.3479576576797226e-08 0 1.2118617771554554 1.8336665204242479e-06 0 1.126577737851943 2.3479576576797226e-08 0 1.2118617771554554 1.8336665204242479e-06 0 1.2857342898225748 7.638438022642896e-08 0 1.0920138510307722 1.7274657857183577e-06 0 1.1287156987730134 3.4416881988442206e-06 0 1.2118617771554554 1.8336665204242479e-06 0 1.2845622410709989 3.6112395306579433e-06 0 1.2118617771554554 1.8336665204242479e-06 0 1.3565924306731245 1.9110387817951475e-06 0 1.2118617771554554 1.8336665204242479e-06 0 1.2857342898225748 7.638438022642896e-08 0 1.3565924306731245 1.9110387817951475e-06 0 1.2857342898225748 7.638438022642896e-08 0 1.3565924306731245 1.9110387817951475e-06 0 1.4285857543131395 7.9151762856999696e-08 0 1.4287725204912574 3.7537863312536788e-06 0 1.3565924306731245 1.9110387817951475e-06 0 1.5000378054573753 1.9374995687354967e-06 0 1.3565924306731245 1.9110387817951475e-06 0 1.4285857543131395 7.9151762856999696e-08 0 1.5000378054573753 1.9374995687354967e-06 0 1.4285857543131395 7.9151762856999696e-08 0 1.5714301289642743 7.9013726705375442e-08 0 1.5000378054573753 1.9374995687354967e-06 0 1.5714301289642743 7.9013726705375442e-08 0 1.5000378054573753 1.9374995687354967e-06 0 1.6428555408127454 1.8931839897637202e-06 0 1.5000378054573753 1.9374995687354967e-06 0 1.6428555408127454 1.8931839897637202e-06 0 1.5714544307484262 3.7476758399372223e-06 0 1.5714301289642743 7.9013726705375442e-08 0 1.6428555408127454 1.8931839897637202e-06 0 1.7164487532019115 7.4178568536164259e-08 0 1.6428555408127454 1.8931839897637202e-06 0 1.7164487532019115 7.4178568536164259e-08 0 1.7839605473036779 1.7951945288537288e-06 0 1.6428555408127454 1.8931839897637202e-06 0 1.7839605473036779 1.7951945288537288e-06 0 1.7133526402908359 3.5925742531695978e-06 0 1.7839605473036779 1.7951945288537288e-06 0 1.8681481269459053 3.4313573628684489e-06 0 1.9044555228563278 1.7390380198021162e-06 0 1.7839605473036779 1.7951945288537288e-06 0 1.8719137326752828 3.2573340630912569e-08 0 1.9044555228563278 1.7390380198021162e-06 0 1.7164487532019115 7.4178568536164259e-08 0 1.7839605473036779 1.7951945288537288e-06 0 1.8719137326752828 3.2573340630912569e-08 0 1.8681481269459053 3.4313573628684489e-06 0 1.7133526402908359 3.5925742531695978e-06 0 1.7801641564955115 5.1483538472931527e-06 0 1.8681481269459053 3.4313573628684489e-06 0 1.7801641564955115 5.1483538472931527e-06 0 1.89538589480606 4.8904360624097128e-06 0 1.7839605473036779 1.7951945288537288e-06 0 1.8681481269459053 3.4313573628684489e-06 0 1.7133526402908359 3.5925742531695978e-06 0 1.7133526402908359 3.5925742531695978e-06 0 1.6417767811843229 5.4350308768568444e-06 0 1.7801641564955115 5.1483538472931527e-06 0 1.7133526402908359 3.5925742531695978e-06 0 1.5714544307484262 3.7476758399372223e-06 0 1.6417767811843229 5.4350308768568444e-06 0 1.6428555408127454 1.8931839897637202e-06 0 1.7133526402908359 3.5925742531695978e-06 0 1.5714544307484262 3.7476758399372223e-06 0 1.4287725204912574 3.7537863312536788e-06 0 1.5000378054573753 1.9374995687354967e-06 0 1.5714544307484262 3.7476758399372223e-06 0 1.4999999737448086 5.5457269998772317e-06 0 1.5714544307484262 3.7476758399372223e-06 0 1.6417767811843229 5.4350308768568444e-06 0 1.4999999737448086 5.5457269998772317e-06 0 1.4287725204912574 3.7537863312536788e-06 0 1.5714544307484262 3.7476758399372223e-06 0 1.4999999737448086 5.5457269998772317e-06 0 1.571422448715746 7.1735195316928321e-06 0 1.6417767811843229 5.4350308768568444e-06 0 1.571422448715746 7.1735195316928321e-06 0 1.6428452937129141 7.6371797925825027e-06 0 1.7142672795465179 6.9024588220149225e-06 0 1.571422448715746 7.1735195316928321e-06 0 1.6417767811843229 5.4350308768568444e-06 0 1.7142672795465179 6.9024588220149225e-06 0 1.494459303319243 8.6181097207361667e-06 0 1.4981774420712333 7.9864857289758341e-06 0 1.6185803350629466 8.308180128177889e-06 0 1.4981774420712333 7.9864857289758341e-06 0 1.571422448715746 7.1735195316928321e-06 0 1.6428452937129141 7.6371797925825027e-06 0 1.4981774420712333 7.9864857289758341e-06 0 1.6428452937129141 7.6371797925825027e-06 0 1.6185803350629466 8.308180128177889e-06 0 1.6428452937129141 7.6371797925825027e-06 0 1.6185803350629466 8.308180128177889e-06 0 1.7648839238692522 7.5148865416713643e-06 0 1.6185803350629466 8.308180128177889e-06 0 1.7648839238692522 7.5148865416713643e-06 0 1.7480645037293532 8.2300260944736828e-06 0 1.6428452937129141 7.6371797925825027e-06 0 1.7648839238692522 7.5148865416713643e-06 0 1.7142672795465179 6.9024588220149225e-06 0 1.7648839238692522 7.5148865416713643e-06 0 1.8779301112779672 7.4172301145268736e-06 0 1.895388184407319 6.7246601678996102e-06 0 1.7648839238692522 7.5148865416713643e-06 0 1.8571119661473963 6.3394811738244632e-06 0 1.895388184407319 6.7246601678996102e-06 0 1.7648839238692522 7.5148865416713643e-06 0 1.8779301112779672 7.4172301145268736e-06 0 1.7480645037293532 8.2300260944736828e-06 0 1.6417767811843229 5.4350308768568444e-06 0 1.7801641564955115 5.1483538472931527e-06 0 1.7142672795465179 6.9024588220149225e-06 0 1.7648839238692522 7.5148865416713643e-06 0 1.7142672795465179 6.9024588220149225e-06 0 1.8571119661473963 6.3394811738244632e-06 0 1.7801641564955115 5.1483538472931527e-06 0 1.7142672795465179 6.9024588220149225e-06 0 1.8571119661473963 6.3394811738244632e-06 0 1.7801641564955115 5.1483538472931527e-06 0 1.8571119661473963 6.3394811738244632e-06 0 1.89538589480606 4.8904360624097128e-06 0 1.89538589480606 4.8904360624097128e-06 0 1.9999563002947938 5.5125454744372898e-06 0 1.9999545967798273 3.9335539872865936e-06 0 1.8571119661473963 6.3394811738244632e-06 0 1.89538589480606 4.8904360624097128e-06 0 1.9999563002947938 5.5125454744372898e-06 0 1.8571119661473963 6.3394811738244632e-06 0 1.9999563002947938 5.5125454744372898e-06 0 1.895388184407319 6.7246601678996102e-06 0 1.9999563002947938 5.5125454744372898e-06 0 2.1045239599065124 3.6931864807129037e-06 0 1.9999545967798273 3.9335539872865936e-06 0 1.8779301112779672 7.4172301145268736e-06 0 1.9999583252693034 6.2466079311156502e-06 0 1.9999615001937341 6.9160044939637706e-06 0 1.9999563002947938 5.5125454744372898e-06 0 1.895388184407319 6.7246601678996102e-06 0 1.9999583252693034 6.2466079311156502e-06 0 1.8779301112779672 7.4172301145268736e-06 0 1.895388184407319 6.7246601678996102e-06 0 1.9999583252693034 6.2466079311156502e-06 0 1.9999563002947938 5.5125454744372898e-06 0 1.9999583252693034 6.2466079311156502e-06 0 2.1045269909098567 5.1959382231536034e-06 0 1.9999583252693034 6.2466079311156502e-06 0 2.1236668642887611 5.5462658761728032e-06 0 1.9999615001937341 6.9160044939637706e-06 0 1.9999583252693034 6.2466079311156502e-06 0 2.1236668642887611 5.5462658761728032e-06 0 2.1045269909098567 5.1959382231536034e-06 0 2.1236668642887611 5.5462658761728032e-06 0 2.1045269909098567 5.1959382231536034e-06 0 2.2312842364795702 4.0394902557704586e-06 0 2.1045269909098567 5.1959382231536034e-06 0 2.2312842364795702 4.0394902557704586e-06 0 2.1428003080306972 4.3677587209211408e-06 0 2.1236668642887611 5.5462658761728032e-06 0 2.2312842364795702 4.0394902557704586e-06 0 2.2436988488276928 4.5521453481799536e-06 0 1.9999563002947938 5.5125454744372898e-06 0 2.1045239599065124 3.6931864807129037e-06 0 2.1428003080306972 4.3677587209211408e-06 0 2.1045239599065124 3.6931864807129037e-06 0 2.1428003080306972 4.3677587209211408e-06 0 2.2202247674851354 2.7339715069370469e-06 0 1.9999563002947938 5.5125454744372898e-06 0 2.1045269909098567 5.1959382231536034e-06 0 2.1428003080306972 4.3677587209211408e-06 0 2.2312842364795702 4.0394902557704586e-06 0 2.1428003080306972 4.3677587209211408e-06 0 2.2856439053554722 2.9757328128902979e-06 0 2.1428003080306972 4.3677587209211408e-06 0 2.2202247674851354 2.7339715069370469e-06 0 2.2856439053554722 2.9757328128902979e-06 0 2.2202247674851354 2.7339715069370469e-06 0 2.1286234230340555 2.3675316907234074e-06 0 2.2844693944063805 1.4789697726677686e-06 0 2.1045239599065124 3.6931864807129037e-06 0 2.2202247674851354 2.7339715069370469e-06 0 2.1286234230340555 2.3675316907234074e-06 0 2.1045239599065124 3.6931864807129037e-06 0 2.1286234230340555 2.3675316907234074e-06 0 1.9999545967798273 3.9335539872865936e-06 0 2.1286234230340555 2.3675316907234074e-06 0 2.0919656831760816 1.3246049521397473e-06 0 1.9999535912875603 2.3597760850006554e-06 0 2.1286234230340555 2.3675316907234074e-06 0 2.2118133905577539 9.6683841526462782e-07 0 2.2844693944063805 1.4789697726677686e-06 0 2.2118133905577539 9.6683841526462782e-07 0 2.1267552077721898 3.2586468067244247e-08 0 2.2856402265249511 3.1856616508503149e-08 0 2.1267552077721898 3.2586468067244247e-08 0 2.0919656831760816 1.3246049521397473e-06 0 1.9999531294532855 7.8769835652637651e-07 0 2.2118133905577539 9.6683841526462782e-07 0 2.1267552077721898 3.2586468067244247e-08 0 2.0919656831760816 1.3246049521397473e-06 0 2.1286234230340555 2.3675316907234074e-06 0 2.2118133905577539 9.6683841526462782e-07 0 2.0919656831760816 1.3246049521397473e-06 0 2.0919656831760816 1.3246049521397473e-06 0 1.9999531294532855 7.8769835652637651e-07 0 1.9999535912875603 2.3597760850006554e-06 0 2.1267552077721898 3.2586468067244247e-08 0 1.9999531294532855 7.8769835652637651e-07 0 1.9999531301985909 -7.8226370290707059e-07 0 1.8719137326752828 3.2573340630912569e-08 0 1.9999531294532855 7.8769835652637651e-07 0 1.9044555228563278 1.7390380198021162e-06 0 1.8719137326752828 3.2573340630912569e-08 0 1.9999531294532855 7.8769835652637651e-07 0 1.9999531301985909 -7.8226370290707059e-07 0 1.9999531294532855 7.8769835652637651e-07 0 1.9044555228563278 1.7390380198021162e-06 0 1.9999535912875603 2.3597760850006554e-06 0 1.8681481269459053 3.4313573628684489e-06 0 1.9999545967798273 3.9335539872865936e-06 0 1.9999535912875603 2.3597760850006554e-06 0 1.8681481269459053 3.4313573628684489e-06 0 1.9044555228563278 1.7390380198021162e-06 0 1.9999535912875603 2.3597760850006554e-06 0 1.8681481269459053 3.4313573628684489e-06 0 1.89538589480606 4.8904360624097128e-06 0 1.9999545967798273 3.9335539872865936e-06 0 2.1286234230340555 2.3675316907234074e-06 0 1.9999545967798273 3.9335539872865936e-06 0 1.9999535912875603 2.3597760850006554e-06 0 1.8571428513228272 4.7009717467493832e-09 0 1.7625781512255558 3.8439658989855098e-06 0 1.8954154094320093 3.034845488902345e-06 0 1.7625781512255558 3.8439658989855098e-06 0 1.8743977431345358 5.5487904337386149e-06 0 1.8954154094320093 3.034845488902345e-06 0 1.8571428513228272 4.7009717467493832e-09 0 1.7625781512255558 3.8439658989855098e-06 0 1.7142857133097271 4.6398786605135589e-09 0 1.7625781512255558 3.8439658989855098e-06 0 1.7142857133097271 4.6398786605135589e-09 0 1.6328855312597264 2.7822206089836839e-06 0 1.7142857133097271 4.6398786605135589e-09 0 1.571428569962193 4.6851469835668635e-09 0 1.6328855312597264 2.7822206089836839e-06 0 1.4975494256038826 3.7318179737955523e-06 0 1.571428569962193 4.6851469835668635e-09 0 1.6328855312597264 2.7822206089836839e-06 0 1.4975494256038826 3.7318179737955523e-06 0 1.6328855312597264 2.7822206089836839e-06 0 1.6185862333817331 5.5482203028878284e-06 0 1.7625781512255558 3.8439658989855098e-06 0 1.6328855312597264 2.7822206089836839e-06 0 1.6185862333817331 5.5482203028878284e-06 0 1.4948718674554349 6.700661378749683e-06 0 1.4975494256038826 3.7318179737955523e-06 0 1.6185862333817331 5.5482203028878284e-06 0 1.4948718674554349 6.700661378749683e-06 0 1.6185862333817331 5.5482203028878284e-06 0 1.6184938307200625 7.5562064728964678e-06 0 1.4946224302411202 8.2002343977935564e-06 0 1.4948718674554349 6.700661378749683e-06 0 1.6184938307200625 7.5562064728964678e-06 0 1.6185862333817331 5.5482203028878284e-06 0 1.6184938307200625 7.5562064728964678e-06 0 1.7439971387150457 6.63928993828659e-06 0 1.6184938307200625 7.5562064728964678e-06 0 1.7439971387150457 6.63928993828659e-06 0 1.7438016131908056 8.0022570787420889e-06 0 1.7625781512255558 3.8439658989855098e-06 0 1.6185862333817331 5.5482203028878284e-06 0 1.7439971387150457 6.63928993828659e-06 0 1.7625781512255558 3.8439658989855098e-06 0 1.7439971387150457 6.63928993828659e-06 0 1.8743977431345358 5.5487904337386149e-06 0 1.7439971387150457 6.63928993828659e-06 0 1.8743977431345358 5.5487904337386149e-06 0 1.8695115172691177 7.2528968936375872e-06 0 1.7439971387150457 6.63928993828659e-06 0 1.8695115172691177 7.2528968936375872e-06 0 1.7438016131908056 8.0022570787420889e-06 0 1.8695115172691177 7.2528968936375872e-06 0 1.8728376149515229 7.9476761294520567e-06 0 1.7438016131908056 8.0022570787420889e-06 0 1.8728376149515229 7.9476761294520567e-06 0 1.7438016131908056 8.0022570787420889e-06 0 1.7444896445065512 8.4474188682176248e-06 0 1.7438016131908056 8.0022570787420889e-06 0 1.6182895071089358 8.5258591602493657e-06 0 1.7444896445065512 8.4474188682176248e-06 0 1.6184938307200625 7.5562064728964678e-06 0 1.7438016131908056 8.0022570787420889e-06 0 1.6182895071089358 8.5258591602493657e-06 0 1.4946224302411202 8.2002343977935564e-06 0 1.6184938307200625 7.5562064728964678e-06 0 1.6182895071089358 8.5258591602493657e-06 0 1.4933628750474413 8.7661258205968413e-06 0 1.4946224302411202 8.2002343977935564e-06 0 1.6182895071089358 8.5258591602493657e-06 0 1.6182895071089358 8.5258591602493657e-06 0 1.6192172767156059 8.6914050858462639e-06 0 1.7444896445065512 8.4474188682176248e-06 0 1.4933628750474413 8.7661258205968413e-06 0 1.6182895071089358 8.5258591602493657e-06 0 1.6192172767156059 8.6914050858462639e-06 0 1.494459303319243 8.6181097207361667e-06 0 1.4933628750474413 8.7661258205968413e-06 0 1.6192172767156059 8.6914050858462639e-06 0 1.494459303319243 8.6181097207361667e-06 0 1.6185803350629466 8.308180128177889e-06 0 1.6192172767156059 8.6914050858462639e-06 0 1.6185803350629466 8.308180128177889e-06 0 1.6192172767156059 8.6914050858462639e-06 0 1.7480645037293532 8.2300260944736828e-06 0 1.6192172767156059 8.6914050858462639e-06 0 1.7480645037293532 8.2300260944736828e-06 0 1.7444896445065512 8.4474188682176248e-06 0 1.8728376149515229 7.9476761294520567e-06 0 1.7444896445065512 8.4474188682176248e-06 0 1.8701963257509475 7.9280990563043689e-06 0 1.7480645037293532 8.2300260944736828e-06 0 1.7444896445065512 8.4474188682176248e-06 0 1.8701963257509475 7.9280990563043689e-06 0 1.8779301112779672 7.4172301145268736e-06 0 1.7480645037293532 8.2300260944736828e-06 0 1.8701963257509475 7.9280990563043689e-06 0 1.8779301112779672 7.4172301145268736e-06 0 1.8701963257509475 7.9280990563043689e-06 0 1.9999615001937341 6.9160044939637706e-06 0 1.8701963257509475 7.9280990563043689e-06 0 1.9999660218954991 7.3311169593327046e-06 0 1.9999615001937341 6.9160044939637706e-06 0 1.8728376149515229 7.9476761294520567e-06 0 1.8701963257509475 7.9280990563043689e-06 0 1.9999660218954991 7.3311169593327046e-06 0 1.9999660218954991 7.3311169593327046e-06 0 1.9999615001937341 6.9160044939637706e-06 0 2.1243987409986955 6.1482616249922701e-06 0 2.1236668642887611 5.5462658761728032e-06 0 1.9999615001937341 6.9160044939637706e-06 0 2.1243987409986955 6.1482616249922701e-06 0 2.1236668642887611 5.5462658761728032e-06 0 2.2436988488276928 4.5521453481799536e-06 0 2.1243987409986955 6.1482616249922701e-06 0 2.2436988488276928 4.5521453481799536e-06 0 2.2473815081763719 5.1727253883141406e-06 0 2.1243987409986955 6.1482616249922701e-06 0 2.2473815081763719 5.1727253883141406e-06 0 2.1243987409986955 6.1482616249922701e-06 0 2.1236776881964587 6.5691650162586465e-06 0 1.9999660218954991 7.3311169593327046e-06 0 2.1243987409986955 6.1482616249922701e-06 0 2.1236776881964587 6.5691650162586465e-06 0 2.2473815081763719 5.1727253883141406e-06 0 2.1236776881964587 6.5691650162586465e-06 0 2.2473016240152739 5.6585913512018793e-06 0 2.1236776881964587 6.5691650162586465e-06 0 2.2473016240152739 5.6585913512018793e-06 0 2.1231547770241082 6.4392917240896631e-06 0 2.1236776881964587 6.5691650162586465e-06 0 1.9999721691456191 7.2391184542506278e-06 0 2.1231547770241082 6.4392917240896631e-06 0 1.9999660218954991 7.3311169593327046e-06 0 2.1236776881964587 6.5691650162586465e-06 0 1.9999721691456191 7.2391184542506278e-06 0 1.8728376149515229 7.9476761294520567e-06 0 1.9999660218954991 7.3311169593327046e-06 0 1.9999721691456191 7.2391184542506278e-06 0 1.8695115172691177 7.2528968936375872e-06 0 1.8728376149515229 7.9476761294520567e-06 0 1.9999721691456191 7.2391184542506278e-06 0 1.8743977431345358 5.5487904337386149e-06 0 1.8695115172691177 7.2528968936375872e-06 0 1.9999800612045968 6.2488813280120063e-06 0 1.8695115172691177 7.2528968936375872e-06 0 1.9999721691456191 7.2391184542506278e-06 0 1.9999800612045968 6.2488813280120063e-06 0 1.8743977431345358 5.5487904337386149e-06 0 1.9999800612045968 6.2488813280120063e-06 0 1.9999894537880338 3.8919450043296315e-06 0 1.9999800612045968 6.2488813280120063e-06 0 2.1205074634658763 5.3291283937201613e-06 0 1.9999894537880338 3.8919450043296315e-06 0 1.9999721691456191 7.2391184542506278e-06 0 1.9999800612045968 6.2488813280120063e-06 0 2.1231547770241082 6.4392917240896631e-06 0 1.9999800612045968 6.2488813280120063e-06 0 2.1231547770241082 6.4392917240896631e-06 0 2.1205074634658763 5.3291283937201613e-06 0 2.1231547770241082 6.4392917240896631e-06 0 2.2467294786422607 5.5392196330905967e-06 0 2.1205074634658763 5.3291283937201613e-06 0 2.2473016240152739 5.6585913512018793e-06 0 2.1231547770241082 6.4392917240896631e-06 0 2.2467294786422607 5.5392196330905967e-06 0 2.2467294786422607 5.5392196330905967e-06 0 2.1205074634658763 5.3291283937201613e-06 0 2.2323928266372497 3.8820574658145558e-06 0 2.1205074634658763 5.3291283937201613e-06 0 2.1045687560821196 3.0305510581894067e-06 0 2.2323928266372497 3.8820574658145558e-06 0 2.1205074634658763 5.3291283937201613e-06 0 2.1045687560821196 3.0305510581894067e-06 0 1.9999894537880338 3.8919450043296315e-06 0 2.2323928266372497 3.8820574658145558e-06 0 2.1428571107278933 4.9583641373718653e-09 0 2.2857143706038809 5.2226629870499606e-09 0 2.1045687560821196 3.0305510581894067e-06 0 2.2323928266372497 3.8820574658145558e-06 0 2.1428571107278933 4.9583641373718653e-09 0 2.1045687560821196 3.0305510581894067e-06 0 2.1428571107278933 4.9583641373718653e-09 0 2.0000000013974701 5.0684102920053817e-09 0 2.1045687560821196 3.0305510581894067e-06 0 2.0000000013974701 5.0684102920053817e-09 0 1.9999894537880338 3.8919450043296315e-06 0 1.8743977431345358 5.5487904337386149e-06 0 1.9999894537880338 3.8919450043296315e-06 0 1.8954154094320093 3.034845488902345e-06 0 2.0000000013974701 5.0684102920053817e-09 0 1.9999894537880338 3.8919450043296315e-06 0 1.8954154094320093 3.034845488902345e-06 0 1.8571428513228272 4.7009717467493832e-09 0 2.0000000013974701 5.0684102920053817e-09 0 1.8954154094320093 3.034845488902345e-06 0 2.5714299022352014 6.6405285784087248e-09 0 2.4985055297905636 3.7372302556243435e-06 0 2.6413359658897444 2.6866091547770068e-06 0 2.4985055297905636 3.7372302556243435e-06 0 2.6242885963449263 2.6493401909434821e-06 0 2.6413359658897444 2.6866091547770068e-06 0 2.5714299022352014 6.6405285784087248e-09 0 2.4985055297905636 3.7372302556243435e-06 0 2.4285710564865806 5.8654629532696045e-09 0 2.4285710564865806 5.8654629532696045e-09 0 2.2857143706038809 5.2226629870499606e-09 0 2.3612404694888194 2.8143465780134713e-06 0 2.4985055297905636 3.7372302556243435e-06 0 2.4285710564865806 5.8654629532696045e-09 0 2.3612404694888194 2.8143465780134713e-06 0 2.2323928266372497 3.8820574658145558e-06 0 2.2857143706038809 5.2226629870499606e-09 0 2.3612404694888194 2.8143465780134713e-06 0 2.2323928266372497 3.8820574658145558e-06 0 2.3612404694888194 2.8143465780134713e-06 0 2.3692455492084323 4.6896844974433177e-06 0 2.4985055297905636 3.7372302556243435e-06 0 2.3612404694888194 2.8143465780134713e-06 0 2.3692455492084323 4.6896844974433177e-06 0 2.2467294786422607 5.5392196330905967e-06 0 2.2323928266372497 3.8820574658145558e-06 0 2.3692455492084323 4.6896844974433177e-06 0 2.2467294786422607 5.5392196330905967e-06 0 2.3692455492084323 4.6896844974433177e-06 0 2.3708770780001518 4.6623316974526658e-06 0 2.2473016240152739 5.6585913512018793e-06 0 2.2467294786422607 5.5392196330905967e-06 0 2.3708770780001518 4.6623316974526658e-06 0 2.3692455492084323 4.6896844974433177e-06 0 2.3708770780001518 4.6623316974526658e-06 0 2.4955630782551355 3.6378699960644858e-06 0 2.3708770780001518 4.6623316974526658e-06 0 2.4955630782551355 3.6378699960644858e-06 0 2.4945527252649042 2.5206343644733137e-06 0 2.4985055297905636 3.7372302556243435e-06 0 2.3692455492084323 4.6896844974433177e-06 0 2.4955630782551355 3.6378699960644858e-06 0 2.4985055297905636 3.7372302556243435e-06 0 2.4955630782551355 3.6378699960644858e-06 0 2.6242885963449263 2.6493401909434821e-06 0 2.4955630782551355 3.6378699960644858e-06 0 2.6242885963449263 2.6493401909434821e-06 0 2.619167854375982 8.7571951516517047e-07 0 2.4955630782551355 3.6378699960644858e-06 0 2.619167854375982 8.7571951516517047e-07 0 2.4945527252649042 2.5206343644733137e-06 0 2.619167854375982 8.7571951516517047e-07 0 2.6183131358824201 -8.4286551914797719e-08 0 2.4945527252649042 2.5206343644733137e-06 0 2.6183131358824201 -8.4286551914797719e-08 0 2.4945527252649042 2.5206343644733137e-06 0 2.4932834271257147 1.7042413726910343e-06 0 2.4945527252649042 2.5206343644733137e-06 0 2.3698212707232029 3.9627481853692648e-06 0 2.4932834271257147 1.7042413726910343e-06 0 2.3708770780001518 4.6623316974526658e-06 0 2.4945527252649042 2.5206343644733137e-06 0 2.3698212707232029 3.9627481853692648e-06 0 2.2473016240152739 5.6585913512018793e-06 0 2.3708770780001518 4.6623316974526658e-06 0 2.3698212707232029 3.9627481853692648e-06 0 2.2473815081763719 5.1727253883141406e-06 0 2.2473016240152739 5.6585913512018793e-06 0 2.3698212707232029 3.9627481853692648e-06 0 2.3698212707232029 3.9627481853692648e-06 0 2.3672498350278461 3.2532152860699838e-06 0 2.4932834271257147 1.7042413726910343e-06 0 2.2473815081763719 5.1727253883141406e-06 0 2.3698212707232029 3.9627481853692648e-06 0 2.3672498350278461 3.2532152860699838e-06 0 2.2436988488276928 4.5521453481799536e-06 0 2.2473815081763719 5.1727253883141406e-06 0 2.3672498350278461 3.2532152860699838e-06 0 2.2436988488276928 4.5521453481799536e-06 0 2.3672498350278461 3.2532152860699838e-06 0 2.3682138033102511 2.6895920733005463e-06 0 2.3672498350278461 3.2532152860699838e-06 0 2.4943766442951691 1.2072529933162147e-06 0 2.3682138033102511 2.6895920733005463e-06 0 2.3672498350278461 3.2532152860699838e-06 0 2.4943766442951691 1.2072529933162147e-06 0 2.4932834271257147 1.7042413726910343e-06 0 2.6183131358824201 -8.4286551914797719e-08 0 2.4932834271257147 1.7042413726910343e-06 0 2.6191469954167323 -4.053766605082753e-07 0 2.4943766442951691 1.2072529933162147e-06 0 2.4932834271257147 1.7042413726910343e-06 0 2.6191469954167323 -4.053766605082753e-07 0 2.4943766442951691 1.2072529933162147e-06 0 2.6191469954167323 -4.053766605082753e-07 0 2.6184894936167007 -3.7494594850391861e-07 0 2.6191469954167323 -4.053766605082753e-07 0 2.7478801375784832 -1.5241985701159735e-06 0 2.6184894936167007 -3.7494594850391861e-07 0 2.6183131358824201 -8.4286551914797719e-08 0 2.6191469954167323 -4.053766605082753e-07 0 2.743873803316784 -1.9338878351749863e-06 0 2.6191469954167323 -4.053766605082753e-07 0 2.743873803316784 -1.9338878351749863e-06 0 2.7478801375784832 -1.5241985701159735e-06 0 2.743873803316784 -1.9338878351749863e-06 0 2.7478801375784832 -1.5241985701159735e-06 0 2.8700622954433288 -1.8827271790867298e-06 0 2.7478801375784832 -1.5241985701159735e-06 0 2.8700622954433288 -1.8827271790867298e-06 0 2.8778312341096588 -1.2933252603086255e-06 0 2.9998570628505661 -1.6688461365989024e-09 0 2.8700622954433288 -1.8827271790867298e-06 0 2.8778312341096588 -1.2933252603086255e-06 0 2.999857525852665 -5.4885555054115834e-10 0 2.8700622954433288 -1.8827271790867298e-06 0 2.8728578118462056 -2.8162656030961974e-06 0 2.9998570628505661 -1.6688461365989024e-09 0 2.999857525852665 -5.4885555054115834e-10 0 2.8700622954433288 -1.8827271790867298e-06 0 2.743873803316784 -1.9338878351749863e-06 0 2.8700622954433288 -1.8827271790867298e-06 0 2.8728578118462056 -2.8162656030961974e-06 0 2.999857525852665 -5.4885555054115834e-10 0 2.8728578118462056 -2.8162656030961974e-06 0 2.999855806186885 -6.8909137903789284e-09 0 2.8728578118462056 -2.8162656030961974e-06 0 2.999855806186885 -6.8909137903789284e-09 0 2.8701763562651395 -3.6556603179268293e-06 0 2.8728578118462056 -2.8162656030961974e-06 0 2.7445684583472878 -1.9480253703395185e-06 0 2.8701763562651395 -3.6556603179268293e-06 0 2.743873803316784 -1.9338878351749863e-06 0 2.8728578118462056 -2.8162656030961974e-06 0 2.7445684583472878 -1.9480253703395185e-06 0 2.6183131358824201 -8.4286551914797719e-08 0 2.743873803316784 -1.9338878351749863e-06 0 2.7445684583472878 -1.9480253703395185e-06 0 2.619167854375982 8.7571951516517047e-07 0 2.6183131358824201 -8.4286551914797719e-08 0 2.7445684583472878 -1.9480253703395185e-06 0 2.619167854375982 8.7571951516517047e-07 0 2.7445684583472878 -1.9480253703395185e-06 0 2.7461065509697176 -9.0313257704642566e-07 0 2.6242885963449263 2.6493401909434821e-06 0 2.619167854375982 8.7571951516517047e-07 0 2.7461065509697176 -9.0313257704642566e-07 0 2.6242885963449263 2.6493401909434821e-06 0 2.7461065509697176 -9.0313257704642566e-07 0 2.7648568986207263 4.5141878396729613e-06 0 2.7461065509697176 -9.0313257704642566e-07 0 2.8755488369896054 -6.5191850783112004e-06 0 2.7648568986207263 4.5141878396729613e-06 0 2.7445684583472878 -1.9480253703395185e-06 0 2.7461065509697176 -9.0313257704642566e-07 0 2.8701763562651395 -3.6556603179268293e-06 0 2.7461065509697176 -9.0313257704642566e-07 0 2.8701763562651395 -3.6556603179268293e-06 0 2.8755488369896054 -6.5191850783112004e-06 0 2.999855806186885 -6.8909137903789284e-09 0 2.8701763562651395 -3.6556603179268293e-06 0 2.999862266844938 4.856737664706478e-09 0 2.8701763562651395 -3.6556603179268293e-06 0 2.999862266844938 4.856737664706478e-09 0 2.8755488369896054 -6.5191850783112004e-06 0 2.999862266844938 4.856737664706478e-09 0 2.8755488369896054 -6.5191850783112004e-06 0 2.9998381413993216 -3.0868385499156168e-08 0 2.8755488369896054 -6.5191850783112004e-06 0 2.8953380940430899 -3.33527761255787e-06 0 2.7648568986207263 4.5141878396729613e-06 0 2.8755488369896054 -6.5191850783112004e-06 0 2.8953380940430899 -3.33527761255787e-06 0 2.9998381413993216 -3.0868385499156168e-08 0 2.8953380940430899 -3.33527761255787e-06 0 2.9999286065620714 -3.6569344966881292e-08 0 2.8571618291750065 1.8411962568239379e-08 0 2.8953380940430899 -3.33527761255787e-06 0 2.9998381413993216 -3.0868385499156168e-08 0 2.9999286065620714 -3.6569344966881292e-08 0 2.8953380940430899 -3.33527761255787e-06 0 2.8571618291750065 1.8411962568239379e-08 0 2.7648568986207263 4.5141878396729613e-06 0 2.8571618291750065 1.8411962568239379e-08 0 2.7648568986207263 4.5141878396729613e-06 0 2.7142806193802445 8.0052608401295093e-09 0 2.6242885963449263 2.6493401909434821e-06 0 2.7648568986207263 4.5141878396729613e-06 0 2.6413359658897444 2.6866091547770068e-06 0 2.5714299022352014 6.6405285784087248e-09 0 2.6413359658897444 2.6866091547770068e-06 0 2.7142806193802445 8.0052608401295093e-09 0 2.7648568986207263 4.5141878396729613e-06 0 2.6413359658897444 2.6866091547770068e-06 0 2.7142806193802445 8.0052608401295093e-09 0 2.5713602554551831 1.1789579612028853e-07 0 2.499943474087706 2.1314159092814859e-07 0 2.4286790638855846 7.4198138162927238e-07 0 2.5713602554551831 1.1789579612028853e-07 0 2.4286790638855846 7.4198138162927238e-07 0 2.4999071189111857 6.010604846824055e-07 0 2.5713602554551831 1.1789579612028853e-07 0 2.4999071189111857 6.010604846824055e-07 0 2.6427502227137443 -2.1751709093783608e-07 0 2.5713602554551831 1.1789579612028853e-07 0 2.499943474087706 2.1314159092814859e-07 0 2.6426153495031262 -4.8237935356008345e-08 0 2.5711658100061006 5.7724849136966049e-09 0 2.499943474087706 2.1314159092814859e-07 0 2.6426153495031262 -4.8237935356008345e-08 0 2.5711658100061006 5.7724849136966049e-09 0 2.499943474087706 2.1314159092814859e-07 0 2.4284631363789977 1.7578586967896097e-08 0 2.499943474087706 2.1314159092814859e-07 0 2.3565013293725166 5.6561396954376264e-07 0 2.4286790638855846 7.4198138162927238e-07 0 2.499943474087706 2.1314159092814859e-07 0 2.3565013293725166 5.6561396954376264e-07 0 2.4284631363789977 1.7578586967896097e-08 0 2.3565013293725166 5.6561396954376264e-07 0 2.4284631363789977 1.7578586967896097e-08 0 2.2856402265249511 3.1856616508503149e-08 0 2.2118133905577539 9.6683841526462782e-07 0 2.3565013293725166 5.6561396954376264e-07 0 2.2856402265249511 3.1856616508503149e-08 0 2.2118133905577539 9.6683841526462782e-07 0 2.3565013293725166 5.6561396954376264e-07 0 2.2844693944063805 1.4789697726677686e-06 0 2.3565013293725166 5.6561396954376264e-07 0 2.2844693944063805 1.4789697726677686e-06 0 2.4286790638855846 7.4198138162927238e-07 0 2.2844693944063805 1.4789697726677686e-06 0 2.4286790638855846 7.4198138162927238e-07 0 2.3582313244389961 1.6509128043196283e-06 0 2.4286790638855846 7.4198138162927238e-07 0 2.3582313244389961 1.6509128043196283e-06 0 2.4999071189111857 6.010604846824055e-07 0 2.2202247674851354 2.7339715069370469e-06 0 2.2844693944063805 1.4789697726677686e-06 0 2.3582313244389961 1.6509128043196283e-06 0 2.2202247674851354 2.7339715069370469e-06 0 2.2856439053554722 2.9757328128902979e-06 0 2.3582313244389961 1.6509128043196283e-06 0 2.2856439053554722 2.9757328128902979e-06 0 2.4284871413034717 1.5150157953852885e-06 0 2.3570669644742295 2.4850787066557612e-06 0 2.4284871413034717 1.5150157953852885e-06 0 2.3582313244389961 1.6509128043196283e-06 0 2.4999071189111857 6.010604846824055e-07 0 2.2856439053554722 2.9757328128902979e-06 0 2.4284871413034717 1.5150157953852885e-06 0 2.3582313244389961 1.6509128043196283e-06 0 2.2312842364795702 4.0394902557704586e-06 0 2.2436988488276928 4.5521453481799536e-06 0 2.3682138033102511 2.6895920733005463e-06 0 2.2312842364795702 4.0394902557704586e-06 0 2.2856439053554722 2.9757328128902979e-06 0 2.3570669644742295 2.4850787066557612e-06 0 2.2312842364795702 4.0394902557704586e-06 0 2.3570669644742295 2.4850787066557612e-06 0 2.3682138033102511 2.6895920733005463e-06 0 2.4284871413034717 1.5150157953852885e-06 0 2.3570669644742295 2.4850787066557612e-06 0 2.4980880052002217 9.1675154617408692e-07 0 2.3570669644742295 2.4850787066557612e-06 0 2.3682138033102511 2.6895920733005463e-06 0 2.4980880052002217 9.1675154617408692e-07 0 2.4943766442951691 1.2072529933162147e-06 0 2.3682138033102511 2.6895920733005463e-06 0 2.4980880052002217 9.1675154617408692e-07 0 2.4980880052002217 9.1675154617408692e-07 0 2.5713300659470697 1.4823701282672858e-07 0 2.6427525200137447 -4.4064360243871044e-07 0 2.4980880052002217 9.1675154617408692e-07 0 2.6184894936167007 -3.7494594850391861e-07 0 2.6427525200137447 -4.4064360243871044e-07 0 2.4943766442951691 1.2072529933162147e-06 0 2.4980880052002217 9.1675154617408692e-07 0 2.6184894936167007 -3.7494594850391861e-07 0 2.4284871413034717 1.5150157953852885e-06 0 2.4999071189111857 6.010604846824055e-07 0 2.5713300659470697 1.4823701282672858e-07 0 2.4284871413034717 1.5150157953852885e-06 0 2.4980880052002217 9.1675154617408692e-07 0 2.5713300659470697 1.4823701282672858e-07 0 2.4999071189111857 6.010604846824055e-07 0 2.5713300659470697 1.4823701282672858e-07 0 2.6427502227137443 -2.1751709093783608e-07 0 2.5713300659470697 1.4823701282672858e-07 0 2.6427502227137443 -2.1751709093783608e-07 0 2.7141727748953728 -7.3749254841293534e-07 0 2.6427502227137443 -2.1751709093783608e-07 0 2.7141727748953728 -7.3749254841293534e-07 0 2.7813757019812155 -5.958553183976537e-07 0 2.5713300659470697 1.4823701282672858e-07 0 2.7141727748953728 -7.3749254841293534e-07 0 2.6427525200137447 -4.4064360243871044e-07 0 2.7141727748953728 -7.3749254841293534e-07 0 2.7647756598197217 -1.1539954520602305e-06 0 2.8570151604380212 -8.3771634397758892e-07 0 2.7141727748953728 -7.3749254841293534e-07 0 2.7813757019812155 -5.958553183976537e-07 0 2.8570151604380212 -8.3771634397758892e-07 0 2.7478801375784832 -1.5241985701159735e-06 0 2.6184894936167007 -3.7494594850391861e-07 0 2.7647756598197217 -1.1539954520602305e-06 0 2.7141727748953728 -7.3749254841293534e-07 0 2.6427525200137447 -4.4064360243871044e-07 0 2.7647756598197217 -1.1539954520602305e-06 0 2.6184894936167007 -3.7494594850391861e-07 0 2.6427525200137447 -4.4064360243871044e-07 0 2.7647756598197217 -1.1539954520602305e-06 0 2.7478801375784832 -1.5241985701159735e-06 0 2.7647756598197217 -1.1539954520602305e-06 0 2.8778312341096588 -1.2933252603086255e-06 0 2.7647756598197217 -1.1539954520602305e-06 0 2.8952899093960585 -8.3719882547930172e-07 0 2.8570151604380212 -8.3771634397758892e-07 0 2.7647756598197217 -1.1539954520602305e-06 0 2.8778312341096588 -1.2933252603086255e-06 0 2.8952899093960585 -8.3719882547930172e-07 0 2.8952899093960585 -8.3719882547930172e-07 0 2.9998571852162264 -5.6633393047643812e-10 0 2.9998571490988439 -7.3615906416032083e-10 0 2.8778312341096588 -1.2933252603086255e-06 0 2.8952899093960585 -8.3719882547930172e-07 0 2.9998571852162264 -5.6633393047643812e-10 0 2.9998570628505661 -1.6688461365989024e-09 0 2.8778312341096588 -1.2933252603086255e-06 0 2.9998571852162264 -5.6633393047643812e-10 0 2.7813757019812155 -5.958553183976537e-07 0 2.8952892010039051 -4.9345793550157141e-07 0 2.8570151604380212 -8.3771634397758892e-07 0 2.8952899093960585 -8.3719882547930172e-07 0 2.8570151604380212 -8.3771634397758892e-07 0 2.9998571490988439 -7.3615906416032083e-10 0 2.8952892010039051 -4.9345793550157141e-07 0 2.8570151604380212 -8.3771634397758892e-07 0 2.9998571490988439 -7.3615906416032083e-10 0 2.8952892010039051 -4.9345793550157141e-07 0 2.9998571490988439 -7.3615906416032083e-10 0 2.9998571597873367 -3.7247660050372036e-10 0 2.8952892010039051 -4.9345793550157141e-07 0 2.9998571597873367 -3.7247660050372036e-10 0 2.870484738581534 -3.7280988818028305e-07 0 2.9998571597873367 -3.7247660050372036e-10 0 2.9998571563693126 -1.5794503775538553e-10 0 2.870484738581534 -3.7280988818028305e-07 0 2.9998571563693126 -1.5794503775538553e-10 0 2.870484738581534 -3.7280988818028305e-07 0 2.9052901785255818 -1.3647222666069687e-07 0 2.7813757019812155 -5.958553183976537e-07 0 2.8952892010039051 -4.9345793550157141e-07 0 2.870484738581534 -3.7280988818028305e-07 0 2.7813757019812155 -5.958553183976537e-07 0 2.870484738581534 -3.7280988818028305e-07 0 2.7152318356605538 -2.8746440181333664e-07 0 2.870484738581534 -3.7280988818028305e-07 0 2.7152318356605538 -2.8746440181333664e-07 0 2.7860074530169352 -1.7457083398338038e-07 0 2.5713602554551831 1.1789579612028853e-07 0 2.7152318356605538 -2.8746440181333664e-07 0 2.6426153495031262 -4.8237935356008345e-08 0 2.5713602554551831 1.1789579612028853e-07 0 2.6427502227137443 -2.1751709093783608e-07 0 2.7152318356605538 -2.8746440181333664e-07 0 2.6427502227137443 -2.1751709093783608e-07 0 2.7813757019812155 -5.958553183976537e-07 0 2.7152318356605538 -2.8746440181333664e-07 0 2.5711658100061006 5.7724849136966049e-09 0 2.7166080696332662 -1.7939562447595713e-09 0 2.6426153495031262 -4.8237935356008345e-08 0 2.7166080696332662 -1.7939562447595713e-09 0 2.6426153495031262 -4.8237935356008345e-08 0 2.7860074530169352 -1.7457083398338038e-07 0 2.7152318356605538 -2.8746440181333664e-07 0 2.6426153495031262 -4.8237935356008345e-08 0 2.7860074530169352 -1.7457083398338038e-07 0 2.7166080696332662 -1.7939562447595713e-09 0 2.7860074530169352 -1.7457083398338038e-07 0 2.8702444285256341 -2.2036092208529451e-09 0 2.7860074530169352 -1.7457083398338038e-07 0 2.8702444285256341 -2.2036092208529451e-09 0 2.9052901785255818 -1.3647222666069687e-07 0 2.870484738581534 -3.7280988818028305e-07 0 2.7860074530169352 -1.7457083398338038e-07 0 2.9052901785255818 -1.3647222666069687e-07 0 2.9998571563693126 -1.5794503775538553e-10 0 2.9052901785255818 -1.3647222666069687e-07 0 2.9998571569671348 -1.1937160497442641e-10 0 2.8702444285256341 -2.2036092208529451e-09 0 2.9998571569671348 -1.1937160497442641e-10 0 2.9998571569855756 1.2356913461788879e-10 0 2.8702444285256341 -2.2036092208529451e-09 0 2.9052901785255818 -1.3647222666069687e-07 0 2.9998571569671348 -1.1937160497442641e-10 0 2.8702444285256341 -2.2036092208529451e-09 0 2.9998571569855756 1.2356913461788879e-10 0 2.9029322790741681 1.4548226416850943e-07 0 2.9998571569855756 1.2356913461788879e-10 0 2.9029322790741681 1.4548226416850943e-07 0 2.9998571563459513 1.4826613980695584e-10 0 2.9029322790741681 1.4548226416850943e-07 0 2.868559071895306 3.636889613900666e-07 0 2.7860034932964162 1.5408751572805839e-07 0 2.8702444285256341 -2.2036092208529451e-09 0 2.9029322790741681 1.4548226416850943e-07 0 2.7860034932964162 1.5408751572805839e-07 0 2.9998571598036476 3.8297375398825652e-10 0 2.868559071895306 3.636889613900666e-07 0 2.8952891979359792 4.9098953689929561e-07 0 2.9998571598036476 3.8297375398825652e-10 0 2.9998571563459513 1.4826613980695584e-10 0 2.868559071895306 3.636889613900666e-07 0 2.9029322790741681 1.4548226416850943e-07 0 2.9998571563459513 1.4826613980695584e-10 0 2.868559071895306 3.636889613900666e-07 0 2.868559071895306 3.636889613900666e-07 0 2.7813543962427358 5.8849131278962803e-07 0 2.8952891979359792 4.9098953689929561e-07 0 2.868559071895306 3.636889613900666e-07 0 2.7146196805213449 2.8147334293374582e-07 0 2.7813543962427358 5.8849131278962803e-07 0 2.868559071895306 3.636889613900666e-07 0 2.7146196805213449 2.8147334293374582e-07 0 2.7860034932964162 1.5408751572805839e-07 0 2.7146196805213449 2.8147334293374582e-07 0 2.6436121875055214 5.2389061554092608e-08 0 2.5727356928925209 -1.0408346601902161e-07 0 2.7146196805213449 2.8147334293374582e-07 0 2.6423678340138843 2.2097149124445515e-07 0 2.7813543962427358 5.8849131278962803e-07 0 2.7146196805213449 2.8147334293374582e-07 0 2.5727356928925209 -1.0408346601902161e-07 0 2.6423678340138843 2.2097149124445515e-07 0 2.7166080696332662 -1.7939562447595713e-09 0 2.8702444285256341 -2.2036092208529451e-09 0 2.7860034932964162 1.5408751572805839e-07 0 2.7146196805213449 2.8147334293374582e-07 0 2.7860034932964162 1.5408751572805839e-07 0 2.6436121875055214 5.2389061554092608e-08 0 2.5711658100061006 5.7724849136966049e-09 0 2.7166080696332662 -1.7939562447595713e-09 0 2.6436121875055214 5.2389061554092608e-08 0 2.7166080696332662 -1.7939562447595713e-09 0 2.7860034932964162 1.5408751572805839e-07 0 2.6436121875055214 5.2389061554092608e-08 0 2.5711658100061006 5.7724849136966049e-09 0 2.6436121875055214 5.2389061554092608e-08 0 2.5002133078996338 -1.9280415821827258e-07 0 2.5711658100061006 5.7724849136966049e-09 0 2.4284631363789977 1.7578586967896097e-08 0 2.5002133078996338 -1.9280415821827258e-07 0 2.6436121875055214 5.2389061554092608e-08 0 2.5002133078996338 -1.9280415821827258e-07 0 2.5727356928925209 -1.0408346601902161e-07 0 2.5727356928925209 -1.0408346601902161e-07 0 2.4999950993282423 -5.8989402205409065e-07 0 2.6423678340138843 2.2097149124445515e-07 0 2.5727356928925209 -1.0408346601902161e-07 0 2.428634555208979 -7.087222384341123e-07 0 2.4999950993282423 -5.8989402205409065e-07 0 2.5002133078996338 -1.9280415821827258e-07 0 2.5727356928925209 -1.0408346601902161e-07 0 2.428634555208979 -7.087222384341123e-07 0 2.428634555208979 -7.087222384341123e-07 0 2.2865947378313507 -1.4062623433641732e-06 0 2.3571100000638361 -5.0959109267447004e-07 0 2.428634555208979 -7.087222384341123e-07 0 2.3576349000088808 -1.6123438622759272e-06 0 2.2865947378313507 -1.4062623433641732e-06 0 2.428634555208979 -7.087222384341123e-07 0 2.3576349000088808 -1.6123438622759272e-06 0 2.4999950993282423 -5.8989402205409065e-07 0 2.3576349000088808 -1.6123438622759272e-06 0 2.2865947378313507 -1.4062623433641732e-06 0 2.2197448647123257 -2.6831138516544212e-06 0 2.2865947378313507 -1.4062623433641732e-06 0 2.3571100000638361 -5.0959109267447004e-07 0 2.2142186255255574 -8.4585172932954658e-07 0 2.2856402265249511 3.1856616508503149e-08 0 2.3571100000638361 -5.0959109267447004e-07 0 2.2142186255255574 -8.4585172932954658e-07 0 2.4284631363789977 1.7578586967896097e-08 0 2.2856402265249511 3.1856616508503149e-08 0 2.3571100000638361 -5.0959109267447004e-07 0 2.4284631363789977 1.7578586967896097e-08 0 2.5002133078996338 -1.9280415821827258e-07 0 2.3571100000638361 -5.0959109267447004e-07 0 2.5002133078996338 -1.9280415821827258e-07 0 2.428634555208979 -7.087222384341123e-07 0 2.3571100000638361 -5.0959109267447004e-07 0 2.3590766030120229 -2.4743741002360563e-06 0 2.3690062710250483 -2.708526951103626e-06 0 2.4974601729941424 -9.1793995337919517e-07 0 2.3590766030120229 -2.4743741002360563e-06 0 2.4284871430644679 -1.5065976640335498e-06 0 2.4974601729941424 -9.1793995337919517e-07 0 2.3690062710250483 -2.708526951103626e-06 0 2.246641895424168 -4.5385057707005066e-06 0 2.2323088664005182 -4.0387249522040298e-06 0 2.3590766030120229 -2.4743741002360563e-06 0 2.3690062710250483 -2.708526951103626e-06 0 2.2323088664005182 -4.0387249522040298e-06 0 2.3590766030120229 -2.4743741002360563e-06 0 2.2856439053482536 -2.9663874074267405e-06 0 2.2323088664005182 -4.0387249522040298e-06 0 2.3576349000088808 -1.6123438622759272e-06 0 2.2856439053482536 -2.9663874074267405e-06 0 2.2197448647123257 -2.6831138516544212e-06 0 2.3576349000088808 -1.6123438622759272e-06 0 2.2856439053482536 -2.9663874074267405e-06 0 2.4284871430644679 -1.5065976640335498e-06 0 2.3576349000088808 -1.6123438622759272e-06 0 2.4284871430644679 -1.5065976640335498e-06 0 2.4999950993282423 -5.8989402205409065e-07 0 2.3590766030120229 -2.4743741002360563e-06 0 2.2856439053482536 -2.9663874074267405e-06 0 2.4284871430644679 -1.5065976640335498e-06 0 2.4284871430644679 -1.5065976640335498e-06 0 2.571330066807358 -1.3670755726331551e-07 0 2.4974601729941424 -9.1793995337919517e-07 0 2.4284871430644679 -1.5065976640335498e-06 0 2.4999950993282423 -5.8989402205409065e-07 0 2.571330066807358 -1.3670755726331551e-07 0 2.4999950993282423 -5.8989402205409065e-07 0 2.571330066807358 -1.3670755726331551e-07 0 2.6423678340138843 2.2097149124445515e-07 0 2.4974601729941424 -9.1793995337919517e-07 0 2.6184894955561053 3.8478221425567935e-07 0 2.6327887928520126 3.7382996765804247e-07 0 2.571330066807358 -1.3670755726331551e-07 0 2.4974601729941424 -9.1793995337919517e-07 0 2.6327887928520126 3.7382996765804247e-07 0 2.3690062710250483 -2.708526951103626e-06 0 2.4974601729941424 -9.1793995337919517e-07 0 2.4947866703523847 -1.2104112563647134e-06 0 2.4974601729941424 -9.1793995337919517e-07 0 2.6184894955561053 3.8478221425567935e-07 0 2.4947866703523847 -1.2104112563647134e-06 0 2.6184894955561053 3.8478221425567935e-07 0 2.7624918719483733 1.1536737279860291e-06 0 2.7440743353796431 1.5145409791909529e-06 0 2.6184894955561053 3.8478221425567935e-07 0 2.6327887928520126 3.7382996765804247e-07 0 2.7624918719483733 1.1536737279860291e-06 0 2.6327887928520126 3.7382996765804247e-07 0 2.7624918719483733 1.1536737279860291e-06 0 2.7141727728762413 7.3828659461057635e-07 0 2.7624918719483733 1.1536737279860291e-06 0 2.8742806787431987 1.3167714783601007e-06 0 2.7440743353796431 1.5145409791909529e-06 0 2.571330066807358 -1.3670755726331551e-07 0 2.6423678340138843 2.2097149124445515e-07 0 2.7141727728762413 7.3828659461057635e-07 0 2.6423678340138843 2.2097149124445515e-07 0 2.7141727728762413 7.3828659461057635e-07 0 2.7813543962427358 5.8849131278962803e-07 0 2.571330066807358 -1.3670755726331551e-07 0 2.6327887928520126 3.7382996765804247e-07 0 2.7141727728762413 7.3828659461057635e-07 0 2.7624918719483733 1.1536737279860291e-06 0 2.7141727728762413 7.3828659461057635e-07 0 2.8570151603746736 8.3545506901770156e-07 0 2.7141727728762413 7.3828659461057635e-07 0 2.7813543962427358 5.8849131278962803e-07 0 2.8570151603746736 8.3545506901770156e-07 0 2.7813543962427358 5.8849131278962803e-07 0 2.8952891979359792 4.9098953689929561e-07 0 2.8570151603746736 8.3545506901770156e-07 0 2.8570151603746736 8.3545506901770156e-07 0 2.9998571490970054 7.3558899950751272e-10 0 2.895289913379091 8.3489165169590971e-07 0 2.8952891979359792 4.9098953689929561e-07 0 2.8570151603746736 8.3545506901770156e-07 0 2.9998571490970054 7.3558899950751272e-10 0 2.9998571598036476 3.8297375398825652e-10 0 2.8952891979359792 4.9098953689929561e-07 0 2.9998571490970054 7.3558899950751272e-10 0 2.7624918719483733 1.1536737279860291e-06 0 2.8742806787431987 1.3167714783601007e-06 0 2.895289913379091 8.3489165169590971e-07 0 2.7624918719483733 1.1536737279860291e-06 0 2.8570151603746736 8.3545506901770156e-07 0 2.895289913379091 8.3489165169590971e-07 0 2.9998571490970054 7.3558899950751272e-10 0 2.895289913379091 8.3489165169590971e-07 0 2.999857185215407 5.6428120390304946e-10 0 2.8742806787431987 1.3167714783601007e-06 0 2.895289913379091 8.3489165169590971e-07 0 2.999857185215407 5.6428120390304946e-10 0 2.8742806787431987 1.3167714783601007e-06 0 2.999857185215407 5.6428120390304946e-10 0 2.9998570628391894 1.6645230140158137e-09 0 2.8742806787431987 1.3167714783601007e-06 0 2.9998570628391894 1.6645230140158137e-09 0 2.8695915215165764 1.8826956664316841e-06 0 2.8742806787431987 1.3167714783601007e-06 0 2.8695915215165764 1.8826956664316841e-06 0 2.7440743353796431 1.5145409791909529e-06 0 2.8695915215165764 1.8826956664316841e-06 0 2.8739355974492762 2.7886954664268533e-06 0 2.744548784753821 1.947173045781776e-06 0 2.8695915215165764 1.8826956664316841e-06 0 2.9998575258824469 5.5348536555823374e-10 0 2.8739355974492762 2.7886954664268533e-06 0 2.9998570628391894 1.6645230140158137e-09 0 2.8695915215165764 1.8826956664316841e-06 0 2.9998575258824469 5.5348536555823374e-10 0 2.9998575258824469 5.5348536555823374e-10 0 2.9998558059570817 6.821532122694076e-09 0 2.8739355974492762 2.7886954664268533e-06 0 2.9998558059570817 6.821532122694076e-09 0 2.8739355974492762 2.7886954664268533e-06 0 2.8755795604318264 3.6421329918104155e-06 0 2.8739355974492762 2.7886954664268533e-06 0 2.7520684215043443 2.0558653553450438e-06 0 2.8755795604318264 3.6421329918104155e-06 0 2.8739355974492762 2.7886954664268533e-06 0 2.7520684215043443 2.0558653553450438e-06 0 2.744548784753821 1.947173045781776e-06 0 2.7520684215043443 2.0558653553450438e-06 0 2.6200955917134556 -8.3227353858643913e-07 0 2.6198003851943361 1.1636718990495836e-07 0 2.7520684215043443 2.0558653553450438e-06 0 2.744548784753821 1.947173045781776e-06 0 2.6198003851943361 1.1636718990495836e-07 0 2.744548784753821 1.947173045781776e-06 0 2.6186433501911583 4.039503707823627e-07 0 2.6198003851943361 1.1636718990495836e-07 0 2.7440743353796431 1.5145409791909529e-06 0 2.744548784753821 1.947173045781776e-06 0 2.6186433501911583 4.039503707823627e-07 0 2.6184894955561053 3.8478221425567935e-07 0 2.7440743353796431 1.5145409791909529e-06 0 2.6186433501911583 4.039503707823627e-07 0 2.8695915215165764 1.8826956664316841e-06 0 2.7440743353796431 1.5145409791909529e-06 0 2.744548784753821 1.947173045781776e-06 0 2.8571618310784501 -1.7047457933485941e-08 0 2.8958963090389123 3.4418783755766673e-06 0 2.7710201329326742 -4.4756628855931112e-06 0 2.8571618310784501 -1.7047457933485941e-08 0 2.9999286063424377 3.6495375715787251e-08 0 2.8958963090389123 3.4418783755766673e-06 0 2.9999286063424377 3.6495375715787251e-08 0 2.9998381400034728 2.9934788203605268e-08 0 2.8958963090389123 3.4418783755766673e-06 0 2.9998381400034728 2.9934788203605268e-08 0 2.8958963090389123 3.4418783755766673e-06 0 2.8827853817955371 6.7051645652303742e-06 0 2.8958963090389123 3.4418783755766673e-06 0 2.8827853817955371 6.7051645652303742e-06 0 2.7710201329326742 -4.4756628855931112e-06 0 2.9998381400034728 2.9934788203605268e-08 0 2.8827853817955371 6.7051645652303742e-06 0 2.9998622678795277 -4.2969351915996223e-09 0 2.8827853817955371 6.7051645652303742e-06 0 2.9998622678795277 -4.2969351915996223e-09 0 2.8755795604318264 3.6421329918104155e-06 0 2.9998558059570817 6.821532122694076e-09 0 2.9998622678795277 -4.2969351915996223e-09 0 2.8755795604318264 3.6421329918104155e-06 0 2.8827853817955371 6.7051645652303742e-06 0 2.8755795604318264 3.6421329918104155e-06 0 2.7545275928895019 1.0539369450148276e-06 0 2.7520684215043443 2.0558653553450438e-06 0 2.8755795604318264 3.6421329918104155e-06 0 2.7545275928895019 1.0539369450148276e-06 0 2.7520684215043443 2.0558653553450438e-06 0 2.7545275928895019 1.0539369450148276e-06 0 2.6200955917134556 -8.3227353858643913e-07 0 2.7545275928895019 1.0539369450148276e-06 0 2.6281408110496316 -2.5996333788130854e-06 0 2.6200955917134556 -8.3227353858643913e-07 0 2.7545275928895019 1.0539369450148276e-06 0 2.6281408110496316 -2.5996333788130854e-06 0 2.7710201329326742 -4.4756628855931112e-06 0 2.8827853817955371 6.7051645652303742e-06 0 2.7545275928895019 1.0539369450148276e-06 0 2.7710201329326742 -4.4756628855931112e-06 0 2.6281408110496316 -2.5996333788130854e-06 0 2.7710201329326742 -4.4756628855931112e-06 0 2.6366033178286443 -2.5591767145444224e-06 0 2.7710201329326742 -4.4756628855931112e-06 0 2.7142806177764132 -9.315981505330722e-09 0 2.6366033178286443 -2.5591767145444224e-06 0 2.7142806177764132 -9.315981505330722e-09 0 2.6366033178286443 -2.5591767145444224e-06 0 2.5714299028471959 -5.9953680120913282e-09 0 2.8571618310784501 -1.7047457933485941e-08 0 2.7710201329326742 -4.4756628855931112e-06 0 2.7142806177764132 -9.315981505330722e-09 0 2.5714299028471959 -5.9953680120913282e-09 0 2.49814954457268 -3.7654606969671273e-06 0 2.4285710563952474 -6.0975549135998996e-09 0 2.6366033178286443 -2.5591767145444224e-06 0 2.5714299028471959 -5.9953680120913282e-09 0 2.49814954457268 -3.7654606969671273e-06 0 2.6281408110496316 -2.5996333788130854e-06 0 2.6366033178286443 -2.5591767145444224e-06 0 2.49814954457268 -3.7654606969671273e-06 0 2.49814954457268 -3.7654606969671273e-06 0 2.4945388482529944 -3.6718481725438443e-06 0 2.3627652470927951 -4.6387172477593038e-06 0 2.6281408110496316 -2.5996333788130854e-06 0 2.49814954457268 -3.7654606969671273e-06 0 2.4945388482529944 -3.6718481725438443e-06 0 2.6281408110496316 -2.5996333788130854e-06 0 2.4945388482529944 -3.6718481725438443e-06 0 2.6200955917134556 -8.3227353858643913e-07 0 2.4945388482529944 -3.6718481725438443e-06 0 2.6200955917134556 -8.3227353858643913e-07 0 2.4931415462867657 -2.5590527244469698e-06 0 2.4945388482529944 -3.6718481725438443e-06 0 2.3658646520192406 -4.7006053685439234e-06 0 2.4931415462867657 -2.5590527244469698e-06 0 2.3658646520192406 -4.7006053685439234e-06 0 2.2429472906972303 -5.6900687991996321e-06 0 2.239769014644938 -5.5570495518457126e-06 0 2.3658646520192406 -4.7006053685439234e-06 0 2.3627652470927951 -4.6387172477593038e-06 0 2.239769014644938 -5.5570495518457126e-06 0 2.3627652470927951 -4.6387172477593038e-06 0 2.230468724548484 -3.8111474025581554e-06 0 2.239769014644938 -5.5570495518457126e-06 0 2.4945388482529944 -3.6718481725438443e-06 0 2.3658646520192406 -4.7006053685439234e-06 0 2.3627652470927951 -4.6387172477593038e-06 0 2.49814954457268 -3.7654606969671273e-06 0 2.3627652470927951 -4.6387172477593038e-06 0 2.3571284244183235 -2.6873408781454846e-06 0 2.3627652470927951 -4.6387172477593038e-06 0 2.3571284244183235 -2.6873408781454846e-06 0 2.230468724548484 -3.8111474025581554e-06 0 2.2857143706168817 -5.1757483942914938e-09 0 2.3571284244183235 -2.6873408781454846e-06 0 2.230468724548484 -3.8111474025581554e-06 0 2.2857143706168817 -5.1757483942914938e-09 0 2.3571284244183235 -2.6873408781454846e-06 0 2.4285710563952474 -6.0975549135998996e-09 0 2.49814954457268 -3.7654606969671273e-06 0 2.3571284244183235 -2.6873408781454846e-06 0 2.4285710563952474 -6.0975549135998996e-09 0 2.4943920418644741 -1.6886451861698104e-06 0 2.4947866703523847 -1.2104112563647134e-06 0 2.3707113483224722 -3.2359561513062053e-06 0 2.6184894955561053 3.8478221425567935e-07 0 2.4947866703523847 -1.2104112563647134e-06 0 2.6186433501911583 4.039503707823627e-07 0 2.4943920418644741 -1.6886451861698104e-06 0 2.6186433501911583 4.039503707823627e-07 0 2.6198003851943361 1.1636718990495836e-07 0 2.4943920418644741 -1.6886451861698104e-06 0 2.4947866703523847 -1.2104112563647134e-06 0 2.6186433501911583 4.039503707823627e-07 0 2.4943920418644741 -1.6886451861698104e-06 0 2.6198003851943361 1.1636718990495836e-07 0 2.4931415462867657 -2.5590527244469698e-06 0 2.6200955917134556 -8.3227353858643913e-07 0 2.6198003851943361 1.1636718990495836e-07 0 2.4931415462867657 -2.5590527244469698e-06 0 2.4943920418644741 -1.6886451861698104e-06 0 2.4931415462867657 -2.5590527244469698e-06 0 2.3690614091329385 -3.9761213343107946e-06 0 2.3658646520192406 -4.7006053685439234e-06 0 2.4931415462867657 -2.5590527244469698e-06 0 2.3690614091329385 -3.9761213343107946e-06 0 2.3658646520192406 -4.7006053685439234e-06 0 2.3690614091329385 -3.9761213343107946e-06 0 2.2429472906972303 -5.6900687991996321e-06 0 2.3690614091329385 -3.9761213343107946e-06 0 2.2471748002504892 -5.1615507797131477e-06 0 2.2429472906972303 -5.6900687991996321e-06 0 2.3707113483224722 -3.2359561513062053e-06 0 2.246641895424168 -4.5385057707005066e-06 0 2.2471748002504892 -5.1615507797131477e-06 0 2.3690614091329385 -3.9761213343107946e-06 0 2.3707113483224722 -3.2359561513062053e-06 0 2.2471748002504892 -5.1615507797131477e-06 0 2.4943920418644741 -1.6886451861698104e-06 0 2.3690614091329385 -3.9761213343107946e-06 0 2.3707113483224722 -3.2359561513062053e-06 0 2.3690062710250483 -2.708526951103626e-06 0 2.4947866703523847 -1.2104112563647134e-06 0 2.3707113483224722 -3.2359561513062053e-06 0 2.3690062710250483 -2.708526951103626e-06 0 2.3707113483224722 -3.2359561513062053e-06 0 2.246641895424168 -4.5385057707005066e-06 0 2.246641895424168 -4.5385057707005066e-06 0 2.1230384946718952 -6.1734587555526736e-06 0 2.1204774212096646 -5.5951892257796265e-06 0 2.1230384946718952 -6.1734587555526736e-06 0 1.9999614977607287 -6.9110804454782152e-06 0 2.1204774212096646 -5.5951892257796265e-06 0 2.1230384946718952 -6.1734587555526736e-06 0 2.1230703117516421 -6.5745380570386287e-06 0 1.9999660122674909 -7.3289124413335124e-06 0 2.246641895424168 -4.5385057707005066e-06 0 2.1230384946718952 -6.1734587555526736e-06 0 2.2471748002504892 -5.1615507797131477e-06 0 2.1230384946718952 -6.1734587555526736e-06 0 2.2471748002504892 -5.1615507797131477e-06 0 2.1230703117516421 -6.5745380570386287e-06 0 2.2471748002504892 -5.1615507797131477e-06 0 2.2429472906972303 -5.6900687991996321e-06 0 2.1230703117516421 -6.5745380570386287e-06 0 2.2429472906972303 -5.6900687991996321e-06 0 2.1230703117516421 -6.5745380570386287e-06 0 2.1203776767239595 -6.4526299099493103e-06 0 2.1230703117516421 -6.5745380570386287e-06 0 1.9999721814299969 -7.2466713247050653e-06 0 2.1203776767239595 -6.4526299099493103e-06 0 2.1230703117516421 -6.5745380570386287e-06 0 1.9999721814299969 -7.2466713247050653e-06 0 1.9999660122674909 -7.3289124413335124e-06 0 1.9999721814299969 -7.2466713247050653e-06 0 1.8756807198605514 -7.2159820098181147e-06 0 1.8740373622008504 -7.9426093127795878e-06 0 1.9999721814299969 -7.2466713247050653e-06 0 1.9999660122674909 -7.3289124413335124e-06 0 1.8740373622008504 -7.9426093127795878e-06 0 1.9999614977607287 -6.9110804454782152e-06 0 1.9999660122674909 -7.3289124413335124e-06 0 1.8696914441514916 -7.9320991240924177e-06 0 1.9999660122674909 -7.3289124413335124e-06 0 1.8696914441514916 -7.9320991240924177e-06 0 1.8740373622008504 -7.9426093127795878e-06 0 1.9999614977607287 -6.9110804454782152e-06 0 1.8696914441514916 -7.9320991240924177e-06 0 1.8743794721291889 -7.4448141233277051e-06 0 2.1230384946718952 -6.1734587555526736e-06 0 1.9999614977607287 -6.9110804454782152e-06 0 1.9999660122674909 -7.3289124413335124e-06 0 2.142857110656037 -4.9666248550485152e-09 0 2.1045687880542161 -3.0362389046099886e-06 0 2.0000000014185288 -5.0665934213685173e-09 0 2.142857110656037 -4.9666248550485152e-09 0 2.230468724548484 -3.8111474025581554e-06 0 2.1045687880542161 -3.0362389046099886e-06 0 2.2857143706168817 -5.1757483942914938e-09 0 2.142857110656037 -4.9666248550485152e-09 0 2.230468724548484 -3.8111474025581554e-06 0 2.1045687880542161 -3.0362389046099886e-06 0 2.1165286041738303 -5.2998027805278455e-06 0 1.9999894589400766 -3.8967255057588534e-06 0 2.230468724548484 -3.8111474025581554e-06 0 2.1045687880542161 -3.0362389046099886e-06 0 2.1165286041738303 -5.2998027805278455e-06 0 2.230468724548484 -3.8111474025581554e-06 0 2.1165286041738303 -5.2998027805278455e-06 0 2.239769014644938 -5.5570495518457126e-06 0 2.2429472906972303 -5.6900687991996321e-06 0 2.239769014644938 -5.5570495518457126e-06 0 2.1203776767239595 -6.4526299099493103e-06 0 2.1165286041738303 -5.2998027805278455e-06 0 2.239769014644938 -5.5570495518457126e-06 0 2.1203776767239595 -6.4526299099493103e-06 0 2.1165286041738303 -5.2998027805278455e-06 0 2.1203776767239595 -6.4526299099493103e-06 0 1.9999800727410748 -6.2605425832011216e-06 0 1.9999721814299969 -7.2466713247050653e-06 0 2.1203776767239595 -6.4526299099493103e-06 0 1.9999800727410748 -6.2605425832011216e-06 0 1.9999800727410748 -6.2605425832011216e-06 0 1.8756807198605514 -7.2159820098181147e-06 0 1.8828845129613831 -5.4828226143305405e-06 0 1.9999721814299969 -7.2466713247050653e-06 0 1.9999800727410748 -6.2605425832011216e-06 0 1.8756807198605514 -7.2159820098181147e-06 0 1.9999800727410748 -6.2605425832011216e-06 0 1.8828845129613831 -5.4828226143305405e-06 0 1.9999894589400766 -3.8967255057588534e-06 0 2.1165286041738303 -5.2998027805278455e-06 0 1.9999800727410748 -6.2605425832011216e-06 0 1.9999894589400766 -3.8967255057588534e-06 0 1.8828845129613831 -5.4828226143305405e-06 0 1.9999894589400766 -3.8967255057588534e-06 0 1.8959735274187715 -3.0315110542321706e-06 0 1.9999894589400766 -3.8967255057588534e-06 0 1.8959735274187715 -3.0315110542321706e-06 0 2.0000000014185288 -5.0665934213685173e-09 0 1.8959735274187715 -3.0315110542321706e-06 0 2.0000000014185288 -5.0665934213685173e-09 0 1.8571428513776329 -4.6529661214038272e-09 0 2.1045687880542161 -3.0362389046099886e-06 0 1.9999894589400766 -3.8967255057588534e-06 0 2.0000000014185288 -5.0665934213685173e-09 0 1.7142857132362257 -4.6913611801225171e-09 0 1.8571428513776329 -4.6529661214038272e-09 0 1.7710751226614938 -3.7691965278744832e-06 0 1.7142857132362257 -4.6913611801225171e-09 0 1.7710751226614938 -3.7691965278744832e-06 0 1.6366321402299002 -2.731386811302871e-06 0 1.8959735274187715 -3.0315110542321706e-06 0 1.8571428513776329 -4.6529661214038272e-09 0 1.7710751226614938 -3.7691965278744832e-06 0 1.8828845129613831 -5.4828226143305405e-06 0 1.8959735274187715 -3.0315110542321706e-06 0 1.7710751226614938 -3.7691965278744832e-06 0 1.7710751226614938 -3.7691965278744832e-06 0 1.7546086138481662 -6.5570609764130744e-06 0 1.6281942418160755 -5.4964536546499983e-06 0 1.8828845129613831 -5.4828226143305405e-06 0 1.7710751226614938 -3.7691965278744832e-06 0 1.7546086138481662 -6.5570609764130744e-06 0 1.8756807198605514 -7.2159820098181147e-06 0 1.8828845129613831 -5.4828226143305405e-06 0 1.7546086138481662 -6.5570609764130744e-06 0 1.8756807198605514 -7.2159820098181147e-06 0 1.7546086138481662 -6.5570609764130744e-06 0 1.7521582571337901 -7.9865643327396534e-06 0 1.7546086138481662 -6.5570609764130744e-06 0 1.6201681063852955 -7.5528050367650842e-06 0 1.7521582571337901 -7.9865643327396534e-06 0 1.7546086138481662 -6.5570609764130744e-06 0 1.6201681063852955 -7.5528050367650842e-06 0 1.6281942418160755 -5.4964536546499983e-06 0 1.4932109217703133 -8.1691609025896742e-06 0 1.4945917626733474 -6.5860066226689932e-06 0 1.6201681063852955 -7.5528050367650842e-06 0 1.4945917626733474 -6.5860066226689932e-06 0 1.6201681063852955 -7.5528050367650842e-06 0 1.6281942418160755 -5.4964536546499983e-06 0 1.4945917626733474 -6.5860066226689932e-06 0 1.4981773348366996 -3.6921871806814847e-06 0 1.6281942418160755 -5.4964536546499983e-06 0 1.7710751226614938 -3.7691965278744832e-06 0 1.6281942418160755 -5.4964536546499983e-06 0 1.6366321402299002 -2.731386811302871e-06 0 1.4981773348366996 -3.6921871806814847e-06 0 1.6281942418160755 -5.4964536546499983e-06 0 1.6366321402299002 -2.731386811302871e-06 0 1.4981773348366996 -3.6921871806814847e-06 0 1.5714285699844506 -4.6642183628084705e-09 0 1.6366321402299002 -2.731386811302871e-06 0 1.7142857132362257 -4.6913611801225171e-09 0 1.5714285699844506 -4.6642183628084705e-09 0 1.6366321402299002 -2.731386811302871e-06 0 1.7446417363721076 -8.4478184134012332e-06 0 1.7441686575689779 -8.2489215058147071e-06 0 1.618731265703284 -8.6888086947699107e-06 0 1.7441686575689779 -8.2489215058147071e-06 0 1.8696914441514916 -7.9320991240924177e-06 0 1.8743794721291889 -7.4448141233277051e-06 0 1.7446417363721076 -8.4478184134012332e-06 0 1.7441686575689779 -8.2489215058147071e-06 0 1.8696914441514916 -7.9320991240924177e-06 0 1.7446417363721076 -8.4478184134012332e-06 0 1.8696914441514916 -7.9320991240924177e-06 0 1.8740373622008504 -7.9426093127795878e-06 0 1.7446417363721076 -8.4478184134012332e-06 0 1.8740373622008504 -7.9426093127795878e-06 0 1.7521582571337901 -7.9865643327396534e-06 0 1.8756807198605514 -7.2159820098181147e-06 0 1.8740373622008504 -7.9426093127795878e-06 0 1.7521582571337901 -7.9865643327396534e-06 0 1.7446417363721076 -8.4478184134012332e-06 0 1.7521582571337901 -7.9865643327396534e-06 0 1.6198829432561068 -8.5172533664705871e-06 0 1.6201681063852955 -7.5528050367650842e-06 0 1.7521582571337901 -7.9865643327396534e-06 0 1.6198829432561068 -8.5172533664705871e-06 0 1.4932109217703133 -8.1691609025896742e-06 0 1.6201681063852955 -7.5528050367650842e-06 0 1.6198829432561068 -8.5172533664705871e-06 0 1.4944714031312927 -8.7538728391699313e-06 0 1.4932109217703133 -8.1691609025896742e-06 0 1.6198829432561068 -8.5172533664705871e-06 0 1.4944714031312927 -8.7538728391699313e-06 0 1.6198829432561068 -8.5172533664705871e-06 0 1.618731265703284 -8.6888086947699107e-06 0 1.4944714031312927 -8.7538728391699313e-06 0 1.4948720504238122 -8.6334218799901473e-06 0 1.618731265703284 -8.6888086947699107e-06 0 1.7446417363721076 -8.4478184134012332e-06 0 1.6198829432561068 -8.5172533664705871e-06 0 1.618731265703284 -8.6888086947699107e-06 0 1.7441686575689779 -8.2489215058147071e-06 0 1.618731265703284 -8.6888086947699107e-06 0 1.6185803423381064 -8.3087236937609245e-06 0 1.4948720504238122 -8.6334218799901473e-06 0 1.618731265703284 -8.6888086947699107e-06 0 1.6185803423381064 -8.3087236937609245e-06 0 1.4948720504238122 -8.6334218799901473e-06 0 1.4975495782851276 -7.9900969021060307e-06 0 1.6185803423381064 -8.3087236937609245e-06 0 1.4975495782851276 -7.9900969021060307e-06 0 1.6328813807384515 -7.6468894624697887e-06 0 1.6185803423381064 -8.3087236937609245e-06 0 1.4975495782851276 -7.9900969021060307e-06 0 1.6328813807384515 -7.6468894624697887e-06 0 1.5714224598513247 -7.1690025607772309e-06 0 1.6328813807384515 -7.6468894624697887e-06 0 1.6185803423381064 -8.3087236937609245e-06 0 1.7625872386289965 -7.5256716700990238e-06 0 1.7441686575689779 -8.2489215058147071e-06 0 1.6185803423381064 -8.3087236937609245e-06 0 1.7625872386289965 -7.5256716700990238e-06 0 1.6328813807384515 -7.6468894624697887e-06 0 1.7625872386289965 -7.5256716700990238e-06 0 1.714267281129545 -6.900718643245237e-06 0 1.7625872386289965 -7.5256716700990238e-06 0 1.8571119664710973 -6.3361252229441389e-06 0 1.8953881860889876 -6.7203997370376094e-06 0 1.7625872386289965 -7.5256716700990238e-06 0 1.8743794721291889 -7.4448141233277051e-06 0 1.8953881860889876 -6.7203997370376094e-06 0 1.7441686575689779 -8.2489215058147071e-06 0 1.7625872386289965 -7.5256716700990238e-06 0 1.8743794721291889 -7.4448141233277051e-06 0 1.8571119664710973 -6.3361252229441389e-06 0 1.7801641289448076 -5.0786727987189183e-06 0 1.8953859002317037 -4.8847471353889351e-06 0 1.8571119664710973 -6.3361252229441389e-06 0 1.714267281129545 -6.900718643245237e-06 0 1.7801641289448076 -5.0786727987189183e-06 0 1.7625872386289965 -7.5256716700990238e-06 0 1.8571119664710973 -6.3361252229441389e-06 0 1.714267281129545 -6.900718643245237e-06 0 1.714267281129545 -6.900718643245237e-06 0 1.6422689242350839 -5.3284205325251054e-06 0 1.7801641289448076 -5.0786727987189183e-06 0 1.714267281129545 -6.900718643245237e-06 0 1.5714224598513247 -7.1690025607772309e-06 0 1.6422689242350839 -5.3284205325251054e-06 0 1.6328813807384515 -7.6468894624697887e-06 0 1.714267281129545 -6.900718643245237e-06 0 1.5714224598513247 -7.1690025607772309e-06 0 1.4999999795351515 -5.4921996079612948e-06 0 1.5714224598513247 -7.1690025607772309e-06 0 1.6422689242350839 -5.3284205325251054e-06 0 1.4999999795351515 -5.4921996079612948e-06 0 1.571146102467359 -3.616419512107853e-06 0 1.6422689242350839 -5.3284205325251054e-06 0 1.571146102467359 -3.616419512107853e-06 0 1.6428451980267398 -1.7387537770420221e-06 0 1.7132995066148553 -3.4617537469007041e-06 0 1.571146102467359 -3.616419512107853e-06 0 1.6422689242350839 -5.3284205325251054e-06 0 1.7132995066148553 -3.4617537469007041e-06 0 1.4999999727574238 -1.7794326373891894e-06 0 1.4285857543131395 7.9151762856999696e-08 0 1.5714301289642743 7.9013726705375442e-08 0 1.4999999727574238 -1.7794326373891894e-06 0 1.5714301289642743 7.9013726705375442e-08 0 1.6428451980267398 -1.7387537770420221e-06 0 1.4999999727574238 -1.7794326373891894e-06 0 1.571146102467359 -3.616419512107853e-06 0 1.6428451980267398 -1.7387537770420221e-06 0 1.5714301289642743 7.9013726705375442e-08 0 1.7164487532019115 7.4178568536164259e-08 0 1.6428451980267398 -1.7387537770420221e-06 0 1.7164487532019115 7.4178568536164259e-08 0 1.6428451980267398 -1.7387537770420221e-06 0 1.7856876306795109 -1.6231836407651352e-06 0 1.6428451980267398 -1.7387537770420221e-06 0 1.7856876306795109 -1.6231836407651352e-06 0 1.7132995066148553 -3.4617537469007041e-06 0 1.7856876306795109 -1.6231836407651352e-06 0 1.8679850452997491 -3.364574301565825e-06 0 1.9050985578477744 -1.6344518591394866e-06 0 1.8719137326752828 3.2573340630912569e-08 0 1.7856876306795109 -1.6231836407651352e-06 0 1.9050985578477744 -1.6344518591394866e-06 0 1.7164487532019115 7.4178568536164259e-08 0 1.8719137326752828 3.2573340630912569e-08 0 1.7856876306795109 -1.6231836407651352e-06 0 1.6422689242350839 -5.3284205325251054e-06 0 1.7801641289448076 -5.0786727987189183e-06 0 1.7132995066148553 -3.4617537469007041e-06 0 1.7856876306795109 -1.6231836407651352e-06 0 1.7132995066148553 -3.4617537469007041e-06 0 1.8679850452997491 -3.364574301565825e-06 0 1.7801641289448076 -5.0786727987189183e-06 0 1.7132995066148553 -3.4617537469007041e-06 0 1.8679850452997491 -3.364574301565825e-06 0 1.7801641289448076 -5.0786727987189183e-06 0 1.8679850452997491 -3.364574301565825e-06 0 1.8953859002317037 -4.8847471353889351e-06 0 1.8679850452997491 -3.364574301565825e-06 0 1.999954601816472 -3.9287345017086217e-06 0 1.8953859002317037 -4.8847471353889351e-06 0 1.8679850452997491 -3.364574301565825e-06 0 1.999953594285043 -2.3544486832207401e-06 0 1.9050985578477744 -1.6344518591394866e-06 0 1.8679850452997491 -3.364574301565825e-06 0 1.999953594285043 -2.3544486832207401e-06 0 1.999954601816472 -3.9287345017086217e-06 0 1.999953594285043 -2.3544486832207401e-06 0 1.999954601816472 -3.9287345017086217e-06 0 2.1319207428186666 -2.3036712310818005e-06 0 1.8719137326752828 3.2573340630912569e-08 0 1.9050985578477744 -1.6344518591394866e-06 0 1.9999531301985909 -7.8226370290707059e-07 0 1.999953594285043 -2.3544486832207401e-06 0 1.9050985578477744 -1.6344518591394866e-06 0 1.9999531301985909 -7.8226370290707059e-07 0 1.999953594285043 -2.3544486832207401e-06 0 1.9999531301985909 -7.8226370290707059e-07 0 2.0945601728917573 -1.2524610144006118e-06 0 2.1267552077721898 3.2586468067244247e-08 0 2.0945601728917573 -1.2524610144006118e-06 0 2.2142186255255574 -8.4585172932954658e-07 0 2.1267552077721898 3.2586468067244247e-08 0 1.9999531301985909 -7.8226370290707059e-07 0 2.0945601728917573 -1.2524610144006118e-06 0 2.0945601728917573 -1.2524610144006118e-06 0 2.2142186255255574 -8.4585172932954658e-07 0 2.1319207428186666 -2.3036712310818005e-06 0 2.1267552077721898 3.2586468067244247e-08 0 2.2856402265249511 3.1856616508503149e-08 0 2.2142186255255574 -8.4585172932954658e-07 0 1.999954601816472 -3.9287345017086217e-06 0 2.1319207428186666 -2.3036712310818005e-06 0 2.1045239607505279 -3.6901425591100926e-06 0 2.1319207428186666 -2.3036712310818005e-06 0 2.2197448647123257 -2.6831138516544212e-06 0 2.1045239607505279 -3.6901425591100926e-06 0 1.999953594285043 -2.3544486832207401e-06 0 2.0945601728917573 -1.2524610144006118e-06 0 2.1319207428186666 -2.3036712310818005e-06 0 2.2865947378313507 -1.4062623433641732e-06 0 2.2142186255255574 -8.4585172932954658e-07 0 2.1319207428186666 -2.3036712310818005e-06 0 2.2865947378313507 -1.4062623433641732e-06 0 2.1319207428186666 -2.3036712310818005e-06 0 2.2197448647123257 -2.6831138516544212e-06 0 2.2856439053482536 -2.9663874074267405e-06 0 2.2197448647123257 -2.6831138516544212e-06 0 2.1428003063794883 -4.3608216348279825e-06 0 2.1045239607505279 -3.6901425591100926e-06 0 2.1428003063794883 -4.3608216348279825e-06 0 1.9999563006608287 -5.5087711626399883e-06 0 2.2197448647123257 -2.6831138516544212e-06 0 2.1045239607505279 -3.6901425591100926e-06 0 2.1428003063794883 -4.3608216348279825e-06 0 2.1428003063794883 -4.3608216348279825e-06 0 2.1045269932846198 -5.1862472826944169e-06 0 1.9999563006608287 -5.5087711626399883e-06 0 2.2856439053482536 -2.9663874074267405e-06 0 2.1428003063794883 -4.3608216348279825e-06 0 2.2323088664005182 -4.0387249522040298e-06 0 2.1428003063794883 -4.3608216348279825e-06 0 2.2323088664005182 -4.0387249522040298e-06 0 2.1045269932846198 -5.1862472826944169e-06 0 2.246641895424168 -4.5385057707005066e-06 0 2.2323088664005182 -4.0387249522040298e-06 0 2.1204774212096646 -5.5951892257796265e-06 0 2.2323088664005182 -4.0387249522040298e-06 0 2.1204774212096646 -5.5951892257796265e-06 0 2.1045269932846198 -5.1862472826944169e-06 0 2.1204774212096646 -5.5951892257796265e-06 0 2.1045269932846198 -5.1862472826944169e-06 0 1.9999583341013067 -6.2453551468938697e-06 0 2.1045269932846198 -5.1862472826944169e-06 0 1.9999583341013067 -6.2453551468938697e-06 0 1.9999563006608287 -5.5087711626399883e-06 0 1.9999614977607287 -6.9110804454782152e-06 0 2.1204774212096646 -5.5951892257796265e-06 0 1.9999583341013067 -6.2453551468938697e-06 0 1.9999614977607287 -6.9110804454782152e-06 0 1.8743794721291889 -7.4448141233277051e-06 0 1.9999583341013067 -6.2453551468938697e-06 0 1.8743794721291889 -7.4448141233277051e-06 0 1.9999583341013067 -6.2453551468938697e-06 0 1.8953881860889876 -6.7203997370376094e-06 0 1.9999583341013067 -6.2453551468938697e-06 0 1.8953881860889876 -6.7203997370376094e-06 0 1.9999563006608287 -5.5087711626399883e-06 0 1.8571119664710973 -6.3361252229441389e-06 0 1.8953881860889876 -6.7203997370376094e-06 0 1.9999563006608287 -5.5087711626399883e-06 0 1.999954601816472 -3.9287345017086217e-06 0 1.8953859002317037 -4.8847471353889351e-06 0 1.9999563006608287 -5.5087711626399883e-06 0 1.8571119664710973 -6.3361252229441389e-06 0 1.8953859002317037 -4.8847471353889351e-06 0 1.9999563006608287 -5.5087711626399883e-06 0 1.999954601816472 -3.9287345017086217e-06 0 2.1045239607505279 -3.6901425591100926e-06 0 1.9999563006608287 -5.5087711626399883e-06 0 
</DataArray>
</PointData>
<CellData Scalars="region_id,displacement_divergence," Vectors="" Tensors="stress,">
<DataArray type="Float64" Name="region_id" format="ascii">
5 5 5 5 5 5 5 5 5 5 5 5 5 5 5 5 5 5 5 5 5 5 5 5 5 5 5 5 5 5 5 5 5 5 5 5 5 5 5 5 5 5 5 5 5 5 5 5 5 5 5 5 5 5 5 5 5 5 5 5 5 5 5 5 5 5 5 5 5 5 5 5 5 5 5 5 5 5 5 5 5 5 5 5 5 5 5 5 5 5 5 5 5 5 5 5 5 5 5 5 5 5 5 5 5 5 5 5 5 5 5 5 5 5 5 5 5 5 5 5 5 5 5 5 5 5 5 5 5 5 5 5 6 6 6 6 6 6 6 6 6 6 6 6 6 6 6 6 6 6 6 5 5 6 5 5 5 5 5 5 5 5 5 6 5 6 6 6 6 5 6 5 5 5 5 5 5 5 5 5 6 6 5 5 6 6 6 6 6 6 6 6 6 6 6 6 6 6 6 6 6 6 6 6 6 6 6 6 6 6 6 6 6 6 6 6 6 5 5 5 5 5 5 6 6 6 6 6 5 5 5 5 5 5 5 5 5 5 6 6 6 6 6 6 5 5 5 5 5 5 6 6 6 6 6 6 6 6 6 6 6 6 6 6 6 6 6 6 6 6 6 6 6 6 6 6 6 6 6 6 6 6 6 6 6 6 6 5 6 5 5 5 5 5 5 5 5 5 6 5 5 6 6 6 5 6 5 5 5 5 5 5 5 5 6 6 5 6 6 6 6 6 6 6 6 6 6 6 6 6 6 6 6 5 5 5 5 5 5 5 5 5 5 5 5 5 5 5 5 5 5 5 5 5 5 5 5 5 5 5 5 5 5 5 5 5 5 5 5 5 5 5 5 5 5 5 5 5 5 5 5 5 5 5 5 5 5 5 5 5 5 5 5 5 5 5 5 5 5 5 5 5 5 5 5 5 5 5 5 5 5 5 5 5 5 5 5 5 5 5 5 5 5 5 5 5 5 5 5 5 5 5 5 5 5 5 5 5 5 5 5 5 5 5 5 5 5 5 5 5 5 5 5 5 5 5 5 5 5 5 5 5 5 5 5 6 6 6 6 6 6 6 6 6 6 6 6 6 6 6 6 6 6 5 5 6 6 5 5 5 5 5 5 5 5 5 6 5 6 6 6 6 5 6 5 5 5 5 5 5 5 5 5 6 5 5 6 6 6 6 6 6 6 6 6 6 6 6 6 6 6 6 6 6 6 6 6 6 6 6 6 6 6 6 6 6 6 6 6 6 6 6 5 6 5 5 5 5 5 5 5 5 5 6 5 6 6 6 6 5 6 5 5 5 5 5 5 5 5 5 6 6 5 5 6 6 6 6 6 6 6 6 6 6 6 6 6 6 6 6 6 6 6 5 5 5 5 5 5 5 5 5 5 5 5 5 5 5 5 5 5 5 5 5 5 5 5 5 5 5 5 5 5 5 5 5 5 5 5 5 5 5 5 5 5 5 5 5 5 5 5 5 5 5 5 5 5 5 5 5 5 5 5 5 5 5 5 5 5 5 5 5 5 5 5 5 5 5 5 5 5 5 5 5 5 5 5 5 5 5 5 5 5 5 5 5 5 5 5 5 5 5 5 5 5 5 5 5 5 5 5 5 5 5 5 5 5 5 5 5 5 5 5 5 5 5 5 5 5 5 5 5 5 6 6 6 6 6 6 6 6 6 6 6 6 6 6 6 6 5 6 6 5 5 5 5 5 5 5 5 5 6 5 6 6 6 5 5 6 5 5 5 5 5 5 5 5 5 6 5 6 6 6 6 6 6 6 6 6 6 6 6 6 6 6 6 6 6 6 6 6 6 6 6 6 6 6 6 6 6 6 6 6 6 6 6 6 6 6 6 6 6 6 6 6 6 6 6 6 6 6 6 5 5 5 5 5 6 6 6 5 5 6 6 5 5 5 5 5 5 5 5 6 6 5 5 6 6 5 6 6 5 5 5 5 5 5 5 5 5 5 5 5 5 5 5 5 5 5 5 5 5 5 5 5 5 5 5 5 5 5 5 5 5 5 5 5 5 5 5 5 5 5 5 5 5 5 5 5 5 5 5 5 5 5 5 5 5 5 5 5 5 5 5 5 5 5 5 5 5 5 5 5 5 5 5 5 5 5 5 5 5 5 5 5 5 5 5 5 5 5 5 5 5 5 5 5 5 5 5 5 5 5 5 5 5 5 5 5 5 5 5 5 5 5 5 5 5 5 5 5 5 5 5 5 5 5 5 5 5 5 5 5 5 5 5 5 5 5 5 5 5 5 5 5 6 6 5 6 6 5 6 6 6 6 6 6 6 6 6 6 6 6 6 6 6 6 6 6 6 6 6 6 6 6 6 6 6 6 6 6 6 6 6 6 6 6 5 5 5 5 5 5 5 5 5 5 5 5 6 6 6 
</DataArray>
<DataArray type="Float64" Name="stress" NumberOfComponents="9" format="ascii">
99.936737587087052 0.038083830208986848 0 0.038083830208986848 0.0022953966117368755 0 0 0 0 99.949617881175712 0.032793046032463052 0 0.032793046032463052 -3.3291239457511047e-06 0 0 0 0 99.96517276302842 0.040510360249058068 0 0.040510360249058068 0.00014362470528818741 0 0 0 0 99.972456445153071 0.0089833381676770983 0 0.0089833381676770983 0.0046397446620701759 0 0 0 0 99.937618166255362 0.017234727374369235 0 0.017234727374369235 0.002738353271905546 0 0 0 0 99.969754479740359 -0.005876096820155113 0 -0.005876096820155113 -2.6413335120502928e-05 0 0 0 0 99.981909607933929 0.0038913087703389354 0 0.0038913087703389354 1.0090776846455592e-05 0 0 0 0 99.980141112979425 0.0055752428514223712 0 0.0055752428514223712 -0.0014780733611171912 0 0 0 0 99.982918257546885 0.0038446291992674467 0 0.0038446291992674467 -0.0025674062785340443 0 0 0 0 99.976693896943502 0.011123289826705497 0 0.011123289826705497 0.0053944565573650991 0 0 0 0 99.97858383563468 0.0025585990403765948 0 0.0025585990403765948 0.00048243833706242508 0 0 0 0 99.984375895683058 0.0052752348783454582 0 0.0052752348783454582 0.0017262742919826287 0 0 0 0 99.985794718276082 0.0053748088479638849 0 0.0053748088479638849 0.0011676374036774409 0 0 0 0 99.985618706749534 0.010505821189999688 0 0.010505821189999688 0.00062273420007940205 0 0 0 0 99.986065629555583 0.011906921911988368 0 0.011906921911988368 0.0021383576493385179 0 0 0 0 99.985389536169379 0.018509594316573123 0 0.018509594316573123 -0.0027465234929624468 0 0 0 0 99.995493196759639 0.015099279109870233 0 0.015099279109870233 -0.0020555616701890358 0 0 0 0 100.0168574482903 0.027218764356489195 0 0.027218764356489195 -0.0034921991258550292 0 0 0 0 99.987559439243284 0.00082681752374806584 0 0.00082681752374806584 -0.00021666731258309225 0 0 0 0 99.987899417071773 0.0011925854140085958 0 0.0011925854140085958 -0.00045458325274102477 0 0 0 0 99.986417929919341 0.0018066287481374771 0 0.0018066287481374771 -0.00053992107773333654 0 0 0 0 99.987296368202962 0.0010103375117367528 0 0.0010103375117367528 1.2784672483255145e-06 0 0 0 0 99.987591481020715 0.0011365013913565481 0 0.0011365013913565481 -0.00095195031673701185 0 0 0 0 99.984920894944565 0.00059281630863081375 0 0.00059281630863081375 -5.4865762971687552e-06 0 0 0 0 99.981744597550332 0.003532071909901235 0 0.003532071909901235 -0.00068164480550036272 0 0 0 0 99.98315772614842 0.0020417682431298624 0 0.0020417682431298624 -5.4843974393317067e-05 0 0 0 0 99.985928479786338 0.0025405959673976083 0 0.0025405959673976083 -0.00062365716933708635 0 0 0 0 99.98724813880861 0.0030047301194031811 0 0.0030047301194031811 0.00065846304520832707 0 0 0 0 99.984735967383656 0.0019929608588406902 0 0.0019929608588406902 0.00032004104485969655 0 0 0 0 99.98724824644583 0.0012713191544474641 0 0.0012713191544474641 0.00019473430321523147 0 0 0 0 99.985989639226091 0.0010635516198447409 0 0.0010635516198447409 -0.00018208767390518561 0 0 0 0 99.98796986146138 0.0015169809211921883 0 0.0015169809211921883 -0.00031790776884695331 0 0 0 0 99.989010091699754 0.00095714113073353002 0 0.00095714113073353002 -0.00015382066334927692 0 0 0 0 99.987929940602584 0.00067883834921242652 0 0.00067883834921242652 -0.00011201005282285683 0 0 0 0 99.988685550655035 0.00086162764528123948 0 0.00086162764528123948 -0.00060850178176090125 0 0 0 0 99.989503618719823 0.0011220203804796446 0 0.0011220203804796446 0.00027601615155943028 0 0 0 0 99.988672804363503 0.00078560020987148674 0 0.00078560020987148674 0.00016400842171206942 0 0 0 0 99.988685879120979 0.001833950746828723 0 0.001833950746828723 0.0003650030163028269 0 0 0 0 99.988818619081655 0.0017207461432638296 0 0.0017207461432638296 0.0004514856581897043 0 0 0 0 99.987564277968147 0.00290541186740259 0 0.00290541186740259 0.00066920322710563296 0 0 0 0 99.988818611526654 0.0033446672519125637 0 0.0033446672519125637 0.00076257263886074988 0 0 0 0 99.99034373811179 0.0032814556522297884 0 0.0032814556522297884 0.00050158994561159205 0 0 0 0 99.990035317182702 0.0032097375167249066 0 0.0032097375167249066 0.00052129842092356934 0 0 0 0 99.991882954984248 0.0030575308159728302 0 0.0030575308159728302 0.00022345202226251937 0 0 0 0 99.990352738271184 0.0019412837320633854 0 0.0019412837320633854 0.00045099621708985385 0 0 0 0 99.989630680790242 0.0020522010771032301 0 0.0020522010771032301 0.00056361711358879243 0 0 0 0 99.990559191161253 0.0020377411184430258 0 0.0020377411184430258 0.00049238140950491399 0 0 0 0 99.990634162365239 0.0011249313841509394 0 0.0011249313841509394 0.00041952507767974937 0 0 0 0 99.98963046088052 0.001011023693820068 0 0.001011023693820068 0.00036190116499333104 0 0 0 0 99.990093954086547 0.0012361251521269387 0 0.0012361251521269387 0.00046734715979180881 0 0 0 0 100.00119684586559 0.011166352833322081 0 0.011166352833322081 -0.0027928060352997962 0 0 0 0 99.991477987936648 0.013578415298844008 0 0.013578415298844008 -0.002437921288231326 0 0 0 0 99.991578284009051 0.0091457665009799811 0 0.0091457665009799811 0.00010005669263711331 0 0 0 0 99.987553611821667 0.0056801896953062592 0 0.0056801896953062592 0.00098133602369126463 0 0 0 0 99.990156093128803 0.0053827569367022546 0 0.0053827569367022546 0.00054058645517188002 0 0 0 0 99.98983694564356 0.0084544798401308581 0 0.0084544798401308581 -0.00011600460849693238 0 0 0 0 99.992630872184364 0.0066798985562831351 0 0.0066798985562831351 -0.00096550035813291503 0 0 0 0 99.992643717321869 0.0048409961014085033 0 0.0048409961014085033 -7.3419902488222957e-06 0 0 0 0 99.989996696980242 0.0052245145129414449 0 0.0052245145129414449 0.00041156150940417115 0 0 0 0 99.991877545292141 0.0044735559149457118 0 0.0044735559149457118 -0.0001783105785535307 0 0 0 0 99.996235566608448 0.0058896025634839078 0 0.0058896025634839078 -0.0012271499996578533 0 0 0 0 99.994831007522919 0.0075623531164275715 0 0.0075623531164275715 -0.0006721996844406056 0 0 0 0 99.99967726299019 0.0079684394723101848 0 0.0079684394723101848 -0.0027623155679351243 0 0 0 0 99.994725925228508 0.0093270260531186228 0 0.0093270260531186228 -0.0027763914589364527 0 0 0 0 99.996310346089217 0.0069633257022912592 0 0.0069633257022912592 -0.0028442755859117135 0 0 0 0 100.00008356683435 0.0060469742591946251 0 0.0060469742591946251 -0.0029215634255130977 0 0 0 0 99.997116993986552 0.0046270811144950843 0 0.0046270811144950843 -0.0018274081843826645 0 0 0 0 99.997264027721002 0.0044374658077342916 0 0.0044374658077342916 -0.001911899650269912 0 0 0 0 99.99997597839365 0.0047420784114031739 0 0.0047420784114031739 -0.0028700438159874218 0 0 0 0 99.99737733546138 0.0052441158911750007 0 0.0052441158911750007 -0.0028894086209674628 0 0 0 0 99.997871128243787 0.0037583565148063517 0 0.0037583565148063517 -0.0027326374593182219 0 0 0 0 99.99751513563865 0.0026308898749166617 0 0.0026308898749166617 -0.002185517643618403 0 0 0 0 99.998301259199707 0.0036046247538178066 0 0.0036046247538178066 -0.0027326374593182219 0 0 0 0 100.00000515000681 0.0028379873092067832 0 0.0028379873092067832 -0.0029032533774308697 0 0 0 0 99.994828337654894 0.0025415418066081202 0 0.0025415418066081202 -0.00073972997224288402 0 0 0 0 99.995365183053536 0.0022327069480356353 0 0.0022327069480356353 -0.0012214609138228494 0 0 0 0 99.996590190207939 0.0031660336929145729 0 0.0031660336929145729 -0.0015885288138990637 0 0 0 0 99.995576882665546 0.0033755322523913831 0 0.0033755322523913831 -0.001588528813899063 0 0 0 0 99.993759670262534 0.0026363820818289109 0 0.0026363820818289109 -0.00073972997224288489 0 0 0 0 99.995335839868403 0.0035509421697167212 0 0.0035509421697167212 -0.00074893991694290236 0 0 0 0 99.993339093326313 0.0037049673333633508 0 0.0037049673333633508 -0.00067362651103430567 0 0 0 0 99.994564305447113 0.0053319322898560673 0 0.0053319322898560673 -0.0013592667215844825 0 0 0 0 99.994257914661176 0.0040932215214833818 0 0.0040932215214833818 -0.00052994976937658245 0 0 0 0 99.991686434506846 0.002969451873306089 0 0.002969451873306089 0.00018617667612245981 0 0 0 0 99.99164314098384 0.0019122619591538219 0 0.0019122619591538219 0.00031224476124992046 0 0 0 0 99.993466223613154 0.0026868835738386712 0 0.0026868835738386712 -0.00019662776920678594 0 0 0 0 99.993093953698946 0.0027122707000765277 0 0.0027122707000765277 -0.00016179187004621964 0 0 0 0 99.990694886940048 0.0012111778029260433 0 0.0012111778029260433 0.00049958537236093449 0 0 0 0 99.992489434151139 0.0017864586896890904 0 0.0017864586896890904 0.00025605479206341109 0 0 0 0 99.99133190260352 0.0018131536551758459 0 0.0018131536551758459 0.00031396049625887282 0 0 0 0 99.991623905057736 0.0011826036221218462 0 0.0011826036221218462 0.00040913540833218678 0 0 0 0 99.991384054432388 0.0010981211319150111 0 0.0010981211319150111 0.00038125533859299093 0 0 0 0 99.991671975030727 0.0012157408816125949 0 0.0012157408816125949 0.00025070264320208296 0 0 0 0 99.992601368160479 0.0011768220057916127 0 0.0011768220057916127 1.2035372468238194e-05 0 0 0 0 99.992430508756001 0.0012570575432744127 0 0.0012570575432744127 0.00025070264320208328 0 0 0 0 99.991806861243447 0.00074654123208779048 0 0.00074654123208779048 0.00032323368592086354 0 0 0 0 99.992489355466375 0.0018755486642367245 0 0.0018755486642367245 -7.4449214022691799e-05 0 0 0 0 99.993421842008274 0.0018697345612858564 0 0.0018697345612858564 -7.4449214022692829e-05 0 0 0 0 99.993756637054275 0.0017093885003132139 0 0.0017093885003132139 -0.00049563039512115752 0 0 0 0 99.994482100298455 0.0016759434163414501 0 0.0016759434163414501 -0.00049462985901667638 0 0 0 0 99.99358831153819 0.0010006105809054473 0 0.0010006105809054473 -0.00031384950136252934 0 0 0 0 99.994080033872024 0.00097996795020601586 0 0.00097996795020601586 -0.00031305985968851018 0 0 0 0 99.992347337465731 0.00081567385174627295 0 0.00081567385174627295 0.0003256088083178222 0 0 0 0 99.99324310204338 0.0012123407422333721 0 0.0012123407422333721 1.2048193525593031e-05 0 0 0 0 99.992581338296588 0.00066636189910856654 0 0.00066636189910856654 0.00013713875708078888 0 0 0 0 99.992963955340656 0.00069401363054373858 0 0.00069401363054373858 0.00013733914431292789 0 0 0 0 99.992428876536451 0.00025998738838352211 0 0.00025998738838352211 0.00026182987069940222 0 0 0 0 99.993348639270948 0.0004337573224557818 0 0.0004337573224557818 -0.00012174542511346302 0 0 0 0 99.993015607529856 6.1445766969129081e-06 0 6.1445766969129081e-06 8.4097289055528636e-05 0 0 0 0 99.99357429750512 0.0004299168680613843 0 0.0004299168680613843 -0.00012168706109088202 0 0 0 0 99.992609592241479 0.00030524713939714706 0 0.00030524713939714706 0.00026289218365472319 0 0 0 0 99.994582102263053 0.00063004726366943514 0 0.00063004726366943514 -0.00068303934202943676 0 0 0 0 99.994126729028949 3.9850314004822706e-05 0 3.9850314004822706e-05 -0.00040338491941619391 0 0 0 0 99.994846473938651 0.00058191222656103422 0 0.00058191222656103422 -0.00068102075967258098 0 0 0 0 99.995537790533149 7.9638805205229247e-05 0 7.9638805205229247e-05 -0.0010696600295362129 0 0 0 0 99.996150648318121 0.00082879722948066997 0 0.00082879722948066997 -0.0014300277943634257 0 0 0 0 99.997242423712009 9.2099886321055069e-05 0 9.2099886321055069e-05 -0.0019069537868489552 0 0 0 0 99.99643353714896 0.00073274449426139572 0 0.00073274449426139572 -0.0014260414883239614 0 0 0 0 99.998560155532005 0.00042286802910357477 0 0.00042286802910357477 -0.0029287805000718934 0 0 0 0 99.999997935477609 1.4029872643321326e-05 0 1.4029872643321326e-05 -0.0029140312597663587 0 0 0 0 100.00000034865377 0.00099136229131409478 0 0.00099136229131409478 -0.0029505172942862999 0 0 0 0 99.99812218399461 0.00098450246395107651 0 0.00098450246395107651 -0.002356036754032358 0 0 0 0 99.998296777688438 0.00083022191383158334 0 0.00083022191383158334 -0.0023419076313943602 0 0 0 0 99.999996638034418 0.0018903149065728746 0 0.0018903149065728746 -0.0029324455374264446 0 0 0 0 99.99854806741746 0.0015709053542798401 0 0.0015709053542798401 -0.0029387438399660296 0 0 0 0 99.998194317199506 0.0024925700142089222 0 0.0024925700142089222 -0.0029135107930226395 0 0 0 0 99.998166259217442 0.0024972632993657427 0 0.0024972632993657427 -0.0021644628046672792 0 0 0 0 99.996748755242777 0.0017229591157988766 0 0.0017229591157988766 -0.001823505715423876 0 0 0 0 99.994986749478244 0.0013701874039770898 0 0.0013701874039770898 -0.00095736296510184286 0 0 0 0 99.996088454958795 0.0021772748507971696 0 0.0021772748507971696 -0.0012189550491097552 0 0 0 0 99.995476683331106 0.0012949516069388498 0 0.0012949516069388498 -0.00095427998190830352 0 0 0 0 99.997198360392588 0.0015779022949963244 0 0.0015779022949963244 -0.0018076927199165344 0 0 0 0 49.995505200119283 4.0279111876978546e-05 0 4.0279111876978546e-05 0.0006792265222423995 0 0 0 0 49.995373062203043 7.5082686851901171e-05 0 7.5082686851901171e-05 0.00067859542151896875 0 0 0 0 49.99547961248345 7.5083623803818482e-05 0 7.5083623803818482e-05 0.00061672043734859144 0 0 0 0 49.995385864851016 1.6849215945117305e-05 0 1.6849215945117305e-05 0.00067286488921248751 0 0 0 0 49.995308218346963 5.6967888158962823e-05 0 5.6967888158962823e-05 0.00065235075894951727 0 0 0 0 49.99530410176061 2.3456641197782472e-05 0 2.3456641197782472e-05 0.0006890741694327388 0 0 0 0 49.995333228710209 -2.0314541759832831e-06 0 -2.0314541759832831e-06 0.00063646246385411079 0 0 0 0 49.995332577964561 -5.5221930524155002e-06 0 -5.5221930524155002e-06 0.00071304397694129003 0 0 0 0 49.995333148517886 3.759262109271147e-05 0 3.759262109271147e-05 0.00071069301660188196 0 0 0 0 49.995323868827313 1.2109320211655921e-05 0 1.2109320211655921e-05 0.00073559595926327311 0 0 0 0 49.995347105869058 -1.5936752068186177e-06 0 -1.5936752068186177e-06 0.0007436760379460394 0 0 0 0 49.995346914767403 1.3146178477891011e-05 0 1.3146178477891011e-05 0.00074167013130195265 0 0 0 0 49.995415365873612 2.5338144308824188e-07 0 2.5338144308824188e-07 0.00073360016409620911 0 0 0 0 49.9954070482882 9.9758240199682114e-06 0 9.9758240199682114e-06 0.00071858098532523766 0 0 0 0 49.995405573349338 3.9692602803401676e-05 0 3.9692602803401676e-05 0.00071338015674425061 0 0 0 0 49.99541537357544 -5.1219256282390626e-07 0 -5.1219256282390626e-07 0.0007266444175737793 0 0 0 0 49.995529782481867 1.2734857467035991e-05 0 1.2734857467035991e-05 0.00070459106921851576 0 0 0 0 49.995730450781878 -5.1515080379824565e-07 0 -5.1515080379824565e-07 0.00066067521820351569 0 0 0 0 49.995530624149204 3.5506686958386214e-05 0 3.5506686958386214e-05 0.00068327192056205329 0 0 0 0 99.991460901563528 1.3823846778285125e-06 0 1.3823846778285125e-06 0.00063867039462595998 0 0 0 0 99.991379559283587 0.00012290869196070761 0 0.00012290869196070761 0.00062197911762713323 0 0 0 0 49.995689779641793 5.3822964572662656e-05 0 5.3822964572662656e-05 0.00065454669402926851 0 0 0 0 99.992211487806799 -1.4139284046075541e-05 0 -1.4139284046075541e-05 0.00040869743570975557 0 0 0 0 99.991843761681025 0.00021143620100565425 0 0.00021143620100565425 0.00053319402783986135 0 0 0 0 99.991751588597253 2.0267432535304043e-05 0 2.0267432535304043e-05 0.00057466763075398643 0 0 0 0 99.991731039767046 0.00014834693877768465 0 0.00014834693877768465 0.00052357021353744543 0 0 0 0 99.992147894333243 0.00045609481176440221 0 0.00045609481176440221 0.0004247319879391873 0 0 0 0 99.991693972823725 0.00020700289486126839 0 0.00020700289486126839 0.00056543042381523856 0 0 0 0 99.991484607885809 0.00024401271233498532 0 0.00024401271233498532 0.00055102895663338 0 0 0 0 99.991606300276999 0.00052673449660917658 0 0.00052673449660917658 0.00052931996601945919 0 0 0 0 99.991878353827019 0.00039818570978399385 0 0.00039818570978399385 0.00041632642350368867 0 0 0 0 49.995499110849494 9.5559621321967994e-05 0 9.5559621321967994e-05 0.00066576519228736465 0 0 0 0 99.991287685363432 0.0002256418103678574 0 0.0002256418103678574 0.00061684097394390275 0 0 0 0 49.99545536962512 0.00015280735612044826 0 0.00015280735612044826 0.00062203868008572612 0 0 0 0 49.995643842681659 9.634651656796763e-05 0 9.634651656796763e-05 0.00062094816240808141 0 0 0 0 49.995444955381174 0.00017454760585155745 0 0.00017454760585155745 0.00055978285951487333 0 0 0 0 49.995520807974515 0.00012138010822529605 0 0.00012138010822529605 0.00059026526148359755 0 0 0 0 99.99104161594903 0.00028495919445853737 0 0.00028495919445853737 0.00058040371713067706 0 0 0 0 49.995323085929044 0.00014344651974742824 0 0.00014344651974742824 0.00055978285951487333 0 0 0 0 99.991736367463318 0.00077274616063524875 0 0.00077274616063524875 0.00046316495844327121 0 0 0 0 99.991320605288365 0.00039388667573158091 0 0.00039388667573158091 0.00051926934011388122 0 0 0 0 99.991289460889448 0.00043797707743274076 0 0.00043797707743274076 0.00051081986388392764 0 0 0 0 99.990938123513843 0.00031001718824159776 0 0.00031001718824159776 0.00051926934011388166 0 0 0 0 99.99117555121552 0.00069735280077416468 0 0.00069735280077416468 0.00046316495844327062 0 0 0 0 99.991207549172259 0.00066961454774663962 0 0.00066961454774663962 0.00047312535998151207 0 0 0 0 99.990775729361644 0.00027328523980956284 0 0.00027328523980956284 0.00044546047848114962 0 0 0 0 99.99069391961666 0.00063256665045286647 0 0.00063256665045286647 0.00050904165700305537 0 0 0 0 99.990818291826429 0.00061800186863005717 0 0.00061800186863005717 0.0004037845794246926 0 0 0 0 49.9952867136181 0.00018357617099809488 0 0.00018357617099809488 0.00046609452175543238 0 0 0 0 49.995405544927735 0.00014426174166629502 0 0.00014426174166629502 0.00047895430477568968 0 0 0 0 99.990811089855356 0.00037542236850469425 0 0.00037542236850469425 0.00051549263818802737 0 0 0 0 99.990509817017596 0.0003595817893008058 0 0.0003595817893008058 0.00044462953068847167 0 0 0 0 49.995254908508798 0.00010834568334598134 0 0.00010834568334598134 0.00038299481675899887 0 0 0 0 49.995252478431496 0.00010549610374482399 0 0.00010549610374482399 0.00037659849512976853 0 0 0 0 49.995232981002175 -2.0761089762752136e-07 0 -2.0761089762752136e-07 0.0003703560828430966 0 0 0 0 49.995312260950897 3.1115433752106636e-05 0 3.1115433752106636e-05 0.00046637839190895628 0 0 0 0 49.995251327153525 5.5087231181551288e-05 0 5.5087231181551288e-05 0.0004565921306975664 0 0 0 0 49.995361921312679 0.0001062095192835283 0 0.0001062095192835283 0.00047337836397367449 0 0 0 0 49.995268720381233 6.6357011879640299e-05 0 6.6357011879640299e-05 0.00055820006514898572 0 0 0 0 49.995303164654047 1.7399598550040668e-05 0 1.7399598550040668e-05 0.00063046263539630689 0 0 0 0 49.995368177475314 8.7535702302018971e-05 0 8.7535702302018971e-05 0.00055820006514898583 0 0 0 0 49.995360079126044 7.0276829761625813e-05 0 7.0276829761625813e-05 0.00062356173715698792 0 0 0 0 49.995261673695978 1.8868720597423545e-05 0 1.8868720597423545e-05 0.00063087738267013707 0 0 0 0 49.995321252253575 3.2087369478557781e-05 0 3.2087369478557781e-05 0.00055763978383213306 0 0 0 0 49.995246878816204 2.3679470892662348e-05 0 2.3679470892662348e-05 0.00055763978383213285 0 0 0 0 49.995234429362085 -6.2125875143140686e-08 0 -6.2125875143140686e-08 0.00055643350386169375 0 0 0 0 49.995233126141954 -1.868377787610367e-05 0 -1.868377787610367e-05 0.00044961816198430665 0 0 0 0 49.995289303169187 2.7059107865434913e-05 0 2.7059107865434913e-05 0.00046802034843297625 0 0 0 0 49.995247547109898 6.8917243233124767e-05 0 6.8917243233124767e-05 0.00045002406178593595 0 0 0 0 49.995239073814361 4.0892259839022017e-05 0 4.0892259839022017e-05 0.0003651527495650533 0 0 0 0 49.995227335800479 -2.6570979726637002e-05 0 -2.6570979726637002e-05 0.00029408616173773772 0 0 0 0 49.995221722264709 3.8779538477517258e-05 0 3.8779538477517258e-05 0.00022033608927519649 0 0 0 0 49.99520865321486 -2.508962069770013e-05 0 -2.508962069770013e-05 0.00015086328130435933 0 0 0 0 49.995206823717496 5.4816766002515742e-05 0 5.4816766002515742e-05 0.00014716733945533095 0 0 0 0 49.995229485560543 6.2848163195340168e-05 0 6.2848163195340168e-05 0.00029866102371494746 0 0 0 0 49.995202467509927 2.404996988734394e-05 0 2.404996988734394e-05 0.0003042000110446136 0 0 0 0 49.995198485700804 9.0765018574757335e-05 0 9.0765018574757335e-05 0.000228799397494856 0 0 0 0 49.995139375480335 1.2880838635787414e-05 0 1.2880838635787414e-05 0.00015930905997636681 0 0 0 0 49.995197732072228 -1.0559957949227231e-05 0 -1.0559957949227231e-05 0.00022530979637012152 0 0 0 0 49.99516902274884 -7.7419364257858626e-06 0 -7.7419364257858626e-06 8.5280201698506404e-05 0 0 0 0 49.995163618970906 8.4152601412562644e-05 0 8.4152601412562644e-05 7.062105210873268e-05 0 0 0 0 49.995085122296715 2.3994069902904457e-05 0 2.3994069902904457e-05 2.639563089817821e-05 0 0 0 0 49.995187132672868 5.2992063216662323e-05 0 5.2992063216662323e-05 1.2326228027734651e-05 0 0 0 0 49.995190222614781 -1.6342370671024603e-05 0 -1.6342370671024603e-05 2.7706875019999385e-05 0 0 0 0 49.995209363208403 3.4857471361075743e-05 0 3.4857471361075743e-05 8.0520327927503614e-05 0 0 0 0 99.990132170913753 0.00055028008364987457 0 0.00055028008364987457 0.00032940162456799715 0 0 0 0 99.989992938603734 0.00064900851729710073 0 0.00064900851729710073 0.00026181703563366569 0 0 0 0 99.990369417204477 0.00070779363415790887 0 0.00070779363415790887 0.00043317690216759298 0 0 0 0 99.990412409002786 0.00023672987679052005 0 0.00023672987679052005 0.00033590147714950913 0 0 0 0 99.989992938603734 0.00017759309748730662 0 0.00017759309748730662 0.00020192743993493746 0 0 0 0 99.990254328056949 0.00032571928396221564 0 0.00032571928396221564 0.00028583900942177518 0 0 0 0 49.995207811428429 0.00016858552623921628 0 0.00016858552623921628 0.00033119876836645813 0 0 0 0 49.995127164028403 7.1768156607767588e-05 0 7.1768156607767588e-05 0.00024538558133402008 0 0 0 0 49.995139423491963 0.00014567197986095626 0 0.00014567197986095626 0.00015646237033955859 0 0 0 0 49.995022550573822 5.7317028004558579e-05 0 5.7317028004558579e-05 9.3638171138661213e-05 0 0 0 0 49.995080873021152 0.00013754205404436311 0 0.00013754205404436311 -2.104149631843335e-05 0 0 0 0 99.990045101147786 0.00028015331696953964 0 0.00028015331696953964 6.6113584720167273e-05 0 0 0 0 99.989650546736414 0.00014810625797634234 0 0.00014810625797634234 4.5156911741154471e-05 0 0 0 0 99.989654495832269 0.00056295628903151463 0 0.00056295628903151463 -3.1422024006647824e-05 0 0 0 0 99.989502710585555 0.00042993628136602663 0 0.00042993628136602663 0.00017230832587172964 0 0 0 0 99.988624591758764 0.00052635151216310358 0 0.00052635151216310358 -0.00016129819810397023 0 0 0 0 99.989400173580776 0.00052700169601929085 0 0.00052700169601929085 -0.00035844182123698633 0 0 0 0 99.989002849746711 0.00037518946167997827 0 0.00037518946167997827 -3.4884651250333175e-05 0 0 0 0 99.989382234391925 0.00020910733388087996 0 0.00020910733388087996 -7.2998559381909725e-05 0 0 0 0 99.989686879146376 0.00033604003547936393 0 0.00033604003547936393 -0.00030411284045189264 0 0 0 0 99.989876511318016 0.00027235675289714352 0 0.00027235675289714352 -0.00017042313464291585 0 0 0 0 49.994938255658965 8.3210119002631816e-05 0 8.3210119002631816e-05 -3.5361018208161882e-05 0 0 0 0 49.995022044859141 0.00015370367557954222 0 0.00015370367557954222 -0.00014866667548994562 0 0 0 0 49.994843439573167 0.00015234617458652968 0 0.00015234617458652968 -8.8465975469990754e-05 0 0 0 0 49.994945337672647 0.00016752306740291137 0 0.00016752306740291137 -0.00014923003223577187 0 0 0 0 49.994864270048744 0.00012081186932290662 0 0.00012081186932290662 -1.3021978211482227e-07 0 0 0 0 49.994686407075612 0.00024030731675789776 0 0.00024030731675789776 -6.125814152534208e-05 0 0 0 0 99.989372814151224 0.00046992587264206169 0 0.00046992587264206169 -0.000214194326949663 0 0 0 0 99.989211555710696 0.00045356313079409629 0 0.00045356313079409629 -0.00042431563908022958 0 0 0 0 99.989176366655272 0.00033545301763939167 0 0.00033545301763939167 -8.9434390927885113e-05 0 0 0 0 99.989071138443663 0.00042625772483005636 0 0.00042625772483005636 1.4508495958450934e-07 0 0 0 0 99.988856814937904 0.00077251764148253887 0 0.00077251764148253887 -0.00029212185911833301 0 0 0 0 99.988368924494566 0.00052638000664566981 0 0.00052638000664566981 -9.8663710783275307e-07 0 0 0 0 49.995164934405047 2.1336540263322029e-05 0 2.1336540263322029e-05 -6.9152890633164812e-05 0 0 0 0 49.995163508436193 9.7103060730269766e-07 0 9.7103060730269766e-07 -4.7289630054738722e-05 0 0 0 0 49.995193334201815 2.9035797499650318e-05 0 2.9035797499650318e-05 -2.4543132734220081e-05 0 0 0 0 49.995161134223522 5.6678140823383467e-05 0 5.6678140823383467e-05 -7.5656538588538875e-05 0 0 0 0 49.995134174507783 1.2363697565417962e-05 0 1.2363697565417962e-05 -1.7352682364634705e-05 0 0 0 0 49.995130844585702 8.8284870411796333e-05 0 8.8284870411796333e-05 -6.2661841059683977e-05 0 0 0 0 49.995027076529226 6.1138114215013122e-05 0 6.1138114215013122e-05 -5.6421521723293928e-05 0 0 0 0 49.995080311759899 0.00010622317718624735 0 0.00010622317718624735 -0.00012000808787477939 0 0 0 0 49.995087394582306 4.5559760842606571e-05 0 4.5559760842606571e-05 -6.2014231302338807e-05 0 0 0 0 49.994959720860145 9.5326352064570925e-05 0 9.5326352064570925e-05 -6.3467555251696828e-05 0 0 0 0 49.994917447854881 0.00017656262925409529 0 0.00017656262925409529 -9.2426951203161497e-05 0 0 0 0 49.995039323513772 9.2751052489673951e-05 0 9.2751052489673951e-05 -5.6425419259508759e-05 0 0 0 0 49.995013406135676 7.4817578676124799e-05 0 7.4817578676124799e-05 -8.2232576105122893e-08 0 0 0 0 49.995089076002323 3.9173003936667987e-05 0 3.9173003936667987e-05 -9.4372722318850708e-09 0 0 0 0 49.995126957532747 2.1205172229855372e-05 0 2.1205172229855372e-05 -5.5365191563443652e-05 0 0 0 0 49.995123771036816 5.583974911216819e-05 0 5.583974911216819e-05 -8.7945906308670282e-05 0 0 0 0 49.995123061865073 -2.9882699161344428e-08 0 -2.9882699161344428e-08 -8.7410812125649867e-08 0 0 0 0 49.995109369770972 2.8324589966171008e-05 0 2.8324589966171008e-05 -5.7930136559640829e-05 0 0 0 0 49.99510957454882 -2.8622221655699049e-05 0 -2.8622221655699049e-05 -5.8624509741430658e-05 0 0 0 0 49.995093175461847 -3.7313784270508318e-05 0 -3.7313784270508318e-05 -1.4358877348985059e-08 0 0 0 0 49.995125660033793 -5.3972399878453264e-05 0 -5.3972399878453264e-05 -8.5519835223030053e-05 0 0 0 0 49.995130475174626 -1.9053817070909347e-05 0 -1.9053817070909347e-05 -5.5245512425274973e-05 0 0 0 0 49.995162974103884 -2.0062326680806659e-05 0 -2.0062326680806659e-05 -6.7972991105189528e-05 0 0 0 0 49.995163320880337 -5.4241190227410651e-05 0 -5.4241190227410651e-05 -7.33235612594922e-05 0 0 0 0 49.995169418383355 1.380449096349876e-06 0 1.380449096349876e-06 -4.8360165540061711e-05 0 0 0 0 49.9951922853963 -2.7108609626354523e-05 0 -2.7108609626354523e-05 -2.1662429970306077e-05 0 0 0 0 49.995133833278175 -8.5960199867307326e-05 0 -8.5960199867307326e-05 -6.4575619278545691e-05 0 0 0 0 49.995030943592354 -6.0088035196608003e-05 0 -6.0088035196608003e-05 -5.8592034741802592e-05 0 0 0 0 49.995136337443867 -1.0296320639239441e-05 0 -1.0296320639239441e-05 -1.5813842122641327e-05 0 0 0 0 49.995090641187176 -4.4283710544096972e-05 0 -4.4283710544096972e-05 -6.2316010496574371e-05 0 0 0 0 49.995077713772659 -0.00010732188430999301 0 -0.00010732188430999301 -0.00011886275431403193 0 0 0 0 49.994960169946289 -9.65408180368778e-05 0 -9.65408180368778e-05 -6.3853431291637387e-05 0 0 0 0 49.995040190354793 -9.3633256604422325e-05 0 -9.3633256604422325e-05 -5.8829068837577987e-05 0 0 0 0 49.995012675194808 -7.5408859491243294e-05 0 -7.5408859491243294e-05 -7.8877571393977661e-08 0 0 0 0 49.994917994392843 -0.00017772633960037924 0 -0.00017772633960037924 -9.433016776661752e-05 0 0 0 0 49.994685513987662 -0.00024142909826848209 0 -0.00024142909826848209 -6.1146159373429642e-05 0 0 0 0 49.994863281659207 -0.0001220389278490347 0 -0.0001220389278490347 -1.3349012291868021e-07 0 0 0 0 99.989371027975253 -0.00046997631294513296 0 -0.00046997631294513296 -0.00021494451678124411 0 0 0 0 49.994944282428193 -0.00016970202960018071 0 -0.00016970202960018071 -0.00015077612215759693 0 0 0 0 99.988404597292657 -0.00052217994095833057 0 -0.00052217994095833057 -1.0199932457122134e-06 0 0 0 0 99.988860576479084 -0.00076802854397030535 0 -0.00076802854397030535 -0.0002857683581851501 0 0 0 0 99.989073899505797 -0.00042896703406449562 0 -0.00042896703406449562 1.6539488194808469e-07 0 0 0 0 99.989214648235958 -0.00045833965879876618 0 -0.00045833965879876618 -0.00042218566258404541 0 0 0 0 99.989182684556056 -0.00034060480534697985 0 -0.00034060480534697985 -9.2087718423681955e-05 0 0 0 0 99.98862740561033 -0.00052490029979225105 0 -0.00052490029979225105 -0.00016722174749815046 0 0 0 0 99.989367717727646 -0.00022214799667631826 0 -0.00022214799667631826 -7.0764929548856686e-05 0 0 0 0 99.989399958225789 -0.00052339704128067125 0 -0.00052339704128067125 -0.00036929148997923665 0 0 0 0 99.988986399697836 -0.00036935832233803015 0 -0.00036935832233803015 -3.567729271868179e-05 0 0 0 0 49.99484488176234 -0.00015220617733013143 0 -0.00015220617733013143 -8.9914458066659412e-05 0 0 0 0 99.989689763524652 -0.00032657239887766366 0 -0.00032657239887766366 -0.00030838550659674925 0 0 0 0 99.989876429052686 -0.00026758981982828636 0 -0.00026758981982828636 -0.00017494348964533323 0 0 0 0 49.994938214526357 -8.0061802734433387e-05 0 -8.0061802734433387e-05 -3.861277224683911e-05 0 0 0 0 49.995021170091093 -0.00015608841746148273 0 -0.00015608841746148273 -0.00014748107535771728 0 0 0 0 49.995081690770817 -0.00013795206395005084 0 -0.00013795206395005084 -2.0721703156869448e-05 0 0 0 0 99.990042320807788 -0.00028351010387343454 0 -0.00028351010387343454 6.7040844794516007e-05 0 0 0 0 49.995021160403894 -5.5002346096363387e-05 0 -5.5002346096363387e-05 9.1493760510896337e-05 0 0 0 0 99.989645661543193 -0.0005721888580031676 0 -0.0005721888580031676 -3.0558471910198555e-05 0 0 0 0 99.989636186725448 -0.00015294033136014452 0 -0.00015294033136014452 4.844017255468963e-05 0 0 0 0 99.989459249770221 -0.00044361041964495896 0 -0.00044361041964495896 0.00018133485339093605 0 0 0 0 99.989998359426309 -0.00067240760363495851 0 -0.00067240760363495851 0.00026905621032438393 0 0 0 0 99.990105057952576 -0.00058321891904983486 0 -0.00058321891904983486 0.00033592010890638301 0 0 0 0 99.98996867625948 -0.00018284401728663931 0 -0.00018284401728663931 0.00020656028129347392 0 0 0 0 99.990406776826433 -0.000245631536103629 0 -0.000245631536103629 0.00034035237940747629 0 0 0 0 99.990372770696013 -0.00074409640815418393 0 -0.00074409640815418393 0.00043227469349217456 0 0 0 0 49.995125933827296 -6.7753005252399901e-05 0 -6.7753005252399901e-05 0.00024497766192536452 0 0 0 0 49.995136471831898 -0.00014551099329432804 0 -0.00014551099329432804 0.00015735255731253478 0 0 0 0 99.990251867654649 -0.00033526508201117819 0 -0.00033526508201117819 0.00028858962498657238 0 0 0 0 49.99521090797154 -0.00016756099848593258 0 -0.00016756099848593258 0.00032938839695535868 0 0 0 0 49.995200913569363 -2.0177025605628857e-05 0 -2.0177025605628857e-05 0.00030434370471122801 0 0 0 0 49.995199150433848 -8.8057400520769871e-05 0 -8.8057400520769871e-05 0.00022803457370728215 0 0 0 0 49.995144706093328 -9.9730273262441262e-06 0 -9.9730273262441262e-06 0.00015694679142609429 0 0 0 0 49.995199821052687 1.3107705343967134e-05 0 1.3107705343967134e-05 0.00022471512512356215 0 0 0 0 49.995229101128814 -6.1187288248669192e-05 0 -6.1187288248669192e-05 0.00029907805270314614 0 0 0 0 49.995229287640939 2.7748637871600069e-05 0 2.7748637871600069e-05 0.00029238352959967369 0 0 0 0 49.995222146392152 -3.7073611541099243e-05 0 -3.7073611541099243e-05 0.00021984154861739009 0 0 0 0 49.995209996798792 2.6491918878120194e-05 0 2.6491918878120194e-05 0.00015052021661541071 0 0 0 0 49.99520871764912 -5.3140734253716465e-05 0 -5.3140734253716465e-05 0.00014668472643405823 0 0 0 0 49.995210548672297 -3.3355315379782953e-05 0 -3.3355315379782953e-05 8.2109239221247787e-05 0 0 0 0 49.995191693460995 1.8471066098095523e-05 0 1.8471066098095523e-05 2.8284922970267592e-05 0 0 0 0 49.995191415009188 -5.1705362247353913e-05 0 -5.1705362247353913e-05 1.2965064068060619e-05 0 0 0 0 49.995084257036083 -2.4001990144151554e-05 0 -2.4001990144151554e-05 2.8069077483658356e-05 0 0 0 0 49.995163399511597 -8.3011661857590539e-05 0 -8.3011661857590539e-05 6.9898617877523953e-05 0 0 0 0 49.995173221090283 1.0644356641273898e-05 0 1.0644356641273898e-05 8.5044094513017808e-05 0 0 0 0 99.995493268308479 -0.015085794144698142 0 -0.015085794144698142 -0.0021215917632240056 0 0 0 0 99.985760459838303 -0.018564667801169592 0 -0.018564667801169592 -0.0028204952598542134 0 0 0 0 99.986118392947489 -0.01200327630693316 0 -0.01200327630693316 0.0020463414219234885 0 0 0 0 100.01685743734048 -0.027121190027820874 0 -0.027121190027820874 -0.0035138813188462033 0 0 0 0 99.965684714060501 -0.040538752970563009 0 -0.040538752970563009 0.00017599852812234871 0 0 0 0 99.94968108984493 -0.0327854073518676 0 -0.0327854073518676 -3.2736186913187694e-06 0 0 0 0 99.936737597015195 -0.038115427293794364 0 -0.038115427293794364 0.0022801793271739605 0 0 0 0 99.937668864645445 -0.016889079547054445 0 -0.016889079547054445 0.0027980454616391521 0 0 0 0 99.972368220128928 -0.0088750925864634449 0 -0.0088750925864634449 0.0045830196350519214 0 0 0 0 99.970069780657724 0.005841386192478904 0 0.005841386192478904 -2.667151076240137e-05 0 0 0 0 99.980162004461732 -0.0055620827775299557 0 -0.0055620827775299557 -0.0014511325165364806 0 0 0 0 99.981789135012065 -0.0039648110558849932 0 -0.0039648110558849932 1.0399618504433037e-05 0 0 0 0 99.982802242701766 -0.0039084365735490758 0 -0.0039084365735490758 -0.0027504872607416572 0 0 0 0 99.977169070368191 -0.011271957491789048 0 -0.011271957491789048 0.0053984998046033711 0 0 0 0 99.978227485673258 -0.0026140482373811086 0 -0.0026140482373811086 0.00051261704902821653 0 0 0 0 99.985719185701328 -0.010628967489524535 0 -0.010628967489524535 0.00049523405090492914 0 0 0 0 99.985938245941156 -0.0056594256089733145 0 -0.0056594256089733145 0.0012143687568024399 0 0 0 0 99.984198370301925 -0.0055538603585776518 0 -0.0055538603585776518 0.0018821773436751227 0 0 0 0 99.98708043722047 -0.0031868203897070057 0 -0.0031868203897070057 0.00074319215939128462 0 0 0 0 99.987045882410087 -0.0013342292997013784 0 -0.0013342292997013784 0.00023599875763999497 0 0 0 0 99.98578927229687 -0.0011423456286340074 0 -0.0011423456286340074 -0.00018947230090871027 0 0 0 0 99.985858300393076 -0.0025946845188970888 0 -0.0025946845188970888 -0.00069068548587401931 0 0 0 0 99.984350201583084 -0.0020274871020617966 0 -0.0020274871020617966 0.00032611110357585213 0 0 0 0 99.982954591940882 -0.0022261404452180206 0 -0.0022261404452180206 -7.0987727552076097e-05 0 0 0 0 99.981735759771595 -0.0036283627479072587 0 -0.0036283627479072587 -0.0007405171588202059 0 0 0 0 99.984847893726041 -0.00059733206739595048 0 -0.00059733206739595048 -5.6264990014465637e-06 0 0 0 0 99.987565444804162 -0.001131921456569312 0 -0.001131921456569312 -0.0009438525363799073 0 0 0 0 99.986429200246747 -0.0018032594915076824 0 -0.0018032594915076824 -0.00055822173395310448 0 0 0 0 99.987269820479526 -0.0010056110442083828 0 -0.0010056110442083828 1.3208580294353462e-06 0 0 0 0 99.987893072798968 -0.0011982654799610154 0 -0.0011982654799610154 -0.0004378344745625498 0 0 0 0 99.987520728737564 -0.00084318667738268759 0 -0.00084318667738268759 -0.00022591133871454559 0 0 0 0 99.988706858358739 -0.00087044136926476537 0 -0.00087044136926476537 -0.00059737948829344072 0 0 0 0 99.987941354890978 -0.0015175603081764 0 -0.0015175603081764 -0.00034394579859614013 0 0 0 0 99.987847239747936 -0.00067584015519917126 0 -0.00067584015519917126 -0.00012383570166184314 0 0 0 0 99.989006626508797 -0.00097628892584067817 0 -0.00097628892584067817 -0.00014991156732236126 0 0 0 0 99.988620544804235 -0.000796240322690478 0 -0.000796240322690478 0.00016110183380892905 0 0 0 0 99.988625029605586 -0.0019265200809482535 0 -0.0019265200809482535 0.0004120237007900103 0 0 0 0 99.989533517139023 -0.0011513736397801161 0 -0.0011513736397801161 0.00027948707196187811 0 0 0 0 99.98960432472137 -0.0010550093374008156 0 -0.0010550093374008156 0.00036692583131112664 0 0 0 0 99.99010975430987 -0.0012919460778869026 0 -0.0012919460778869026 0.00047309100051561633 0 0 0 0 99.990625629822489 -0.0011889619720607161 0 -0.0011889619720607161 0.00042557462544811297 0 0 0 0 99.990627628891275 -0.0021422578520467542 0 -0.0021422578520467542 0.00047960395417490738 0 0 0 0 99.989621820331493 -0.0021448053862279065 0 -0.0021448053862279065 0.0005732291257397608 0 0 0 0 99.990363216287619 -0.0020389400673668048 0 -0.0020389400673668048 0.00044849909958829051 0 0 0 0 99.991975584652664 -0.0031702896579318849 0 -0.0031702896579318849 0.00021131122729949568 0 0 0 0 99.990091125150286 -0.0033454887291472818 0 -0.0033454887291472818 0.00051378794023544888 0 0 0 0 99.990355607093605 -0.0033997647186396209 0 -0.0033997647186396209 0.00048816090726955166 0 0 0 0 99.988770889570688 -0.0035122732018369458 0 -0.0035122732018369458 0.00077008542257517515 0 0 0 0 99.988800273810341 -0.0018229354175280964 0 -0.0018229354175280964 0.00047323200792124301 0 0 0 0 99.987549607972369 -0.003095601277606789 0 -0.003095601277606789 0.00069657475293717326 0 0 0 0 99.987423367539179 -0.005917975095133244 0 -0.005917975095133244 0.00099071056426193178 0 0 0 0 99.990013209417313 -0.0085530522173842705 0 -0.0085530522173842705 -0.00016462363508520407 0 0 0 0 99.990188768939845 -0.0055643063704323564 0 -0.0055643063704323564 0.0005321219107239305 0 0 0 0 99.990044228592524 -0.0053940048824568853 0 -0.0053940048824568853 0.0003789057007030994 0 0 0 0 99.99279139509423 -0.0049833731489478377 0 -0.0049833731489478377 -5.6376794329595714e-05 0 0 0 0 99.992009925945013 -0.0045955330836304955 0 -0.0045955330836304955 -0.00024463316152267085 0 0 0 0 99.992804799164134 -0.0067835830128091211 0 -0.0067835830128091211 -0.0010485581243915628 0 0 0 0 99.994947620271944 -0.0076622234943840763 0 -0.0076622234943840763 -0.00074239425848181425 0 0 0 0 99.996394822424236 -0.0059656319063795928 0 -0.0059656319063795928 -0.0012947650731837514 0 0 0 0 99.996433072693208 -0.0069836054354559902 0 -0.0069836054354559902 -0.0028912272376131632 0 0 0 0 99.999677393052025 -0.007993532032901594 0 -0.007993532032901594 -0.0028223500015130644 0 0 0 0 99.994948234989806 -0.0093622332665976304 0 -0.0093622332665976304 -0.0028347692417751424 0 0 0 0 100.00119673390151 -0.011136119744847853 0 -0.011136119744847853 -0.0028486050836849337 0 0 0 0 99.99181725551955 -0.0092717869592524194 0 -0.0092717869592524194 3.9672122869036271e-05 0 0 0 0 99.991654065861596 -0.013639128494952401 0 -0.013639128494952401 -0.0024881940113333006 0 0 0 0 100.00000522951075 -0.0028249323436223095 0 -0.0028249323436223095 -0.0029007005691940304 0 0 0 0 99.998285869629058 -0.0035990409277707465 0 -0.0035990409277707465 -0.0027295578555732798 0 0 0 0 99.997497035394929 -0.0026220515937997362 0 -0.0026220515937997362 -0.0021799879731413778 0 0 0 0 99.997904252008539 -0.0037550639215193212 0 -0.0037550639215193212 -0.0027295578555732794 0 0 0 0 99.999975884249949 -0.0047201674198808705 0 -0.0047201674198808705 -0.0028709831003060891 0 0 0 0 99.997409128805884 -0.0052318882378781699 0 -0.0052318882378781699 -0.0029017087141373337 0 0 0 0 100.00008356145167 -0.0060439127681853975 0 -0.0060439127681853975 -0.0029550191276585553 0 0 0 0 99.997278465617597 -0.0044652222657368904 0 -0.0044652222657368904 -0.0019390019993564562 0 0 0 0 99.997227487954973 -0.0046479051755571495 0 -0.0046479051755571495 -0.0018586857582036736 0 0 0 0 99.994652310736171 -0.0053829435611697993 0 -0.0053829435611697993 -0.0014222359173140255 0 0 0 0 99.994425233884925 -0.0041938601692960943 0 -0.0041938601692960943 -0.00058673219354507967 0 0 0 0 99.993388214742936 -0.003770807441074693 0 -0.003770807441074693 -0.0007143102968722179 0 0 0 0 99.995346584702247 -0.0035963322346859216 0 -0.0035963322346859216 -0.00077519891771232947 0 0 0 0 99.993856658047832 -0.0026402968232010172 0 -0.0026402968232010172 -0.00074166156163108041 0 0 0 0 99.99565179351481 -0.003384550985511923 0 -0.003384550985511923 -0.0015931352276154723 0 0 0 0 99.996559330622404 -0.0031690444289322289 0 -0.0031690444289322289 -0.0015931352276154726 0 0 0 0 99.994823259876739 -0.0025412541463263466 0 -0.0025412541463263466 -0.00074166156163108041 0 0 0 0 99.995387216131462 -0.0022003847992836732 0 -0.0022003847992836732 -0.0012158273753337346 0 0 0 0 99.993779077581166 -0.001698824507389788 0 -0.001698824507389788 -0.00049799915452659611 0 0 0 0 99.993438066877729 -0.001872177649642809 0 -0.001872177649642809 -7.5479944758153478e-05 0 0 0 0 99.992512004338437 -0.0018797599799689575 0 -0.0018797599799689575 -7.5479944758154345e-05 0 0 0 0 99.993221985248454 -0.0027828295553736703 0 -0.0027828295553736703 -0.00018955853002271955 0 0 0 0 99.993466059571745 -0.0027234399480673007 0 -0.0027234399480673007 -0.00023097004958761184 0 0 0 0 99.99169836578659 -0.0030487670936105494 0 -0.0030487670936105494 0.00016170513368338234 0 0 0 0 99.991734322310847 -0.0019891472582479037 0 -0.0019891472582479037 0.0002875030326836038 0 0 0 0 99.991310567675441 -0.0018507314043657891 0 -0.0018507314043657891 0.0003053636680081242 0 0 0 0 99.992482116476253 -0.0018104151888256748 0 -0.0018104151888256748 0.00025469254277163162 0 0 0 0 99.990696052783676 -0.0012737996385461892 0 -0.0012737996385461892 0.0004999851088783383 0 0 0 0 99.991474653401966 -0.0011616060648941195 0 -0.0011616060648941195 0.00037393858990735114 0 0 0 0 99.991596029226628 -0.0012234199650947083 0 -0.0012234199650947083 0.00039937626072421642 0 0 0 0 99.991713997717397 -0.0012172621897772449 0 -0.0012172621897772449 0.00025348280964178956 0 0 0 0 99.992600079340207 -0.0011719976560823219 0 -0.0011719976560823219 1.2988021509704843e-05 0 0 0 0 99.992408544331738 -0.0012583660434567234 0 -0.0012583660434567234 0.00025348280964178924 0 0 0 0 99.991809861035165 -0.00073099235244493562 0 -0.00073099235244493562 0.0003333691674937871 0 0 0 0 99.992315505886779 -0.00079708331263434926 0 -0.00079708331263434926 0.0003340459991587174 0 0 0 0 99.9932559218488 -0.0012014270847744107 0 -0.0012014270847744107 1.267938997463744e-05 0 0 0 0 99.99255220546172 -0.00066577246925086367 0 -0.00066577246925086367 0.00014770684412976787 0 0 0 0 99.992893438784336 -0.00068501653468244902 0 -0.00068501653468244902 0.0001484469009673145 0 0 0 0 99.992377021607126 -0.00025399942123249331 0 -0.00025399942123249331 0.00029005113146866358 0 0 0 0 99.992571755637641 -0.00030261499489440849 0 -0.00030261499489440849 0.00028938505385335111 0 0 0 0 99.993544291199555 -0.0004228055804867477 0 -0.0004228055804867477 -0.00010252141943588918 0 0 0 0 99.992946375270321 -9.5087867450949388e-06 0 -9.5087867450949388e-06 0.00010003276523902797 0 0 0 0 99.993356471972561 -0.00043042033986507504 0 -0.00043042033986507504 -0.00010220835587058594 0 0 0 0 99.994092469523252 -3.5326627693336781e-05 0 -3.5326627693336781e-05 -0.00038995525120897462 0 0 0 0 99.994803835764174 -0.00056061272392091284 0 -0.00056061272392091284 -0.00066552167640962848 0 0 0 0 99.994593974088616 -0.00061196145497213923 0 -0.00061196145497213923 -0.00066476954749765914 0 0 0 0 99.994036109028684 -0.00097178448402154578 0 -0.00097178448402154578 -0.00031337396824353443 0 0 0 0 99.993615498016482 -0.00098415287337410401 0 -0.00098415287337410401 -0.00031338916563674549 0 0 0 0 99.994471207213451 -0.0016731193618573603 0 -0.0016731193618573603 -0.00049781629958776279 0 0 0 0 99.996046089844072 -0.0021529657572516439 0 -0.0021529657572516439 -0.0012142474759708332 0 0 0 0 99.995009403452912 -0.0013290846997084677 0 -0.0013290846997084677 -0.00095047349882774329 0 0 0 0 99.996701207369142 -0.0016934210350285856 0 -0.0016934210350285856 -0.0018051618939138457 0 0 0 0 99.997128355895768 -0.0015423007212216643 0 -0.0015423007212216643 -0.0017808032162973408 0 0 0 0 99.995439299177633 -0.0012635342012619773 0 -0.0012635342012619773 -0.00094994086940553425 0 0 0 0 99.99612533766458 -0.00078701849719876459 0 -0.00078701849719876459 -0.0013937560962318197 0 0 0 0 99.996344746200407 -0.00069939546908476084 0 -0.00069939546908476084 -0.0013915463495857497 0 0 0 0 99.995498671343626 -6.934378408564399e-05 0 -6.934378408564399e-05 -0.0010463912717239999 0 0 0 0 99.997153845306912 -0.00010362315521443544 0 -0.00010362315521443544 -0.0018804333360022628 0 0 0 0 99.998068420865138 -0.00094721115950798711 0 -0.00094721115950798711 -0.0023251152656761751 0 0 0 0 99.998289061322339 -0.00078743598929890296 0 -0.00078743598929890296 -0.0023002327214545005 0 0 0 0 99.998491713354838 -0.00042877519224218121 0 -0.00042877519224218121 -0.0029159886332099207 0 0 0 0 99.999997941837137 -1.8134296551460146e-05 0 -1.8134296551460146e-05 -0.0029106472304415111 0 0 0 0 100.00000033447861 -0.00097196596452697086 0 -0.00097196596452697086 -0.0029232311626271059 0 0 0 0 99.998468174805907 -0.0015589533833092197 0 -0.0015589533833092197 -0.0029201059621234106 0 0 0 0 99.999996594076379 -0.0018700627750645417 0 -0.0018700627750645417 -0.0029184403079576737 0 0 0 0 99.998141124283961 -0.0024731858837114258 0 -0.0024731858837114258 -0.0021511178970499258 0 0 0 0 99.998172295017525 -0.0024808987215371825 0 -0.0024808987215371825 -0.0029069840014795891 0 0 0 0 49.995267645124898 -6.8166630964747123e-05 0 -6.8166630964747123e-05 0.00055788299835580254 0 0 0 0 49.995360970180741 -7.014177853928731e-05 0 -7.014177853928731e-05 0.00062298918559494654 0 0 0 0 49.995301010001157 -1.8531697760510357e-05 0 -1.8531697760510357e-05 0.00062644401195073346 0 0 0 0 49.995368844986899 -8.7333004862292195e-05 0 -8.7333004862292195e-05 0.00055788299835580254 0 0 0 0 49.995262370733172 -2.0124734662395737e-05 0 -2.0124734662395737e-05 0.00063122595481443717 0 0 0 0 49.995307784821364 5.8635550638151229e-07 0 5.8635550638151229e-07 0.00055643350386169375 0 0 0 0 49.99532229309176 -3.3740438667969081e-05 0 -3.3740438667969081e-05 0.00055743625487483307 0 0 0 0 49.995246546924989 -2.7958034569606582e-05 0 -2.7958034569606582e-05 0.00055743625487483317 0 0 0 0 49.995250726564421 -6.7750094211543033e-05 0 -6.7750094211543033e-05 0.00044784110718113906 0 0 0 0 49.995290204264364 -2.3053937429699225e-05 0 -2.3053937429699225e-05 0.00046857753883494809 0 0 0 0 49.995229904945688 1.8949887848286655e-05 0 1.8949887848286655e-05 0.0004516036767560895 0 0 0 0 49.995241757717253 -3.8113782606114542e-05 0 -3.8113782606114542e-05 0.00036427820992420378 0 0 0 0 49.995229748051258 3.4184000203891412e-06 0 3.4184000203891412e-06 0.00037335033228290962 0 0 0 0 49.99531052884754 -2.630253208689968e-05 0 -2.630253208689968e-05 0.00046666487146626703 0 0 0 0 49.99536270401353 -0.00010447941913222891 0 -0.00010447941913222891 0.00047398993948011324 0 0 0 0 49.995245596963116 -5.4229876216788184e-05 0 -5.4229876216788184e-05 0.000458239271901592 0 0 0 0 49.995255119929872 -0.0001032380143209803 0 -0.0001032380143209803 0.00037536235426562699 0 0 0 0 49.995256226026498 -0.0001050351419075884 0 -0.0001050351419075884 0.00038253020359338647 0 0 0 0 99.990512452052968 -0.00037149945437590004 0 -0.00037149945437590004 0.00044335142382012074 0 0 0 0 99.990808695639998 -0.00037786205998279962 0 -0.00037786205998279962 0.00051030456227113227 0 0 0 0 49.995292463840883 -0.00018334635879043468 0 -0.00018334635879043468 0.00046489263486150316 0 0 0 0 49.995404347820056 -0.00014423914894745441 0 -0.00014423914894745441 0.0004785314884914911 0 0 0 0 99.990845924227813 -0.00065020877475482821 0 -0.00065020877475482821 0.00040391277979076015 0 0 0 0 99.990672558433999 -0.00064997161875275742 0 -0.00064997161875275742 0.00051053121701990015 0 0 0 0 99.99080876666892 -0.00028284910259293887 0 -0.00028284910259293887 0.00044074073404476834 0 0 0 0 99.991212997275056 -0.00068227318033110482 0 -0.00068227318033110482 0.00047419305925566714 0 0 0 0 99.991200895001668 -0.00069521455562248648 0 -0.00069521455562248648 0.00046164691348871568 0 0 0 0 99.990934386876972 -0.00031009465979124748 0 -0.00031009465979124748 0.00052014812545283975 0 0 0 0 99.991300383589078 -0.00042383774298945538 0 -0.00042383774298945538 0.00051194772994493133 0 0 0 0 99.991319493465312 -0.00039623238968941414 0 -0.00039623238968941414 0.00052014812545283888 0 0 0 0 99.991719461953494 -0.00077224965810780092 0 -0.00077224965810780092 0.00046164691348871589 0 0 0 0 49.995322441846326 -0.00014381340183364374 0 -0.00014381340183364374 0.00055958596796511716 0 0 0 0 99.991040835244235 -0.00028691893895005588 0 -0.00028691893895005588 0.00058017944516523205 0 0 0 0 49.995520417622174 -0.0001215411240785844 0 -0.0001215411240785844 0.00059033347781490934 0 0 0 0 49.995445695937917 -0.00017427572108736494 0 -0.00017427572108736494 0.00055958596796511749 0 0 0 0 49.99546032088648 -0.000154585952860714 0 -0.000154585952860714 0.00062257540732503177 0 0 0 0 49.995643076977359 -9.5639593322378598e-05 0 -9.5639593322378598e-05 0.00062203637192227495 0 0 0 0 99.991286153954718 -0.00022559422961189387 0 -0.00022559422961189387 0.00061745449463087784 0 0 0 0 49.995505885118632 -9.7972168611040267e-05 0 -9.7972168611040267e-05 0.00066592670004400373 0 0 0 0 99.991852726576269 -0.00039294117207769839 0 -0.00039294117207769839 0.00042617548304702858 0 0 0 0 99.991581791515728 -0.00051626719396523878 0 -0.00051626719396523878 0.00053563299481765563 0 0 0 0 99.991484675882248 -0.00024637948417321771 0 -0.00024637948417321771 0.00055039301556368547 0 0 0 0 99.99167518266745 -0.00020261356240108136 0 -0.00020261356240108136 0.00056610309922230234 0 0 0 0 99.992091102523318 -0.00044657660805748692 0 -0.00044657660805748692 0.00043335421817421562 0 0 0 0 99.991717998800141 -0.00013888389733850257 0 -0.00013888389733850257 0.0005304036327491218 0 0 0 0 99.991731962962035 -1.6697409277479291e-05 0 -1.6697409277479291e-05 0.00057532286602963306 0 0 0 0 99.991839675141591 -0.00021142628352006964 0 -0.00021142628352006964 0.0005433001825944705 0 0 0 0 99.992152783266306 1.5499641655847794e-05 0 1.5499641655847794e-05 0.00041860239628909758 0 0 0 0 49.995689424987177 -5.4451901836621939e-05 0 -5.4451901836621939e-05 0.0006533900770731506 0 0 0 0 99.991378849974467 -0.0001239793083507414 0 -0.0001239793083507414 0.00063254190552387499 0 0 0 0 99.991460119175827 5.7196140542748256e-07 0 5.7196140542748256e-07 0.0006385746407965953 0 0 0 0 49.995730059588027 -9.7236297010266752e-07 0 -9.7236297010266752e-07 0.0006597939967875493 0 0 0 0 49.995535820322687 -3.6736349672434449e-05 0 -3.6736349672434449e-05 0.00068324372391520148 0 0 0 0 49.995536033907534 -1.4241761642237975e-05 0 -1.4241761642237975e-05 0.0007033262653563699 0 0 0 0 49.995411419288232 -1.0811850497668815e-05 0 -1.0811850497668815e-05 0.00071796725160383035 0 0 0 0 49.995411038688417 -4.143213554973484e-05 0 -4.143213554973484e-05 0.00071266925429749981 0 0 0 0 49.995508991439124 -4.2063474969798552e-05 0 -4.2063474969798552e-05 0.00067841015450818875 0 0 0 0 49.995387464941459 -1.9696132800559262e-05 0 -1.9696132800559262e-05 0.00067067649941705365 0 0 0 0 49.995378009229512 -7.4316912348185659e-05 0 -7.4316912348185659e-05 0.00067923857561709184 0 0 0 0 49.995480171837919 -7.6411358511716134e-05 0 -7.6411358511716134e-05 0.00061643890776722269 0 0 0 0 49.995324992652172 4.8865289093869436e-06 0 4.8865289093869436e-06 0.00063985259321490569 0 0 0 0 49.995306140760761 -2.5616468090925216e-05 0 -2.5616468090925216e-05 0.00068740422035126986 0 0 0 0 49.995318716153861 -5.9091396350065717e-05 0 -5.9091396350065717e-05 0.00064826389569213043 0 0 0 0 49.995335178717994 -3.8115824687760054e-05 0 -3.8115824687760054e-05 0.00071200418602800032 0 0 0 0 49.995337177978286 3.971880931985148e-06 0 3.971880931985148e-06 0.00071121266390893772 0 0 0 0 49.995323870422396 -1.3579856961646879e-05 0 -1.3579856961646879e-05 0.00073547388130794995 0 0 0 0 49.995350618336374 -1.2974759861579923e-05 0 -1.2974759861579923e-05 0.00074147930021371529 0 0 0 0 49.995350788326846 6.5166144038776314e-07 0 6.5166144038776314e-07 0.00074293344850985435 0 0 0 0 49.995329694163168 -2.1131896250147938e-07 0 -2.1131896250147938e-07 0.00075096555865066786 0 0 0 0 49.995350719430689 -1.8376280425585817e-06 0 -1.8376280425585817e-06 0.00074208800912759203 0 0 0 0 49.995350722483558 1.2615474172500718e-05 0 1.2615474172500718e-05 0.00074050348702392617 0 0 0 0 49.995324341887454 1.2962490433326929e-05 0 1.2962490433326929e-05 0.00073379083468678909 0 0 0 0 49.995337634971975 -4.8622221095997098e-06 0 -4.8622221095997098e-06 0.0007079082714892016 0 0 0 0 49.995336464013775 3.7014658771807316e-05 0 3.7014658771807316e-05 0.00070920180046680592 0 0 0 0 49.995318881231924 5.7433820238410522e-05 0 5.7433820238410522e-05 0.00064554752204987144 0 0 0 0 49.995329317485698 -4.9107817382449976e-06 0 -4.9107817382449976e-06 0.0006344311062401976 0 0 0 0 49.995307354356896 2.4527619455942807e-05 0 2.4527619455942807e-05 0.00068508451069323822 0 0 0 0 49.995378136424051 7.3124580103491461e-05 0 7.3124580103491461e-05 0.00067656046200804433 0 0 0 0 49.995479827588838 7.2449878994865213e-05 0 7.2449878994865213e-05 0.00061260248066114637 0 0 0 0 49.995388692046959 1.7087270619113104e-05 0 1.7087270619113104e-05 0.00066876626149045256 0 0 0 0 49.99550726718337 3.8616732528645161e-05 0 3.8616732528645161e-05 0.00067695170313121543 0 0 0 0 49.99541157093833 4.0391662803127304e-05 0 4.0391662803127304e-05 0.00071099517527218811 0 0 0 0 49.995411797278393 9.3279460578669753e-06 0 9.3279460578669753e-06 0.00071636632383902132 0 0 0 0 49.995420458604258 -6.2728151328350201e-07 0 -6.2728151328350201e-07 0.00073255110458358356 0 0 0 0 49.995536115987989 1.2720354061069878e-05 0 1.2720354061069878e-05 0.00070244685954827697 0 0 0 0 49.995420458831802 -4.5605574880436001e-07 0 -4.5605574880436001e-07 0.00072582192600192247 0 0 0 0 49.995535913875301 3.5724764221507473e-05 0 3.5724764221507473e-05 0.00068213504189111444 0 0 0 0 99.991381581540281 0.00012745142379942415 0 0.00012745142379942415 0.00062020162024743449 0 0 0 0 49.995690790770141 5.3572134024340665e-05 0 5.3572134024340665e-05 0.00065193523328302676 0 0 0 0 99.992216183116852 -2.3444126671616407e-05 0 -2.3444126671616407e-05 0.00041664952066964743 0 0 0 0 99.991747444760676 2.5428754427779879e-05 0 2.5428754427779879e-05 0.00057107350991202847 0 0 0 0 99.99182135033584 0.00020121377299367645 0 0.00020121377299367645 0.00054362462656885532 0 0 0 0 99.991743960306167 0.00013450406867362161 0 0.00013450406867362161 0.0005194012046320284 0 0 0 0 99.992140436739874 0.00045844175611441259 0 0.00045844175611441259 0.00043434524246850886 0 0 0 0 99.991698024076982 0.00020922379742751489 0 0.00020922379742751489 0.00056814407555698995 0 0 0 0 99.991593259223009 0.00052510236303150541 0 0.00052510236303150541 0.0005382625997295571 0 0 0 0 99.991478481659669 0.00024244152166439997 0 0.00024244152166439997 0.00054927188745297704 0 0 0 0 99.9918711592411 0.00038711683179298417 0 0.00038711683179298417 0.00042192967648871284 0 0 0 0 49.995505078864412 9.7753335679714572e-05 0 9.7753335679714572e-05 0.00066431076198067689 0 0 0 0 99.991280620614816 0.00022291985029966035 0 0.00022291985029966035 0.00061990685687276104 0 0 0 0 49.995640310307408 9.4145899281698709e-05 0 9.4145899281698709e-05 0.00061993430893715119 0 0 0 0 49.99545763116339 0.00015209288031065938 0 0.00015209288031065938 0.00062040758650164533 0 0 0 0 49.995444403338752 0.00017050962949009775 0 0.00017050962949009775 0.00055264702050274303 0 0 0 0 49.995516951589025 0.00011712724652181974 0 0.00011712724652181974 0.00058686353605258239 0 0 0 0 99.991033903177964 0.00028156923641313713 0 0.00028156923641313713 0.00058019063492791359 0 0 0 0 49.995324035599651 0.00013951277365384883 0 0.00013951277365384883 0.00055264702050274303 0 0 0 0 99.991720662480134 0.00077421644782023737 0 0.00077421644782023737 0.00046857759399368624 0 0 0 0 99.991309391872619 0.00038614012595767147 0 0.00038614012595767147 0.0005138437196748522 0 0 0 0 99.991279849051125 0.00042625954698341561 0 0.00042625954698341561 0.00051513774586810343 0 0 0 0 99.990936427863289 0.00030044647663573024 0 0.00030044647663573024 0.00051384371967485264 0 0 0 0 99.991138495082623 0.00069291697898882579 0 0.00069291697898882579 0.00046857759399368624 0 0 0 0 99.991195148594898 0.00064491095522850215 0 0.00064491095522850215 0.00046491480274964397 0 0 0 0 99.990630379326376 0.00061108381242138549 0 0.00061108381242138549 0.00049390662419030048 0 0 0 0 99.99075445651016 0.00027031584450184121 0 0.00027031584450184121 0.00042984359373967468 0 0 0 0 99.99096509685387 0.00078994931690604814 0 0.00078994931690604814 0.00042425697977697789 0 0 0 0 49.9954027075662 0.0001371134205168206 0 0.0001371134205168206 0.00046917634768025977 0 0 0 0 49.995287988664586 0.00017983692542866052 0 0.00017983692542866052 0.0004532699899092582 0 0 0 0 99.9908054151324 0.00037357208008394985 0 0.00037357208008394985 0.00049860524366819332 0 0 0 0 99.990518127342511 0.00035986790217896027 0 0.00035986790217896027 0.00041955861130009453 0 0 0 0 49.995259063671597 0.00010544642005203214 0 0.00010544642005203214 0.00036882510587629941 0 0 0 0 49.995257213480045 0.0001050871333819991 0 0.0001050871333819991 0.00036510565162693113 0 0 0 0 49.99525612776857 5.3467727004767017e-05 0 5.3467727004767017e-05 0.00044889537265947288 0 0 0 0 49.995364718183509 0.00010040325699592009 0 0.00010040325699592009 0.00046268645433796983 0 0 0 0 49.995315977947939 2.8516647436443022e-05 0 2.8516647436443022e-05 0.00046173179673146585 0 0 0 0 49.99523930636667 1.0057165790073349e-06 0 1.0057165790073349e-06 0.00036640402482154345 0 0 0 0 49.995243375706877 4.1046128221696213e-05 0 4.1046128221696213e-05 0.0003615904201857355 0 0 0 0 49.995293709488806 2.6534411355366749e-05 0 2.6534411355366749e-05 0.00046182585768818709 0 0 0 0 49.995241283119299 -1.962269845358827e-05 0 -1.962269845358827e-05 0.00044166618004557015 0 0 0 0 49.995249774947297 6.7294492211681051e-05 0 6.7294492211681051e-05 0.00044492377428985463 0 0 0 0 49.995249590827598 2.3872999121312462e-05 0 2.3872999121312462e-05 0.00055022720496599711 0 0 0 0 49.995238684962942 -8.6226633824423079e-07 0 -8.6226633824423079e-07 0.00054948672080170572 0 0 0 0 49.995265816677602 1.9223070846529776e-05 0 1.9223070846529776e-05 0.000626591871924328 0 0 0 0 49.995309655786002 -7.0135961855043887e-07 0 -7.0135961855043887e-07 0.00054948672080170583 0 0 0 0 49.995324333718997 3.1734016331682702e-05 0 3.1734016331682702e-05 0.0005502272049659969 0 0 0 0 49.995370771710327 8.4092560553786948e-05 0 8.4092560553786948e-05 0.00055082226580007788 0 0 0 0 49.9953043428103 1.6613525260903632e-05 0 1.6613525260903632e-05 0.00062335214492076146 0 0 0 0 49.9953605093134 6.8203535011617661e-05 0 6.8203535011617661e-05 0.00061982965417837609 0 0 0 0 49.995271410536304 6.4701669474338287e-05 0 6.4701669474338287e-05 0.00055082226580007777 0 0 0 0 99.998167625427413 0.0024792886533126874 0 0.0024792886533126874 -0.0029013045093051575 0 0 0 0 99.998155902449525 0.0024303416716123165 0 0.0024303416716123165 -0.0021515200132338772 0 0 0 0 99.999996609170012 0.0018293706314312136 0 0.0018293706314312136 -0.002908824688894219 0 0 0 0 99.998484330475094 0.0015448644637360729 0 0.0015448644637360729 -0.0029145468313565705 0 0 0 0 100.00000034327385 0.00090224265300853531 0 0.00090224265300853531 -0.0029279007419001318 0 0 0 0 99.998496297204611 0.00042209011448002048 0 0.00042209011448002048 -0.0029187682280689461 0 0 0 0 99.99831620865433 0.00071339911583985212 0 0.00071339911583985212 -0.002299691169121083 0 0 0 0 99.99805234972365 0.00087332344744844696 0 0.00087332344744844696 -0.0023342029474270683 0 0 0 0 99.997162839552402 5.142490644658099e-05 0 5.142490644658099e-05 -0.0018857025508770475 0 0 0 0 99.996338784167278 0.00062601481527549104 0 0.00062601481527549104 -0.0014039742263579074 0 0 0 0 99.995511246232127 1.4879439341472685e-05 0 1.4879439341472685e-05 -0.0010466846482532746 0 0 0 0 99.996159882443635 0.00071598684916198926 0 0.00071598684916198926 -0.0014040879521159571 0 0 0 0 99.99545897290443 0.0012138171559362319 0 0.0012138171559362319 -0.00095784701632234664 0 0 0 0 99.997175218001644 0.0014842839571887435 0 0.0014842839571887435 -0.0017869604306982533 0 0 0 0 99.996711375328459 0.0016416150308845232 0 0.0016416150308845232 -0.0018180505654076802 0 0 0 0 99.996081303369124 0.0021041734312742888 0 0.0021041734312742888 -0.0012282559841175966 0 0 0 0 99.995066425214986 0.0012835384514205178 0 0.0012835384514205178 -0.00095803431636641394 0 0 0 0 99.994485798111555 0.0016647448059606824 0 0.0016647448059606824 -0.00049574655985102506 0 0 0 0 99.993650123655925 0.0009566700970683557 0 0.0009566700970683557 -0.00030958008791534802 0 0 0 0 99.994064396597423 0.00094365235035831865 0 0.00094365235035831865 -0.00030971432146137835 0 0 0 0 99.99461996094567 0.00056080296534034781 0 0.00056080296534034781 -0.00067704859524033139 0 0 0 0 99.994811491424798 0.00051231394980368744 0 0.00051231394980368744 -0.00067691172534602943 0 0 0 0 99.994118025389071 -4.6004699556364756e-06 0 -4.6004699556364756e-06 -0.00039049090644819218 0 0 0 0 99.993366146733024 0.00039392963239429481 0 0.00039392963239429481 -0.00011556047290916891 0 0 0 0 99.993550311118838 0.00039674671874655176 0 0.00039674671874655176 -0.00011553182847994468 0 0 0 0 99.993014912271065 -1.8900860250145937e-05 0 -1.8900860250145937e-05 9.9889984196328377e-05 0 0 0 0 99.99257050490894 0.00028582144297569379 0 0.00028582144297569379 0.00027244944279105135 0 0 0 0 99.99242616131869 0.00023742498233965273 0 0.00023742498233965273 0.00027288925921083651 0 0 0 0 99.992953401890986 0.0006807729241836433 0 0.0006807729241836433 0.00014553759471290072 0 0 0 0 99.993258733285529 0.0012052070268674718 0 0.0012052070268674718 2.1019703715676602e-05 0 0 0 0 99.99259877177542 0.00064898296720707072 0 0.00064898296720707072 0.0001441652749751865 0 0 0 0 99.992333794277215 0.0008143478199412297 0 0.0008143478199412297 0.00034160859567839309 0 0 0 0 99.991817860023957 0.00072572296873288844 0 0.00072572296873288844 0.00033335845816657978 0 0 0 0 99.992426459449689 0.0012719126691655726 0 0.0012719126691655726 0.00029057872575825351 0 0 0 0 99.992616166265634 0.0011755818975290656 0 0.0011755818975290656 2.2325795908606017e-05 0 0 0 0 99.991593999933229 0.0011949325697363069 0 0.0011949325697363069 0.00029057872575825378 0 0 0 0 99.991637118884228 0.001115545985599454 0 0.001115545985599454 0.00043673601463979118 0 0 0 0 99.990720220002459 0.0010132856241257264 0 0.0010132856241257264 0.00043782964295414287 0 0 0 0 99.991372795967663 0.001536758406567773 0 0.001536758406567773 0.00044111822315327478 0 0 0 0 99.9911787377049 0.0017441724081582362 0 0.0017441724081582362 0.00028260661845883224 0 0 0 0 99.992374480541685 0.0018401383165178079 0 0.0018401383165178079 0.00028353071683763498 0 0 0 0 99.992133753338862 0.0025877773463472602 0 0.0025877773463472602 0.00033989294378631695 0 0 0 0 99.992124554796874 0.0027208458878553946 0 0.0027208458878553946 -9.4056807461002923e-05 0 0 0 0 99.99351932403215 0.0027667962354677527 0 0.0027667962354677527 -9.3732147228324167e-05 0 0 0 0 99.992464995500768 0.0018621887069523281 0 0.0018621887069523281 -6.4398953557453717e-05 0 0 0 0 99.993447370657918 0.0018909746173976253 0 0.0018909746173976253 -6.4398953557453717e-05 0 0 0 0 99.993825994311464 0.0016749398357460772 0 0.0016749398357460772 -0.00049490726659278707 0 0 0 0 99.995455595904559 0.0021735875882663599 0 0.0021735875882663599 -0.0012323849078645403 0 0 0 0 99.994855013208394 0.002568769424562042 0 0.002568769424562042 -0.00069316598836703571 0 0 0 0 99.996577705495724 0.0031332440343913599 0 0.0031332440343913599 -0.0016498554265776582 0 0 0 0 99.995872944790904 0.0033569151620679934 0 0.0033569151620679934 -0.001649855426577659 0 0 0 0 99.993865482553701 0.0026359520679358384 0 0.0026359520679358384 -0.00069316598836703484 0 0 0 0 99.99520250864623 0.0037401383370450989 0 0.0037401383370450989 -0.000809159714741387 0 0 0 0 99.993837515718042 0.003755902503285934 0 0.003755902503285934 -0.00080804889013186667 0 0 0 0 99.993448410039605 0.0038859613936268649 0 0.0038859613936268649 -8.6949591850153315e-05 0 0 0 0 99.995442388290485 0.0051865465262041204 0 0.0051865465262041204 -0.0011079846882158491 0 0 0 0 99.996991416607443 0.0045365906773606173 0 0.0045365906773606173 -0.0019604146670933438 0 0 0 0 99.997340612253538 0.0043922441936629043 0 0.0043922441936629043 -0.0020070626143289393 0 0 0 0 100.00008191319171 0.0061528346020672409 0 0.0061528346020672409 -0.002940548052019213 0 0 0 0 99.997335910577931 0.0052429081572675992 0 0.0052429081572675992 -0.0029097759178264896 0 0 0 0 99.99997653129617 0.0047368576654577615 0 0.0047368576654577615 -0.002893097341324011 0 0 0 0 99.997886065538069 0.0037777666492696108 0 0.0037777666492696108 -0.002720813615826339 0 0 0 0 99.99744767390348 0.0025873562129803897 0 0.0025873562129803897 -0.0021852333932177418 0 0 0 0 99.998263301869201 0.0036035067505731312 0 0.0036035067505731312 -0.0027208136158263408 0 0 0 0 100.00000505224997 0.0028209167158216139 0 0.0028209167158216139 -0.0028973839270115495 0 0 0 0 99.991134907521428 0.014009581826906011 0 0.014009581826906011 -0.0029058856354415123 0 0 0 0 99.992464360704389 0.010810359442981464 0 0.010810359442981464 0.00013915820803236424 0 0 0 0 100.00119202403403 0.011151006101700656 0 0.011151006101700656 -0.0029384566931633326 0 0 0 0 99.999680117889838 0.0081392730459019878 0 0.0081392730459019878 -0.0029515136786370066 0 0 0 0 99.995555486801777 0.009592904163925331 0 0.009592904163925331 -0.0029442026988573925 0 0 0 0 99.996499975932238 0.0068815978664944358 0 0.0068815978664944358 -0.0029443194060199949 0 0 0 0 99.996289764533572 0.0070563185421497095 0 0.0070563185421497095 -0.0015779212892615101 0 0 0 0 99.99443716662114 0.0073432232142379402 0 0.0073432232142379402 -0.0015316304624010345 0 0 0 0 99.993932426439414 0.0052924072593052559 0 0.0052924072593052559 -0.0010754388813143112 0 0 0 0 99.993327138899872 0.0055005271415167235 0 0.0055005271415167235 1.1171030865449443e-05 0 0 0 0 99.991472672121517 0.0038430786803510622 0 0.0038430786803510622 -8.7269294335719406e-05 0 0 0 0 99.990311923548006 0.0054191907938339161 0 0.0054191907938339161 9.6860094123016826e-06 0 0 0 0 99.990742149095354 0.0048329743616571975 0 0.0048329743616571975 0.00077066386964120279 0 0 0 0 99.992904296115739 0.0079024141737196914 0 0.0079024141737196914 7.8786343061100755e-05 0 0 0 0 99.988500272112333 0.007934424629353851 0 0.007934424629353851 7.9136239264398302e-05 0 0 0 0 99.989348442816549 0.0068088588925328316 0 0.0068088588925328316 0.0013027455927601939 0 0 0 0 99.986903671057121 0.0046029184111408012 0 0.0046029184111408012 0.00077396069446630236 0 0 0 0 99.988534949407949 0.0032363346985673372 0 0.0032363346985673372 0.00067537111825360626 0 0 0 0 99.987691849250155 0.0024779137897207805 0 0.0024779137897207805 0.00057825740817939978 0 0 0 0 99.990000059469367 0.0026062443550914638 0 0.0026062443550914638 0.00057585413156660266 0 0 0 0 99.989137964826909 0.0033648233241907761 0 0.0033648233241907761 0.00049402294595124853 0 0 0 0 99.991636526007937 0.0035341711182506584 0 0.0035341711182506584 0.0004914483334245599 0 0 0 0 99.990406906469161 0.0024633672632121051 0 0.0024633672632121051 0.00033973911218470221 0 0 0 0 99.989178210141063 0.0018768644701838758 0 0.0018768644701838758 0.00049645968689844577 0 0 0 0 99.990882947903515 0.0019993796099402762 0 0.0019993796099402762 0.00049180371475780141 0 0 0 0 99.990134660327385 0.0014347057820514994 0 0.0014347057820514994 0.00044688524085392562 0 0 0 0 99.990586911518108 0.0010402602856065314 0 0.0010402602856065314 0.00038469232660933057 0 0 0 0 99.989511446725828 0.0009676472155485151 0 0.0009676472155485151 0.00038375981544651111 0 0 0 0 99.989926813153374 0.0013337037001978991 0 0.0013337037001978991 0.00032484912147360504 0 0 0 0 99.98889590811666 0.0015624818843320795 0 0.0015624818843320795 0.00021338636727718141 0 0 0 0 99.988563753910967 0.0012981625948320611 0 0.0012981625948320611 0.00032439667224282436 0 0 0 0 99.989404227042769 0.0007261084803412203 0 0.0007261084803412203 -1.5643366419977448e-05 0 0 0 0 99.988507414544301 0.00093020065569511426 0 0.00093020065569511426 -1.7517509011745664e-05 0 0 0 0 99.987245518467262 0.0016609485079514125 0 0.0016609485079514125 0.00021458936682288807 0 0 0 0 99.988436740830366 0.00078392592574925805 0 0.00078392592574925805 -0.00031570896061710891 0 0 0 0 99.987574423026672 0.0012322585084763955 0 0.0012322585084763955 -0.00028988601934882354 0 0 0 0 99.988446417076375 0.00053482542350250092 0 0.00053482542350250092 -0.00042509458775467153 0 0 0 0 99.987808761475208 0.0011663787758131559 0 0.0011663787758131559 -0.00035270726091863865 0 0 0 0 99.986606078614841 0.0017914308861677222 0 0.0017914308861677222 -0.00068630321851891551 0 0 0 0 99.987398327862593 0.00088680001845888945 0 0.00088680001845888945 7.8399341024058822e-07 0 0 0 0 99.987101190129124 0.00071087715417937939 0 0.00071087715417937939 -0.0006444154605883979 0 0 0 0 99.984943035547985 0.00050526113792663508 0 0.00050526113792663508 -4.4394407678866762e-06 0 0 0 0 99.981903822167169 0.0033598850238555846 0 0.0033598850238555846 -0.00054224072261954432 0 0 0 0 99.985066897327897 0.0016241710560199658 0 0.0016241710560199658 -0.00060892907616189257 0 0 0 0 99.985371370064968 0.0020656374354477754 0 0.0020656374354477754 -6.5721005753597173e-06 0 0 0 0 99.987320843320731 0.0016639133988385095 0 0.0016639133988385095 -2.7765691754252312e-06 0 0 0 0 99.985388735028209 0.0031729127218926463 0 0.0031729127218926463 0.00067621961705701783 0 0 0 0 99.985813717202063 0.0035620154343650036 0 0.0035620154343650036 0.00075230375957435704 0 0 0 0 99.982292766335377 0.006597733657683443 0 0.006597733657683443 0.0013270474577704834 0 0 0 0 99.985613106593632 0.010079845251545672 0 0.010079845251545672 0.00359084839591048 0 0 0 0 99.973564666072775 0.0079335619835656564 0 0.0079335619835656564 0.0042849302130011854 0 0 0 0 99.982398347698563 0.003595690032672981 0 0.003595690032672981 0.00075197414937849057 0 0 0 0 99.98138795752152 0.0019422750223868016 0 0.0019422750223868016 -0.001943516706158908 0 0 0 0 99.982078418350739 0.0036700336828130904 0 0.0036700336828130904 8.2233560185607615e-06 0 0 0 0 99.980563891405382 0.0056563963347326853 0 0.0056563963347326853 -0.0022307124695602211 0 0 0 0 99.967710754325935 -0.0058271450898202282 0 -0.0058271450898202282 -2.5007586214703492e-05 0 0 0 0 99.976622813610902 0.0097136830887598873 0 0.0097136830887598873 0.0039425822191556667 0 0 0 0 99.936909584593195 0.018500402483999201 0 0.018500402483999201 0.0020949976214074103 0 0 0 0 99.936744170945758 0.03726265458778396 0 0.03726265458778396 0.0031927704205167717 0 0 0 0 99.947982353111684 0.033241944050665918 0 0.033241944050665918 -3.9906716274067091e-06 0 0 0 0 99.964694366879712 0.039294486988664196 0 0.039294486988664196 0.00093555875618194667 0 0 0 0 100.01684685633313 0.024066027075691544 0 0.024066027075691544 -0.0034326424659469686 0 0 0 0 99.984065862716079 0.012500133513053567 0 0.012500133513053567 -0.0001703727880119142 0 0 0 0 99.99550200153044 0.015670100349117727 0 0.015670100349117727 -0.0028631757249885062 0 0 0 0 99.988167543934765 0.018773116345301481 0 0.018773116345301481 -0.0032456306147234269 0 0 0 0 49.995168768821145 -4.9148851283733607e-06 0 -4.9148851283733607e-06 8.772021117219218e-05 0 0 0 0 49.995168887163551 8.5262558223281061e-05 0 8.5262558223281061e-05 6.8994038310122771e-05 0 0 0 0 49.995086330896129 2.7481569397466863e-05 0 2.7481569397466863e-05 2.97859915625345e-05 0 0 0 0 49.995190806838536 5.2234041379058154e-05 0 5.2234041379058154e-05 1.4388379803002628e-05 0 0 0 0 49.995190871977911 -1.5245452031552538e-05 0 -1.5245452031552538e-05 3.1085268187533329e-05 0 0 0 0 49.995211862260589 3.45133900929067e-05 0 3.45133900929067e-05 8.1452157155496602e-05 0 0 0 0 49.995211231554151 5.5658130662219334e-05 0 5.5658130662219334e-05 0.0001433877981718792 0 0 0 0 49.995210198047118 -2.3853978743524266e-05 0 -2.3853978743524266e-05 0.00014945916651639215 0 0 0 0 49.995225256288336 3.8917942801246151e-05 0 3.8917942801246151e-05 0.00021692386242416989 0 0 0 0 49.995230724997327 -2.5842941202539823e-05 0 -2.5842941202539823e-05 0.00028878134710056677 0 0 0 0 49.995235167875222 6.3355505918511368e-05 0 6.3355505918511368e-05 0.0002925144650247326 0 0 0 0 49.995201916257088 -7.7101306581619893e-06 0 -7.7101306581619893e-06 0.00022105427906036516 0 0 0 0 49.995203169839968 9.3091505424902716e-05 0 9.3091505424902716e-05 0.00022161393158736807 0 0 0 0 49.995141146163633 1.7705751742999902e-05 0 1.7705751742999902e-05 0.00015607352125279907 0 0 0 0 49.995206585376081 2.7124353444116971e-05 0 2.7124353444116971e-05 0.00029927366378247123 0 0 0 0 49.995214507744322 0.00016944762525432908 0 0.00016944762525432908 0.00031199147666424921 0 0 0 0 99.990265163599688 0.00030400734433627549 0 0.00030400734433627549 0.00027120246236035086 0 0 0 0 49.995142399639235 0.00014943998979592013 0 0.00014943998979592013 0.00015590433186694501 0 0 0 0 49.995132581799787 8.1484870475850073e-05 0 8.1484870475850073e-05 0.00023671365790149267 0 0 0 0 99.99019710776156 0.00073480603525275738 0 0.00073480603525275738 0.00043841394946845733 0 0 0 0 99.990301121135872 0.00023774300631816366 0 0.00023774300631816366 0.00035482108191744696 0 0 0 0 99.990482390818329 0.00052065381934944532 0 0.00052065381934944532 0.00028842920563445021 0 0 0 0 99.990094033660625 0.00016802622692302572 0 0.00016802622692302572 0.00016318222432820011 0 0 0 0 99.989890346441825 0.00052692840558437302 0 0.00052692840558437302 0.00029275602329961162 0 0 0 0 99.990022278070796 0.00059900856896224922 0 0.00059900856896224922 0.00016085865838989094 0 0 0 0 99.989674445368109 0.00018951748505770098 0 0.00018951748505770098 7.2957503399882583e-05 0 0 0 0 99.989767051325771 0.00039091957653260366 0 0.00039091957653260366 -0.00014378840552113241 0 0 0 0 99.989257761773388 0.00062868094947087503 0 0.00062868094947087503 0.00016277745260409325 0 0 0 0 49.995023625259137 6.0833739538688729e-05 0 6.0833739538688729e-05 9.3182106951626053e-05 0 0 0 0 99.990047250518501 0.00028060349805425174 0 0.00028060349805425174 5.3489055282058976e-05 0 0 0 0 49.995086330896015 0.00013866739252721151 0 0.00013866739252721151 -1.7594333086944217e-05 0 0 0 0 49.994948131906085 8.7021183070746231e-05 0 8.7021183070746231e-05 -3.1163909027838395e-05 0 0 0 0 49.995022477220232 0.00015540327384861704 0 0.00015540327384861704 -0.00013490651754763145 0 0 0 0 99.98989626381217 0.00025906987495838532 0 0.00025906987495838532 -0.00015113597384844112 0 0 0 0 99.989669879853409 0.00034577305278970627 0 0.00034577305278970627 -0.00029086370884808893 0 0 0 0 49.994834939926704 0.00014934993805076679 0 0.00014934993805076679 -8.0391463551613513e-05 0 0 0 0 99.989175767947927 0.00039453828119018067 0 0.00039453828119018067 -0.00032025020214333831 0 0 0 0 99.989484147950179 0.00013901914584310083 0 0.00013901914584310083 -0.00010338304686580895 0 0 0 0 99.989255728725766 0.00053851428702302224 0 0.00053851428702302224 -6.1165531418943669e-05 0 0 0 0 99.988617296923621 0.0007491893700952377 0 0.0007491893700952377 -0.00023528204483816296 0 0 0 0 99.989178968713986 0.00032101771436487503 0 0.00032101771436487503 -8.2249362128340936e-05 0 0 0 0 99.989225201968111 0.00040519744571618097 0 0.00040519744571618097 -0.00037949896061776267 0 0 0 0 99.989079368502303 0.00041262076078387507 0 0.00041262076078387507 1.1887759357856937e-07 0 0 0 0 99.988872741178511 0.00074358693890632483 0 0.00074358693890632483 -0.00026602661511903052 0 0 0 0 99.988461628450523 0.0004865828677304668 0 0.0004865828677304668 -7.7175854428572765e-07 0 0 0 0 49.994947022651672 0.00016127305907209826 0 0.00016127305907209826 -0.00014227408164998708 0 0 0 0 99.989392062575916 0.00046193118589430701 0 0.00046193118589430701 -0.00021395434670883661 0 0 0 0 49.994696031288072 0.00023132176607903033 0 0.00023132176607903033 -5.736840245574068e-05 0 0 0 0 49.994869472728055 0.00011598048931900412 0 0.00011598048931900412 -1.2728886227985386e-07 0 0 0 0 49.994922580114348 0.00017206606106792647 0 0.00017206606106792647 -9.0068954283514303e-05 0 0 0 0 49.995014163919222 7.2585527581672194e-05 0 7.2585527581672194e-05 -7.5086046961908862e-08 0 0 0 0 49.99504261890695 9.1146467710146584e-05 0 9.1146467710146584e-05 -5.7803774601426277e-05 0 0 0 0 49.994961457484663 9.2575640689745845e-05 0 9.2575640689745845e-05 -5.9545854648422819e-05 0 0 0 0 49.995078229744877 0.00010619827959309613 0 0.00010619827959309613 -0.00011413692283101453 0 0 0 0 49.995090532084845 4.3660781054136283e-05 0 4.3660781054136283e-05 -5.8842153732570162e-05 0 0 0 0 49.995137057759422 1.2306129269433859e-05 0 1.2306129269433859e-05 -1.3782062352023329e-05 0 0 0 0 49.995132888797912 8.7634702924271478e-05 0 8.7634702924271478e-05 -5.5161740448245994e-05 0 0 0 0 49.995031028717676 5.9407851346420711e-05 0 5.9407851346420711e-05 -5.1988839372340382e-05 0 0 0 0 49.995194043574337 2.8392667124492505e-05 0 2.8392667124492505e-05 -2.0386338183197847e-05 0 0 0 0 49.995166988191158 3.9965950314218201e-07 0 3.9965950314218201e-07 -4.4278156016209085e-05 0 0 0 0 49.995162513759851 5.4742233287399508e-05 0 5.4742233287399508e-05 -7.0303162905214432e-05 0 0 0 0 49.995166025551612 2.1012170641252869e-05 0 2.1012170641252869e-05 -6.6188891501276349e-05 0 0 0 0 49.995129398619383 1.9037789132539703e-05 0 1.9037789132539703e-05 -5.3814084632306192e-05 0 0 0 0 49.995127013562069 5.266951937237915e-05 0 5.266951937237915e-05 -8.3630821211088047e-05 0 0 0 0 49.995093862485987 3.5933642309607895e-05 0 3.5933642309607895e-05 -1.350070147333871e-08 0 0 0 0 49.995124808401556 4.2126050397363666e-07 0 4.2126050397363666e-07 -8.5029258857310365e-08 0 0 0 0 49.995111719154693 2.7903526688752491e-05 0 2.7903526688752491e-05 -5.7202750794310348e-05 0 0 0 0 49.995110762887634 -2.8584097690613983e-05 0 -2.8584097690613983e-05 -5.8559947668306004e-05 0 0 0 0 49.995092854466407 -3.7373878206597595e-05 0 -3.7373878206597595e-05 -8.6439518161960598e-09 0 0 0 0 49.995124265964023 -5.4152670205308012e-05 0 -5.4152670205308012e-05 -8.2730338049965478e-05 0 0 0 0 49.995139067227683 -1.6796067325166285e-05 0 -1.6796067325166285e-05 -5.4671739736160922e-05 0 0 0 0 49.99492309729942 -0.000170218389302879 0 -0.000170218389302879 -8.9780599690541092e-05 0 0 0 0 49.995020157102772 -6.9802992171002698e-05 0 -6.9802992171002698e-05 -8.2147664963423494e-08 0 0 0 0 49.995044320863599 -9.0727189257688501e-05 0 -9.0727189257688501e-05 -5.602522534932322e-05 0 0 0 0 49.994966574447062 -9.0878647118834612e-05 0 -9.0878647118834612e-05 -5.9199808085647645e-05 0 0 0 0 49.995085095435229 -0.00010283088326920085 0 -0.00010283088326920085 -0.00011090594713965675 0 0 0 0 49.995097303706075 -4.0593097603947029e-05 0 -4.0593097603947029e-05 -5.9242317889702246e-05 0 0 0 0 49.995137648034984 -1.1039237844452694e-05 0 -1.1039237844452694e-05 -1.4022152747766681e-05 0 0 0 0 49.995031037788976 -5.8880070237408777e-05 0 -5.8880070237408777e-05 -5.1063338167961429e-05 0 0 0 0 49.99513750611078 -8.6999969908613031e-05 0 -8.6999969908613031e-05 -5.3714135983332851e-05 0 0 0 0 49.995164383732345 -1.8750679394332041e-05 0 -1.8750679394332041e-05 -6.457348138489483e-05 0 0 0 0 49.995169150628726 -5.15947803230101e-05 0 -5.15947803230101e-05 -6.8272334735788133e-05 0 0 0 0 49.995194592230888 -2.6784503739259855e-05 0 -2.6784503739259855e-05 -2.0090650339844205e-05 0 0 0 0 49.995166564430519 9.7908239761650453e-07 0 9.7908239761650453e-07 -4.2879414925918386e-05 0 0 0 0 49.995192691723901 1.6633376809723779e-05 0 1.6633376809723779e-05 3.0865581751935453e-05 0 0 0 0 49.995211940523241 -3.362819233737824e-05 0 -3.362819233737824e-05 8.1632997168863927e-05 0 0 0 0 49.99519290885479 -5.1440237032861711e-05 0 -5.1440237032861711e-05 1.3712587517648376e-05 0 0 0 0 49.995087251508039 -2.6388177562235984e-05 0 -2.6388177562235984e-05 2.8240919698664387e-05 0 0 0 0 49.995167613075083 -8.5683244519386482e-05 0 -8.5683244519386482e-05 6.9833466530028795e-05 0 0 0 0 49.995174094400454 6.9096455355789008e-06 0 6.9096455355789008e-06 8.5554748737665104e-05 0 0 0 0 49.995203575226334 9.8720908946952769e-06 0 9.8720908946952769e-06 0.00022033556281682979 0 0 0 0 49.995204175540607 -9.0184917187690965e-05 0 -9.0184917187690965e-05 0.00022058948304728705 0 0 0 0 49.995148582096022 -1.429903083829552e-05 0 -1.429903083829552e-05 0.00015271418165143053 0 0 0 0 49.995206759392431 -2.2954822629575621e-05 0 -2.2954822629575621e-05 0.00029583592371556339 0 0 0 0 49.995233153783602 -6.1826361088953565e-05 0 -6.1826361088953565e-05 0.00029176954883411042 0 0 0 0 49.995233446911016 2.6516215842300225e-05 0 2.6516215842300225e-05 0.00028652087035449753 0 0 0 0 49.99522527847823 -3.7417119736897586e-05 0 -3.7417119736897586e-05 0.00021550488355818635 0 0 0 0 49.995212763716836 2.4660770131187403e-05 0 2.4660770131187403e-05 0.00014818743010722196 0 0 0 0 49.995211432111546 -5.4359733536257451e-05 0 -5.4359733536257451e-05 0.00014404821296187405 0 0 0 0 99.989884631082305 -0.00056303240278558341 0 -0.00056303240278558341 0.00029241428256120833 0 0 0 0 99.990076610263941 -0.0001694187753868602 0 -0.0001694187753868602 0.00016728093059210848 0 0 0 0 99.990181943568359 -0.00075761147655275651 0 -0.00075761147655275651 0.00043744768518315727 0 0 0 0 99.990482454421226 -0.00055956296159632296 0 -0.00055956296159632296 0.00028893372476493774 0 0 0 0 99.990295580070551 -0.00024310898917122422 0 -0.00024310898917122422 0.00035528225222489695 0 0 0 0 49.995216917349921 -0.00016803335013968823 0 -0.00016803335013968823 0.00031062181423194984 0 0 0 0 49.995133200675014 -7.8143864327951144e-05 0 -7.8143864327951144e-05 0.00023691424736076437 0 0 0 0 49.995137530464717 -0.00014967436921888488 0 -0.00014967436921888488 0.0001579557095375804 0 0 0 0 99.990266401350027 -0.00030943079099039544 0 -0.00030943079099039544 0.00027054737292556337 0 0 0 0 99.990046620022653 -0.00028000569053873638 0 -0.00028000569053873638 5.6842618198752154e-05 0 0 0 0 49.995023310011334 -5.9943836772976679e-05 0 -5.9943836772976679e-05 9.2598578499566511e-05 0 0 0 0 49.995087626939153 -0.00013888879212433215 0 -0.00013888879212433215 -1.8795484414156051e-05 0 0 0 0 99.98978171799331 -0.00037445816494429193 0 -0.00037445816494429193 -0.00012721811159902913 0 0 0 0 99.989676481060542 -0.00018395766003382873 0 -0.00018395766003382873 6.9221309101690593e-05 0 0 0 0 99.990011947817834 -0.00061180578956541987 0 -0.00061180578956541987 0.0001637384687615815 0 0 0 0 99.989242013635931 -0.00064905320372413621 0 -0.00064905320372413621 0.00016522576436249351 0 0 0 0 99.989185652402057 -0.00040605466683157004 0 -0.00040605466683157004 -0.00031850442857342593 0 0 0 0 99.989268565547263 -0.00054718050859313611 0 -0.00054718050859313611 -7.8484363796320382e-05 0 0 0 0 99.989508796148812 -0.00013131032414307183 0 -0.00013131032414307183 -0.00010568603615177473 0 0 0 0 99.988602705792118 -0.00074637879005482041 0 -0.00074637879005482041 -0.00022919002314366623 0 0 0 0 49.994947124109103 -8.8197546186861265e-05 0 -8.8197546186861265e-05 -3.1009292030028537e-05 0 0 0 0 49.995027252386308 -0.00015352793363222978 0 -0.00015352793363222978 -0.00013259603386515755 0 0 0 0 99.989894248218206 -0.00027589612661588908 0 -0.00027589612661588908 -0.00014133307833896156 0 0 0 0 99.989671248902596 -0.00035303635901313008 0 -0.00035303635901313008 -0.00028982569566403968 0 0 0 0 49.994835624451298 -0.00014857029203205411 0 -0.00014857029203205411 -8.004300719713787e-05 0 0 0 0 49.994946128490142 -0.0001635905464719372 0 -0.0001635905464719372 -0.00014108259671400159 0 0 0 0 99.989392105632106 -0.00046306678175269496 0 -0.00046306678175269496 -0.00021333122464011779 0 0 0 0 49.994696052816153 -0.00023164834003587176 0 -0.00023164834003587176 -5.7757046508513562e-05 0 0 0 0 49.994870945003186 -0.0001153854309899048 0 -0.0001153854309899048 -1.2341533593179405e-07 0 0 0 0 99.989227547807104 -0.00041147804434094948 0 -0.00041147804434094948 -0.00038905220604159478 0 0 0 0 99.989177448670034 -0.00032183639009580737 0 -0.00032183639009580737 -8.1184822467962646e-05 0 0 0 0 99.989075558586137 -0.00041151882848988302 0 -0.00041151882848988302 1.1991545692269741e-07 0 0 0 0 99.988866181307003 -0.0007443413808209989 0 -0.0007443413808209989 -0.00025564304633983307 0 0 0 0 99.988447700320194 -0.00048093796354619408 0 -0.00048093796354619408 -7.7016926707749172e-07 0 0 0 0 99.987824935584285 -0.001170692606021788 0 -0.001170692606021788 -0.00036803287569498323 0 0 0 0 99.988429680688114 -0.00053092166135238557 0 -0.00053092166135238557 -0.00041224198953259306 0 0 0 0 99.987072107645872 -0.00070698745865769707 0 -0.00070698745865769707 -0.00062457385799060186 0 0 0 0 99.98663106339086 -0.0017746716362082038 0 -0.0017746716362082038 -0.00068902840103524836 0 0 0 0 99.987395191261839 -0.00088418665711140752 0 -0.00088418665711140752 7.7772635391834166e-07 0 0 0 0 99.984950018578274 -0.00050370178467216606 0 -0.00050370178467216606 -4.3876327299953346e-06 0 0 0 0 99.98188732882204 -0.0034033253709149932 0 -0.0034033253709149932 -0.00061693006243721698 0 0 0 0 99.985011733824649 -0.0016399563642530831 0 -0.0016399563642530831 -0.00057751918651044389 0 0 0 0 99.985353742927828 -0.0020897290554251335 0 -0.0020897290554251335 -4.3194095598923831e-05 0 0 0 0 99.985339574754107 -0.0031982268626385727 0 -0.0031982268626385727 0.00066761682933420851 0 0 0 0 99.987222986864253 -0.0016202765243207378 0 -0.0016202765243207378 1.0639971453651377e-06 0 0 0 0 99.987228078192402 -0.0016852657053020516 0 -0.0016852657053020516 0.00021162098300443369 0 0 0 0 99.988420509006119 -0.00077974618706940131 0 -0.00077974618706940131 -0.00030107093046394327 0 0 0 0 99.988489151232216 -0.00092194545494927072 0 -0.00092194545494927072 -1.2467053131159033e-05 0 0 0 0 99.987582937424349 -0.0012479993544215727 0 -0.0012479993544215727 -0.00030416558988978319 0 0 0 0 99.964577390575414 -0.039201125915877356 0 -0.039201125915877356 0.00089255044747412306 0 0 0 0 99.936742684791525 -0.03724414729721183 0 -0.03724414729721183 0.0033112390202566923 0 0 0 0 99.947942022093684 -0.033302394361874162 0 -0.033302394361874162 -4.5924112585360925e-06 0 0 0 0 99.93620661076568 -0.018039155086805529 0 -0.018039155086805529 0.0024216879005263497 0 0 0 0 99.975987406820877 -0.010087405806791164 0 -0.010087405806791164 0.0037356185844213117 0 0 0 0 99.966746411016629 0.0055871292665752087 0 0.0055871292665752087 -2.3962206376712962e-05 0 0 0 0 99.980805641724828 -0.0055311127095385559 0 -0.0055311127095385559 -0.0024429826227315861 0 0 0 0 99.982050129759955 -0.0037262935052463043 0 -0.0037262935052463043 7.7829271200281179e-06 0 0 0 0 99.980868936168008 -0.001708202038940305 0 -0.001708202038940305 -0.0020443245892122763 0 0 0 0 99.982165176495528 -0.0036147115927451152 0 -0.0036147115927451152 0.00070984067458048326 0 0 0 0 99.985700353734956 -0.0035410605780204574 0 -0.0035410605780204574 0.00071131284202234158 0 0 0 0 99.982045488868039 -0.0066366521699562243 0 -0.0066366521699562243 0.0013419362920025963 0 0 0 0 99.985426224824778 -0.010363296889891543 0 -0.010363296889891543 0.0037107525668294531 0 0 0 0 99.972627499671148 -0.0081719432208947271 0 -0.0081719432208947271 0.0043315330790714597 0 0 0 0 99.98435273269024 -0.012404450629019367 0 -0.012404450629019367 -0.00013304532973807759 0 0 0 0 99.98797730197839 -0.018908851749497142 0 -0.018908851749497142 -0.0032123346870151074 0 0 0 0 99.995500450452482 -0.015493449017164047 0 -0.015493449017164047 -0.0027300963611951736 0 0 0 0 100.0168493114254 -0.024988980527842999 0 -0.024988980527842999 -0.0034670472100610116 0 0 0 0 100.00119251636352 -0.011147426654256155 0 -0.011147426654256155 -0.0029708630591854372 0 0 0 0 99.991274328810732 -0.013924424129602212 0 -0.013924424129602212 -0.0028624397504478658 0 0 0 0 99.992516334580841 -0.01097977561667925 0 -0.01097977561667925 2.834587229893091e-05 0 0 0 0 99.993101219249638 -0.0079681452583461338 0 -0.0079681452583461338 7.8177076377548729e-05 0 0 0 0 99.988504914240139 -0.0079472974513681554 0 -0.0079472974513681554 8.1738608041804009e-05 0 0 0 0 99.989353252409273 -0.0067870716863863007 0 -0.0067870716863863007 0.0013027259423388456 0 0 0 0 99.986925770505877 -0.0046802003966957403 0 -0.0046802003966957403 0.00076906480740608651 0 0 0 0 99.99082430022338 -0.0049265913221998537 0 -0.0049265913221998537 0.00076412325856678692 0 0 0 0 99.991578835251744 -0.0038347481974262722 0 -0.0038347481974262722 -0.0001083680822755906 0 0 0 0 99.993447420622488 -0.0055119112409129046 0 -0.0055119112409129046 -5.7793949882148355e-05 0 0 0 0 99.994097908446292 -0.0053008662760412901 0 -0.0053008662760412901 -0.0011299352793570396 0 0 0 0 99.990488808327768 -0.005453666187543409 0 -0.005453666187543409 -5.8931639561666561e-05 0 0 0 0 99.99445057281514 -0.0073657439956098872 0 -0.0073657439956098872 -0.0016079643394196429 0 0 0 0 99.996426865746798 -0.0070616119296925718 0 -0.0070616119296925718 -0.0016409521684161734 0 0 0 0 99.996666703901155 -0.0068920457765913531 0 -0.0068920457765913531 -0.0029921177902817045 0 0 0 0 99.99968004485595 -0.0080836864314690407 0 -0.0080836864314690407 -0.0030340902457983701 0 0 0 0 99.995780592304868 -0.0096359278487375584 0 -0.0096359278487375584 -0.0029962347971464755 0 0 0 0 99.989898967768795 -0.0013607228164821794 0 -0.0013607228164821794 0.00032968869265944994 0 0 0 0 99.989382415532873 -0.00071947160337593554 0 -0.00071947160337593554 -1.2043433389842344e-05 0 0 0 0 99.988873223620203 -0.0015710704719035613 0 -0.0015710704719035613 0.0002133495079610763 0 0 0 0 99.988559446157979 -0.0013327425658154603 0 -0.0013327425658154603 0.00032954271405155643 0 0 0 0 99.987689927307315 -0.0025031192160646291 0 -0.0025031192160646291 0.00058469446198657592 0 0 0 0 99.988523370026769 -0.0032448834430789143 0 -0.0032448834430789143 0.00066741912445354083 0 0 0 0 99.98999431709467 -0.0026585983864068903 0 -0.0026585983864068903 0.00058722276205190192 0 0 0 0 99.989184117211835 -0.0033922513753933507 0 -0.0033922513753933507 0.00047272387927092254 0 0 0 0 99.99167119809681 -0.003581384160242005 0 -0.003581384160242005 0.00047993261736019386 0 0 0 0 99.990464577565945 -0.0024530577777502555 0 -0.0024530577777502555 0.00033304890228406155 0 0 0 0 99.990149338195238 -0.0014422138103398379 0 -0.0014422138103398379 0.00044451822863046881 0 0 0 0 99.990860842845677 -0.0020762415634571463 0 -0.0020762415634571463 0.00049662467766605118 0 0 0 0 99.989180215811871 -0.0019350429794428327 0 -0.0019350429794428327 0.00049361137259120585 0 0 0 0 99.9894877987374 -0.0010228557921387583 0 -0.0010228557921387583 0.00038989235145930911 0 0 0 0 99.990575684487112 -0.0010841519816837907 0 -0.0010841519816837907 0.00038826095969448954 0 0 0 0 99.990747648769229 -0.0010265536836902875 0 -0.0010265536836902875 0.00043862265167818933 0 0 0 0 99.991643055357599 -0.0011264015827209877 0 -0.0011264015827209877 0.00043461750771495774 0 0 0 0 99.992369392112778 -0.0018519687100583692 0 -0.0018519687100583692 0.00028447331473139127 0 0 0 0 99.991356822743796 -0.0015577504144363102 0 -0.0015577504144363102 0.00044364214099800077 0 0 0 0 99.991188120910806 -0.0017512764610933132 0 -0.0017512764610933132 0.00028450975927246571 0 0 0 0 99.992124147344384 -0.0025917639442035955 0 -0.0025917639442035955 0.00033978317966199217 0 0 0 0 99.992144181262574 -0.0027091240114889992 0 -0.0027091240114889992 -9.7505084276350122e-05 0 0 0 0 99.993523401381253 -0.0027598858626598894 0 -0.0027598858626598894 -9.6084651717400285e-05 0 0 0 0 99.992461374381946 -0.0018692806678260723 0 -0.0018692806678260723 -5.756878163992122e-05 0 0 0 0 99.993798316023685 -0.0017133109495256868 0 -0.0017133109495256868 -0.00049762058959336788 0 0 0 0 99.99345104742406 -0.0018990692922738563 0 -0.0018990692922738563 -5.7568781639921897e-05 0 0 0 0 99.992427224555968 -0.0012691122561030899 0 -0.0012691122561030899 0.00029248239709793748 0 0 0 0 99.992602585798295 -0.0011813235543930956 0 -0.0011813235543930956 2.1774699113718751e-05 0 0 0 0 99.991816187689665 -0.00072787633135337087 0 -0.00072787633135337087 0.00033281608816162957 0 0 0 0 99.991611845902185 -0.0011946860358976871 0 -0.0011946860358976871 0.00029248239709793802 0 0 0 0 99.999976466255703 -0.0047215526191754379 0 -0.0047215526191754379 -0.0028985308442292974 0 0 0 0 99.997361887232501 -0.0052339395116666803 0 -0.0052339395116666803 -0.0029233369137083428 0 0 0 0 100.00008197259149 -0.0061299921425798532 0 -0.0061299921425798532 -0.0029695227800056356 0 0 0 0 99.99737474167182 -0.0043833704851063285 0 -0.0043833704851063285 -0.0020195282115758302 0 0 0 0 99.997065321677781 -0.0045305142471360783 0 -0.0045305142471360783 -0.0019847398067232608 0 0 0 0 99.995555471334342 -0.0051714041221477469 0 -0.0051714041221477469 -0.0011507634657135996 0 0 0 0 99.993498663624223 -0.003884099757108113 0 -0.003884099757108113 -0.00010712474647260745 0 0 0 0 99.993941460612632 -0.0037511133830508943 0 -0.0037511133830508943 -0.00082949077130761457 0 0 0 0 99.995213804514833 -0.0037190837360832826 0 -0.0037190837360832826 -0.00083222230218463699 0 0 0 0 99.993877914220093 -0.0026367137892668643 0 -0.0026367137892668643 -0.00069029011905477351 0 0 0 0 99.995425997827965 -0.002235853561048059 0 -0.002235853561048059 -0.0012518907301915325 0 0 0 0 99.994890349589696 -0.0025676722073439216 0 -0.0025676722073439216 -0.00069029011905477231 0 0 0 0 99.996625224611648 -0.003125886522953307 0 -0.003125886522953307 -0.0016546719542144101 0 0 0 0 99.995921210455776 -0.0033596623026869599 0 -0.0033596623026869599 -0.0016546719542144101 0 0 0 0 99.997479080161611 -0.0026107226709279172 0 -0.0026107226709279172 -0.0021875612475388 0 0 0 0 99.998290501481051 -0.0035972145127140566 0 -0.0035972145127140566 -0.0027241612386414947 0 0 0 0 100.0000050286269 -0.0028327486548360477 0 -0.0028327486548360477 -0.0029097566689632801 0 0 0 0 99.997913025956223 -0.0037770172722292102 0 -0.0037770172722292102 -0.0027241612386414943 0 0 0 0 99.999996698985115 -0.0018899823611175375 0 -0.0018899823611175375 -0.0029242597382829289 0 0 0 0 99.998489551682951 -0.0015602433411645729 0 -0.0015602433411645729 -0.0029218607936558265 0 0 0 0 99.998190258189197 -0.002486910632603926 0 -0.002486910632603926 -0.0029150295713322892 0 0 0 0 99.998162755788599 -0.0024823946332951921 0 -0.0024823946332951921 -0.0021669238679097695 0 0 0 0 99.997190333793242 -0.001558854860363214 0 -0.001558854860363214 -0.0018079801219686516 0 0 0 0 99.996749946431692 -0.0017087031775320418 0 -0.0017087031775320418 -0.0018351580697338749 0 0 0 0 99.996141674227601 -0.0021554218726614152 0 -0.0021554218726614152 -0.0012454469396066142 0 0 0 0 99.995072911890588 -0.0013467444560432463 0 -0.0013467444560432463 -0.00097149231772701138 0 0 0 0 99.995466306797766 -0.0012630005422529899 0 -0.0012630005422529899 -0.00096881468719908163 0 0 0 0 99.996183797594654 -0.00074825244630559473 0 -0.00074825244630559473 -0.0014254398057452263 0 0 0 0 99.995519127205171 -1.4537623836369945e-05 0 -1.4537623836369945e-05 -0.0010714172434341408 0 0 0 0 99.996455317469554 -0.00065492490976980298 0 -0.00065492490976980298 -0.0014159162290119588 0 0 0 0 99.997184987820674 -3.9205672460766814e-05 0 -3.9205672460766814e-05 -0.001913137040821635 0 0 0 0 99.998114860889018 -0.00092202358034048043 0 -0.00092202358034048043 -0.0023429976051141926 0 0 0 0 99.998318357077096 -0.00076654536573143763 0 -0.00076654536573143763 -0.0023219054352068931 0 0 0 0 99.998520217436862 -0.00041499748954174087 0 -0.00041499748954174087 -0.0029155678705782315 0 0 0 0 100.00000027624233 -0.00092997885323724109 0 -0.00092997885323724109 -0.0029173812306237286 0 0 0 0 99.992975960312833 -0.00068148738371457719 0 -0.00068148738371457719 0.00014091984377682276 0 0 0 0 99.992352070943866 -0.00081487740904298447 0 -0.00081487740904298447 0.00033811326414139725 0 0 0 0 99.99260011360775 -0.00065162814008947996 0 -0.00065162814008947996 0.00014112189706950732 0 0 0 0 99.993270635248905 -0.0012079424426286115 0 -0.0012079424426286115 1.9541247463598747e-05 0 0 0 0 99.993621399725612 -0.00098484943698543535 0 -0.00098484943698543535 -0.00031183054726404043 0 0 0 0 99.994494605543878 -0.0016838032788986683 0 -0.0016838032788986683 -0.00049704315535098876 0 0 0 0 99.994089068125959 -0.0009637549856788977 0 -0.0009637549856788977 -0.00031090574907548192 0 0 0 0 99.994619645761986 -0.00056648636177794001 0 -0.00056648636177794001 -0.0006749835753493234 0 0 0 0 99.994840862743331 -0.00052742127125816472 0 -0.00052742127125816472 -0.00067482940715461216 0 0 0 0 99.99413149185807 4.5014169542576497e-06 0 4.5014169542576497e-06 -0.00040277089163548197 0 0 0 0 99.99357618095803 -0.00040163940253739911 0 -0.00040163940253739911 -0.00011882089040029901 0 0 0 0 99.993026492590161 1.6072258308499811e-05 0 1.6072258308499811e-05 8.4041694564837262e-05 0 0 0 0 99.993377904134263 -0.00040090466204227852 0 -0.00040090466204227852 -0.00011879629088090878 0 0 0 0 99.992440182878227 -0.00024076894304498209 0 -0.00024076894304498209 0.00026597224548886769 0 0 0 0 99.992615815709428 -0.00028667381440267343 0 -0.00028667381440267343 0.00026587578667007939 0 0 0 0 99.992215856718758 1.8795078905013436e-05 0 1.8795078905013436e-05 0.00040757747211695643 0 0 0 0 99.991836049876383 -0.00020070040020002996 0 -0.00020070040020002996 0.00053967709145588509 0 0 0 0 99.991749065061072 -2.7844114351515954e-05 0 -2.7844114351515954e-05 0.00057647363910422363 0 0 0 0 99.991743157451083 -0.00013392141247698178 0 -0.00013392141247698178 0.00052501368004823871 0 0 0 0 99.992139212718143 -0.00045391014617301865 0 -0.00045391014617301865 0.00043216077803156019 0 0 0 0 99.991693810468291 -0.00021411868176999605 0 -0.00021411868176999605 0.00056714656496611223 0 0 0 0 99.991480914397243 -0.00024321091021102005 0 -0.00024321091021102005 0.00054799322274249815 0 0 0 0 99.991598036327559 -0.00052603324355791643 0 -0.00052603324355791643 0.00053835088370794183 0 0 0 0 99.991890551008055 -0.00038648891675079153 0 -0.00038648891675079153 0.00041963008616872281 0 0 0 0 49.995450786632887 -0.00014976338902390404 0 -0.00014976338902390404 0.00062162753020274133 0 0 0 0 49.995639869543162 -9.1779903377570073e-05 0 -9.1779903377570073e-05 0.00062169482391555113 0 0 0 0 99.991279739086622 -0.00022018245998159944 0 -0.00022018245998159944 0.00061821387161710905 0 0 0 0 49.995497292347181 -9.6146875904431855e-05 0 -9.6146875904431855e-05 0.00066553800738141018 0 0 0 0 49.995687447376973 -5.3750777383309552e-05 0 -5.3750777383309552e-05 0.00065441285855826273 0 0 0 0 99.991374894754017 -0.00011127324219832807 0 -0.00011127324219832807 0.00062543837278118426 0 0 0 0 49.995529968491155 -3.713201955269003e-05 0 -3.713201955269003e-05 0.00068281027698937919 0 0 0 0 49.995528772886928 -1.1783853503775053e-05 0 -1.1783853503775053e-05 0.00070456396948092789 0 0 0 0 49.995405320910663 -8.7283490292922863e-06 0 -8.7283490292922863e-06 0.00071770042267178813 0 0 0 0 49.995405259880272 -3.9748496347917126e-05 0 -3.9748496347917126e-05 0.00071248611837983384 0 0 0 0 49.995329694163104 -2.0450971123436267e-07 0 -2.0450971123436267e-07 0.00075108211550838197 0 0 0 0 49.995347154784326 1.8963503365655677e-06 0 1.8963503365655677e-06 0.00074283495998379032 0 0 0 0 49.995347154944852 -1.2520093410357867e-05 0 -1.2520093410357867e-05 0.00074108740742802044 0 0 0 0 49.995324300309903 -1.2349026621080001e-05 0 -1.2349026621080001e-05 0.00073400412957040759 0 0 0 0 49.995333117707787 5.7843947981091326e-06 0 5.7843947981091326e-06 0.00070927848740264302 0 0 0 0 49.995333117239284 -3.633018301057648e-05 0 -3.633018301057648e-05 0.00070947279894493218 0 0 0 0 49.995314159513555 -5.5545496666787664e-05 0 -5.5545496666787664e-05 0.00064618495481537418 0 0 0 0 49.99532889545867 5.2215875553760123e-06 0 5.2215875553760123e-06 0.00063330897845465634 0 0 0 0 49.995305782518358 -2.3138768703216099e-05 0 -2.3138768703216099e-05 0.00068545085278499918 0 0 0 0 49.995501436215172 -3.7252444849708992e-05 0 -3.7252444849708992e-05 0.00067884760482789827 0 0 0 0 49.995385169666633 -1.5791614870833744e-05 0 -1.5791614870833744e-05 0.0006684307397617534 0 0 0 0 49.995371686794897 -7.1436536757219101e-05 0 -7.1436536757219101e-05 0.00067791482088549332 0 0 0 0 49.995479387908745 -7.2160384266213183e-05 0 -7.2160384266213183e-05 0.00061260916570168335 0 0 0 0 49.995359543480959 -6.7323259785493673e-05 0 -6.7323259785493673e-05 0.0006197049333595871 0 0 0 0 49.995305622921592 -1.3250956553329055e-05 0 -1.3250956553329055e-05 0.00062267625794110225 0 0 0 0 49.995368327621293 -8.5804084496533502e-05 0 -8.5804084496533502e-05 0.00055100003647076234 0 0 0 0 49.995270142154709 -6.5922747632556338e-05 0 -6.5922747632556338e-05 0.00055100003647076223 0 0 0 0 49.995265891601207 -1.6416398239240575e-05 0 -1.6416398239240575e-05 0.00062648544505887309 0 0 0 0 49.995321812623843 -3.4883252147214266e-05 0 -3.4883252147214266e-05 0.00055026474310978352 0 0 0 0 49.995249845559556 -2.7102052936201415e-05 0 -2.7102052936201415e-05 0.00055026474310978363 0 0 0 0 49.995234104488418 1.8483123978074137e-05 0 1.8483123978074137e-05 0.00044530442408259531 0 0 0 0 49.995293962304629 -2.1967619297587402e-05 0 -2.1967619297587402e-05 0.00046111958116841695 0 0 0 0 49.995254508580089 -6.727894012144631e-05 0 -6.727894012144631e-05 0.00043887272907318391 0 0 0 0 49.995245450466406 -3.8459159440818715e-05 0 -3.8459159440818715e-05 0.00035754678610291988 0 0 0 0 49.995363505972932 -9.9635455587265332e-05 0 -9.9635455587265332e-05 0.00046328710144456038 0 0 0 0 49.995249096446173 -5.2210128912222277e-05 0 -5.2210128912222277e-05 0.00044859152235278031 0 0 0 0 49.99531293469181 -2.4298001413984452e-05 0 -2.4298001413984452e-05 0.0004587759118478292 0 0 0 0 49.995234482808883 2.5068778252219557e-06 0 2.5068778252219557e-06 0.00036562754515942866 0 0 0 0 49.995259764385835 -0.00010231099625040727 0 -0.00010231099625040727 0.00036327160431588886 0 0 0 0 49.995259639067967 -0.00010147330174560011 0 -0.00010147330174560011 0.00036868828594452884 0 0 0 0 49.99540200153092 -0.00013609265363345713 0 -0.00013609265363345713 0.00046772017063059323 0 0 0 0 49.995295489398728 -0.00017919439011551585 0 -0.00017919439011551585 0.00045043742947152815 0 0 0 0 99.990804003061385 -0.00037413142155151569 0 -0.00037413142155151569 0.00049516160013569031 0 0 0 0 99.990519278135906 -0.00036633590808034586 0 -0.00036633590808034586 0.00041837412178669662 0 0 0 0 99.990769221297569 -0.00027497231925126264 0 -0.00027497231925126264 0.00042723197207797164 0 0 0 0 99.99098108437056 -0.00081153541838225153 0 -0.00081153541838225153 0.00042063939255930857 0 0 0 0 99.990622246236853 -0.00061212971063612492 0 -0.00061212971063612492 0.00049376053222716619 0 0 0 0 99.991197631452678 -0.00065385122031013515 0 -0.00065385122031013515 0.00047118815284989039 0 0 0 0 99.990932422239212 -0.0002996982380472406 0 -0.0002996982380472406 0.00051560878897635937 0 0 0 0 99.991155116846926 -0.00068879910807089742 0 -0.00068879910807089742 0.00046600770900781519 0 0 0 0 99.991732654867519 -0.00077252366878218241 0 -0.00077252366878218241 0.00046600770900781519 0 0 0 0 99.991289314295045 -0.00042474101865790266 0 -0.00042474101865790266 0.00051167532220101376 0 0 0 0 99.991314059791534 -0.00039021816728913633 0 -0.00039021816728913633 0.00051560878897635937 0 0 0 0 99.991033932811888 -0.00028206675627212964 0 -0.00028206675627212964 0.00057943294658869388 0 0 0 0 49.995443619008654 -0.00016996706472367909 0 -0.00016996706472367909 0.00055301283132597775 0 0 0 0 49.995516966405944 -0.00011583710321713876 0 -0.00011583710321713876 0.00058792535693533599 0 0 0 0 49.995322629413806 -0.00013905292539597445 0 -0.00013905292539597445 0.00055301283132597797 0 0 0 0 
</DataArray>
<DataArray type="Float64" Name="displacement_divergence" format="ascii">
0.99939032983698783 0.99949614552051746 0.99965316387733694 0.9997709618981514 0.99940356519527263 0.99969728066405239 0.99981919698710764 0.99978663039618298 0.99980350851268351 0.99982088353500875 0.99979066273971762 0.99986102169975055 0.99986962355679776 0.99986241440949586 0.99988203987204904 0.99982643012676364 0.99993437635089433 1.0001336524916444 0.99987342771930698 0.99987444833819039 0.999858780088416 0.99987297646670237 0.9998663953070398 0.99984915408368247 0.99981062952744837 0.99983102882174002 0.99985304822616994 0.99987906601853827 0.99985056008428508 0.99987442980749108 0.99985807551552197 0.99987651953692513 0.99988856271036464 0.99987817930549749 0.99988077048873281 0.99989779634871367 0.99988836812785253 0.9998905088213722 0.9998927010473988 0.99988233481195199 0.99989581184165532 0.99990845328057387 0.99990556615603643 0.99992106407006576 0.99990803734488309 0.99990194297903956 0.99991051572570722 0.99991053687442966 0.99989992362045477 0.99990561301246417 0.99998404039830302 0.99989040066648471 0.99991678340701706 0.9998853494784542 0.99990696679583968 0.99989720941035021 0.9999166537182631 0.99992636375331623 0.99990408258489571 0.99991699234713605 0.99995008416608855 0.9999415880783854 0.99996914947422233 0.99991949533769608 0.99993466070503334 0.99997162003408735 0.99995289585802261 0.99995352128070736 0.99997105934577613 0.99994487926840603 0.99995138490784552 0.99995329617994899 0.99995568621740205 0.99997101896629381 0.99994088607682452 0.99994143722139761 0.9999500166139389 0.99993988353851659 0.99993019940290273 0.99994586899951343 0.99992665466815267 0.99993205038725463 0.99993727964891876 0.99991872611182864 0.99991955385745102 0.99993269595844025 0.9999293216182904 0.99991194472312461 0.9999274548894318 0.99991645863099687 0.99992033040466155 0.99991765309770975 0.99991922677673917 0.99992613403532926 0.99992681211399259 0.99992130094929321 0.99992414906252436 0.99993347392794329 0.99993261006659218 0.99993987470439205 0.99993274462036608 0.99993766974012155 0.99992672946273908 0.99993255150236993 0.99992718477053721 0.99993101294484865 0.99992690706407061 0.99993226893845666 0.99993099704818977 0.999934526104441 0.99992872484424999 0.99993899062921121 0.99993723344109686 0.99994165453178774 0.99994468130503655 0.99994720620523969 0.99995335469925228 0.99995007495660593 0.99995631375031735 0.99997083904218165 0.9999704983135943 0.99995766147240706 0.99995954870057069 0.9999706419249712 0.99995609323577472 0.99995280806406384 0.99996001796412826 0.99994925249527333 0.99994029386513161 0.99994869499909766 0.99994522403349306 0.99995390667672579 0.99992368853283187 0.99992103315249181 0.99992192665841562 0.99992117459480445 0.99991921138211781 0.99991986351860118 0.99991939382348116 0.99992091243882775 0.99992087683068898 0.9999211892957317 0.99992181563814109 0.99992177169797491 0.99992297932075247 0.9999225125854696 0.99992237907012138 0.99992284035986068 0.99992468747102048 0.99992782252000056 0.99992427792139449 0.99992099571958104 0.99992001538401165 0.99992688652671424 0.99992620185242476 0.99992376955709106 0.99992326256228137 0.99992254609980558 0.99992572626321197 0.99992259403247585 0.99992035636842347 0.99992135620243006 0.99992294680250671 0.99992329752083497 0.99991904526337105 0.99992154816610423 0.9999252958168815 0.99992009476481558 0.99992222146471954 0.99991622019666115 0.99991765737577121 0.99992199532421788 0.99991839874628463 0.99991800280753262 0.99991457392853944 0.99991638716173947 0.99991680674532302 0.9999122118984024 0.99991202961273729 0.99991222076405917 0.99991505616279719 0.99991768998464947 0.99991326582493489 0.99990954446548197 0.99991275806651037 0.99991258153853269 0.99991206674169986 0.99991557278685583 0.99991415838568465 0.99991670599353455 0.99991653840892747 0.99991867254578859 0.99991852755080934 0.9999196728172649 0.9999178510215736 0.99991757784074708 0.9999160903719998 0.9999158172573186 0.99991365488608053 0.99991514647035196 0.99991395142343265 0.99991208453127844 0.99991042843924494 0.9999088411670799 0.99990719032992359 0.99990707982113858 0.99991056293168523 0.99991013335041934 0.99990854570196608 0.99990597369080736 0.99990846083737128 0.99990508605901063 0.99990468480046057 0.99990223035855175 0.99990398917801815 0.99990435858979643 0.99990579767072663 0.99990461572538369 0.99990254755639385 0.99990802594106665 0.99990748310479938 0.99990194866043736 0.99990540167066277 0.99991078020393598 0.9999074509921948 0.99990591771724557 0.99990232377489963 0.99990119663049681 0.99990111214732413 0.99989695703648196 0.99989623073808254 0.99989675018911317 0.99988463293560659 0.99989041731759543 0.99988967965095488 0.99989309235832569 0.99989382766305901 0.9998970608818335 0.99989805789281516 0.99989746756367293 0.99989509947195387 0.99989592215280831 0.9998972827965793 0.99989250297868193 0.9998915861982427 0.99988787240071597 0.99989086932264348 0.9998907128352863 0.99988564693078796 0.99988367937857459 0.99990191563028807 0.99990232437612281 0.99990337582138156 0.99990170955369884 0.99990233643650828 0.99990136365489302 0.99989941310015018 0.99989920607344074 0.99990050760702021 0.99989792506609798 0.99989650041807365 0.99989965796189029 0.99990026647806196 0.99990178133130125 0.9999014318468239 0.99990071650261003 0.99990245948908507 0.99990102879268838 0.99990101900078165 0.99990186322205921 0.99990080280397109 0.99990150459324389 0.99990190002225521 0.99990179994638151 0.99990242116435624 0.99990341245932624 0.99990138515317784 0.99989944703115208 0.99990241047203465 0.99990056650353365 0.9998991770203669 0.99989792633030006 0.99989962722571912 0.99990025192634491 0.99989647328450149 0.99989248735656555 0.99989726296338166 0.99989156083458464 0.99989587012612069 0.99988403577299401 0.99988574808120911 0.99989074064900696 0.99988792462573384 0.99989090596837638 0.99988460183862826 0.99989296952798068 0.9998903066673579 0.99988950722405145 0.99989509934608556 0.99989381378018094 0.99989701485562987 0.9998979920350819 0.99989747378031446 0.99990121938135346 0.99990109361652613 0.99990225308328839 0.99989615103071317 0.99989684626898001 0.99989640584623662 0.99990267415636613 0.9999044097806149 0.99990175236540713 0.99990747129205881 0.99990805045389419 0.99990741822978524 0.99990587648778406 0.99990540457279653 0.99991080592736903 0.99991010514548195 0.99990854370015181 0.9999060330576941 0.99990849072355614 0.99991056358362906 0.99991043342341146 0.99990883975881539 0.99990721034030716 0.9999071080475096 0.99990585315823033 0.99990439956767951 0.99990408760146465 0.99990224652227078 0.99990466596258964 0.99990516530369633 0.99993371676545251 0.99982939964578432 0.99988164734369411 1.0001334355602165 0.99965860712588606 0.99949677816226234 0.99939017776342365 0.99940466910107073 0.99976951239763967 0.99970043109146989 0.99978710871945187 0.99981799534630555 0.99980051755441002 0.99982567570172765 0.99978740102722308 0.99986214419752284 0.99987152614697983 0.99986080547645595 0.99987823629379857 0.99987281881167711 0.99985599799995961 0.99985167614907211 0.99984676312686671 0.99982883604213335 0.99980995242612758 0.99984842267227014 0.99986621592267777 0.99985870978512792 0.99987271141337541 0.99987455238324396 0.99987294817398853 0.99988109478870468 0.99987597409092355 0.99987723404046258 0.99988856714941499 0.9998878164663807 0.99989037053306329 0.99989813004210981 0.99989971250552656 0.99990582845310361 0.99991051204447912 0.99991107232845267 0.99990195049457176 0.99990811715387273 0.99992186895879998 0.99990604913090575 0.99990843768000881 0.99989540974993207 0.99989273505818299 0.99988246182725316 0.99988414078103482 0.99989848585782182 0.9999072089085056 0.99990423134293338 0.99992735018299872 0.99991765292783552 0.99991756241039675 0.99994205226013377 0.99995100057351061 0.99993541845455447 0.99996855043050492 0.99992113465748 0.99998348128817938 0.99991856927642464 0.99989165871850227 0.99997104528941683 0.99995556311773359 0.99995317047421672 0.99995174694152922 0.9999710490114968 0.99994507420091738 0.99997128542323965 0.9999533946361816 0.99995368802196849 0.99993230074818917 0.99993838501691434 0.99992673904446328 0.99994571385784659 0.99993114996486332 0.99994058658287066 0.99994966195394885 0.99994081598315132 0.99994171388756015 0.99993281078426499 0.99993362586932943 0.99992436524393624 0.99993032426718553 0.99993235089522237 0.99991860070920469 0.99992021825343547 0.99991615931343492 0.99992736809018889 0.99991196037892494 0.99991848591992039 0.99991995405487299 0.99991967480526933 0.99992613067361724 0.99992662027141288 0.9999214323020279 0.99992649551885848 0.99993268601239105 0.9999269991230596 0.99993041885685197 0.99992667072738595 0.9999286114069148 0.99993441769780134 0.99993046408035602 0.99993254263616693 0.99993702514271987 0.99994138314087722 0.99993929204541221 0.99993722735060286 0.99993302108850812 0.99993973390913793 0.99994831842368137 0.99994058929954133 0.99994896045475301 0.99995347552679503 0.99994489358308269 0.99994731581568519 0.99994953199850689 0.99994452280071788 0.99995273411970997 0.9999574330559946 0.99995988828600868 0.99995575724721475 0.99997087294606846 0.99997077103316123 0.99995548068843798 0.99997078153768504 0.99995990006387037 0.99995265311016102 0.99991651056246467 0.99991967918732672 0.99991854908026045 0.99991853455970559 0.99991787193375836 0.99991728436650473 0.99991759458693308 0.99991607966359786 0.99991397135343107 0.99991517563606491 0.99991363017244861 0.99991212071854263 0.99991206196767002 0.99991554387438097 0.99991673387906055 0.99991407672469979 0.99991260964568174 0.99991277512460275 0.99990955803476844 0.9999131900020235 0.99991514712951501 0.99991765758617146 0.99991249837007645 0.99991183089651081 0.99991249507402902 0.99991687190334344 0.99991662541915227 0.999914545350025 0.99991812331318775 0.99991839641590896 0.9999218110886714 0.99991764055628485 0.99991621014689402 0.99992221502199774 0.9999201056381164 0.99992165792587806 0.99992530226698639 0.99991903608449328 0.99992343623637303 0.99992278902059317 0.99992117424510385 0.99992035068897733 0.9999224128576667 0.99992524456741516 0.99992248402432793 0.99992307285828397 0.99992382975324268 0.99992571385662532 0.99992685630128453 0.99992011391879843 0.99992098693816789 0.99992779707169377 0.99992438128093042 0.99992478720345668 0.99992258773079501 0.99992247415885449 0.99992374803187256 0.99992116282881816 0.99992114495610207 0.99992193221491432 0.99991929690490977 0.99991987089962031 0.99991933960099233 0.99992094365808137 0.99992096781284334 0.99992118688607601 0.99992184195273093 0.99992187443550529 0.99992161319443529 0.99992185614879769 0.99992182451941003 0.99992116265444175 0.9999209108648679 0.99992091331628508 0.99991928857507939 0.99991927497183963 0.9999198487773503 0.99992109393772133 0.99992184860139244 0.99992114916616803 0.99992368437772672 0.99992245132227175 0.99992256327204521 0.99992306019417765 0.99992477125695045 0.99992292561515717 0.99992436097834103 0.99992001783160467 0.9999268545200678 0.9999263283263754 0.99992318518270562 0.99992364974962611 0.9999226336151078 0.99992574781982435 0.99992266168152566 0.99992131521822969 0.99992027753547241 0.99992293088917761 0.99992338779252787 0.99991900527471778 0.99992520489232606 0.99992156077500105 0.99991994100718362 0.99992207630250129 0.99991614093812864 0.9999175336524041 0.9999218924007407 0.99991823235591959 0.99991794986797167 0.99991450271583304 0.9999160707267658 0.99991660063397436 0.99991124285950916 0.99991184300103864 0.99991389353833793 0.99991743767828023 0.99991482517309316 0.99991304020376315 0.99990937685954318 0.99991255777554588 0.99991244638263332 0.99991410046282403 0.99991654809275654 0.99991555419489098 0.99991211420783299 0.99991209932254155 0.99991511070693218 0.99991365898599183 0.99991389397443031 0.99991599636065431 0.99991576343367439 0.99991784817098806 0.9999171828501352 0.99991749121847939 0.99991843187952245 0.99991855389910522 0.99991960677935232 0.99991644465604335 0.99995266320917908 0.99996004382436199 0.99997087784480909 0.99995569783643645 0.99997072442531987 0.99995577528976576 0.99996016517485153 0.99995718146776003 0.99995277137001559 0.99994934809941005 0.99994464561583951 0.99994755794491852 0.9999450112588808 0.99995388257571027 0.99994893324763168 0.99994853047385412 0.99994108390898573 0.99993990051551629 0.99993340543567966 0.9999375468227607 0.99993942912350497 0.99994134579699523 0.99993727534482357 0.99993250586260196 0.99993434779290236 0.99993114802255523 0.99992842954351557 0.99992699050577838 0.99993098939485869 0.99993279752988995 0.99992742937050549 0.9999267540287281 0.99992151218482117 0.99992717038175505 0.99992638492061958 0.99991884578659429 0.99992073854898667 0.99991158049645545 0.99991813914190386 0.99991461344323085 0.99992658011258639 0.99992473646282809 0.99992030497989548 0.9999342559188481 0.9999240059654716 0.99993382971704203 0.99993331087044679 0.99994223210996791 0.99994161847220087 0.99994927850069193 0.99994223089364198 0.99993172316565782 0.99994393348931565 0.99993029466827721 0.99993361460447827 0.99994334403602414 0.99995031001940182 0.99995333549639209 0.99997141365139763 0.99994426134659864 0.99997083433954892 0.99995165251922391 0.99995262440509824 0.99995542488253097 0.99997107668322882 0.99988229021885433 0.9999260351891236 0.99998253567341155 0.99996728604210972 0.99992611284102428 0.99993555656526434 0.99994711843244333 0.99992905536158416 0.99992856987557943 0.99993338309930735 0.99991385402827182 0.99990321609557409 0.999915128129651 0.99992983082458864 0.99988579408351452 0.99990651188409285 0.99987677631751737 0.99989210320525779 0.99988270106658039 0.99990575913600821 0.99989631987772432 0.99992127974341671 0.99990746645581274 0.9998967466982801 0.99991374751618378 0.99990581545568225 0.99990971603844769 0.99989895206541191 0.99990251662274521 0.99989109294483602 0.99988888150583088 0.99989388583676231 0.99988489897035426 0.99987460107834381 0.99988121031869825 0.99987284537007259 0.99988021322488452 0.9998745605421443 0.99985919775396503 0.99987399111855624 0.99986456774668719 0.99984938596107265 0.99981361581444372 0.99984457968252261 0.99985364797964471 0.9998731806675123 0.9998606495464436 0.99986566020961842 0.99983619813792657 0.9998920395498988 0.99977849596285617 0.99983150321848002 0.99979444440815779 0.99982086641706913 0.99978333178935697 0.99967685746739587 0.99980565395829812 0.99939004582214241 0.99939936941366125 0.99947978362439371 0.99965629925635846 1.0001341421386714 0.99983895489927865 0.99992638825804969 0.99984921913319658 0.9999051297806465 0.99990475762403463 0.99990232233775567 0.99990410390436824 0.99990443914492311 0.99990586628835765 0.99990709238704556 0.99990719314427134 0.99990884360301446 0.99991039012688543 0.99991055364680193 0.99990845941072415 0.99990849567542939 0.99990594439369629 0.99991011718079958 0.99991052998441732 0.99990536366062188 0.99990596607942317 0.99990738590915373 0.99990635521711424 0.99990655942218143 0.999907708200238 0.99990257215885037 0.99990183102465258 0.99990183136728816 0.99989747402870921 0.99989623262920468 0.99989420539225837 0.99990233614732094 0.99990100739573473 0.99990137473125906 0.99989833935993966 0.99989775141405801 0.99989745127838181 0.99989379016144841 0.99989509096926232 0.99988855517746034 0.99989380764903368 0.99989194563194306 0.99988382014878885 0.999890967193521 0.99988845703007445 0.99989079487379739 0.9998860671456351 0.99988460856691863 0.99989609497140508 0.99989178108229182 0.99989277325770975 0.99989738690878627 0.99989665022320218 0.9999002817766578 0.9998996963026443 0.99989803823259782 0.99989928185643995 0.99990063379862437 0.99990246551393747 0.99990155454114626 0.99989958079756625 0.99990347314472128 0.99990245420069834 0.99990184421193773 0.99990199673320079 0.99990151169068986 0.99990086765482267 0.9999018769797019 0.99990249446744461 0.99990109032807706 0.99990104405879832 0.99990185691644795 0.99990083071252112 0.99990168790975753 0.9998966663339951 0.99990040149910364 0.99989976591276708 0.99989814749278227 0.9998994837897599 0.99990076122776472 0.99990247251764208 0.9998995994890143 0.99990167583949463 0.99990199620501841 0.99990201756588137 0.99990349003160905 0.99990247370030838 0.99990447114611347 0.99990587147040599 0.99990413242885057 0.99990230984855544 0.99990474893083636 0.99990519298297964 0.99990847821578144 0.99990849530047421 0.999906025925556 0.99991005190632354 0.99991049846664826 0.9999103993556282 0.99990881566723555 0.99990721902293977 0.99990710960648876 0.99990177045364959 0.99990243891194708 0.99990619391253421 0.99990771388145727 0.99990650862322705 0.99991055078328561 0.99990740229844965 0.99990590972348858 0.99990536948722819 0.99990103462641 0.99990231817179709 0.99990137662909462 0.9998965449988173 0.99989745702369492 0.99990175686286453 0.99989407239400574 0.99988867147973381 0.99989190081183299 0.99989403110112762 0.99988373515768714 0.99989832229634579 0.99989789312705257 0.99989752915139951 0.99989381423206891 0.99989511162888178 0.99989610091786485 0.99989178774407905 0.99989276591539278 0.99989741643175789 0.99988838495601107 0.99989096263847399 0.99989075678501393 0.99988610538261069 0.99988446930150321 0.9998745690270846 0.99988017438698751 0.99986447533787515 0.9998594203498985 0.99987395968988246 0.99984945630945465 0.99981270398759536 0.99984434214638096 0.99985310548832551 0.99986007191583459 0.99987224050861101 0.99987439699175551 0.9998811943807574 0.9998847668417955 0.99987278771834442 0.99965469941023299 0.99940053923811867 0.99947937429682365 0.99938628298666643 0.99979723025405143 0.99966722448810397 0.99978362659102193 0.99982057912686984 0.99978824611578299 0.99982875017170147 0.99986411666577057 0.99983387425160108 0.99989136977391369 0.99976959032750312 0.99984219687360498 0.99984764967291495 0.9999277035409091 1.000133822642155 0.99998221653304509 0.99988411889060225 0.99992544680452677 0.99993179396325804 0.99988586652848166 0.99990655978351584 0.99987694835313168 0.99991588423481859 0.99991470467169441 0.99993389626672524 0.99992967973166669 0.9999042987668797 0.99992842608475596 0.99994785913578754 0.99993674586110681 0.99996645954610219 0.99992784357507525 0.99990228656461566 0.99989370372099162 0.99989086573128405 0.99988888988872526 0.99988274621769591 0.99989190789151339 0.99990581539856549 0.9998965684109129 0.99992151130713913 0.99990797626468408 0.99990593856423626 0.99991357467523945 0.99989673827184522 0.99989877691088758 0.9999096394544682 0.99991186271420729 0.99992077672865276 0.99992653865427672 0.99991800464884595 0.9999147263066992 0.99992463930524111 0.99992046676178514 0.99993427316729278 0.99992403805600205 0.99993300695434006 0.99993393478642389 0.99992719706952859 0.99992624360497473 0.99992149003777941 0.99991904328299375 0.99997077935411571 0.99994438550318754 0.99997112449811731 0.99995355213460191 0.99995080581870888 0.9999440470786829 0.99993391538877618 0.99993111969841542 0.99994381582212355 0.99993187624100932 0.99994174107097855 0.99994200059470784 0.99994970552657403 0.9999426653850163 0.99995291518913909 0.99995566340242525 0.9999709527195797 0.99995188864717377 0.99997072439246615 0.99995567690889164 0.99995275228618219 0.9999599583192057 0.99995382353671491 0.99994914788361944 0.99994896227288099 0.99994101419573023 0.99994497492110523 0.9999475835778906 0.9999444770996162 0.9999503940124056 0.99995271850779743 0.99995771863283933 0.99995996451641755 0.9999560464956645 0.99997082895011868 0.99993116880156474 0.99992690184208133 0.99992741235504723 0.9999329017649633 0.99993309569178457 0.99993997562388592 0.99993778162377001 0.99993944662186696 0.99994166033336152 0.99993728720966357 0.9999345736006765 0.99993110534284635 0.99993259107843413 0.9999270615512349 0.99992881691496061 0.99992623434190697 0.99992375726967875 0.999923255387001 0.99992268171131349 0.99992571373495953 0.99992260957033319 0.99992028907619745 0.9999213638721135 0.9999231018109439 0.99992144828326601 0.99992523128734456 0.99991897952958242 0.9999232566070938 0.99992683720471187 0.9999200033312694 0.99992425557536091 0.99992466673712954 0.99992246042666588 0.9999223549199725 0.99992161552557379 0.99992179979488582 0.99992176484704465 0.99992116608879311 0.9999208479239029 0.9999208518007634 0.99991920688936686 0.99991924408874322 0.99991982466742335 0.99992360567639804 0.99992107200812852 0.99992099203231499 0.99992183994148909 0.99991958496828626 0.99991856598358919 0.99991838655315635 0.99991642284382698 0.99991784754092505 0.99991744154733919 0.99991600220604948 0.99991358817824838 0.99991510163771979 0.99991386762618129 0.99991205994504984 0.99991653586148133 0.9999139537593682 0.99991543421207596 0.99991200220708332 0.99991246071980389 0.99991256654707772 0.99991739443402927 0.99991491853656556 0.99991299164661784 0.99990937652257883 0.99991196453269604 0.99991401723763662 0.99991116006768477 0.99991668819605728 0.99991448031028241 0.99991621124555918 0.99992198662576615 0.99991800989617374 0.99991829668580823 0.99991613365758503 0.99991993263679868 0.99992209783525976 0.99991751284490471 
</DataArray>
</CellData>
</Piece>
</UnstructuredGrid>
</VTKFile>
